     Program PWSCF v.6.4 starts on 28Nov2021 at 10: 8:12

     R & G space division:  proc/nbgrp/npool/nimage =      40
     Waiting for input...
     Reading input from standard input
Warning: card    &IONS ignored
Warning: card      ION_DYNAMICS = 'BFGS' ignored
Warning: card   / ignored
Warning: card    &CELL ignored
Warning: card      CELL_DYNAMICS = 'BFGS', ignored
Warning: card    / ignored

     Current dimensions of program PWSCF are:
     Max number of different atomic species (ntypx) = 10
     Max number of k-points (npk) =  40000
     Max angular momentum in pseudopotentials (lmaxx) =  3

     bravais-lattice index     =            0
     lattice parameter (alat)  =      12.0851  a.u.
     unit-cell volume          =    3736.3092 (a.u.)^3
     number of atoms/cell      =           24
     number of atomic types    =            2
     number of electrons       =       144.00
     number of Kohn-Sham states=           86
     kinetic-energy cutoff     =      45.0000  Ry
     charge density cutoff     =     360.0000  Ry
     convergence threshold     =      1.0E-06
     mixing beta               =       0.7000
     number of iterations used =            8  local-TF  mixing
     Exchange-correlation      = SLA PW GGX GGC ( 1  4  2  2 0 0)

     celldm(1)=  12.085068  celldm(2)=   0.000000  celldm(3)=   0.000000
     celldm(4)=   0.000000  celldm(5)=   0.000000  celldm(6)=   0.000000

     crystal axes: (cart. coord. in units of alat)
               a(1) = (   0.999189   0.004751  -0.039985 )
               a(2) = (   0.501100   0.875755  -0.017830 )
               a(3) = (  -3.273994   0.499092   2.558089 )

     reciprocal axes: (cart. coord. in units 2 pi/alat)
               b(1) = (  1.062489 -0.577965  1.472599 )
               b(2) = ( -0.015168  1.145605 -0.242925 )
               b(3) = (  0.016502 -0.001049  0.412241 )

     PseudoPot. # 1 for Mo read from file:
     ~/pseudo/Mo.pw91-n-van.UPF
     MD5 check sum: Not computed, couldn't open file
     Pseudo is Ultrasoft + core correction, Zval =  6.0
     Generated by new atomic code, or converted to UPF format
     Using radial grid of  965 points,  3 beta functions with:
                l(1) =   1
                l(2) =   2
                l(3) =   2
     Q(r) pseudized with  8 coefficients,  rinner =    1.000   1.000   1.000
                                                       1.200   1.200

     PseudoPot. # 2 for S  read from file:
     ~/pseudo/S.pw91-van_ak.UPF
     MD5 check sum: Not computed, couldn't open file
     Pseudo is Ultrasoft, Zval =  6.0
     Generated by new atomic code, or converted to UPF format
     Using radial grid of  811 points,  6 beta functions with:
                l(1) =   0
                l(2) =   0
                l(3) =   1
                l(4) =   1
                l(5) =   2
                l(6) =   2
     Q(r) pseudized with  8 coefficients,  rinner =    1.100   1.100   1.100
                                                       1.100   1.100

     atomic species   valence    mass     pseudopotential
        Mo             6.00    95.50000     Mo( 1.00)
        S              6.00    32.06500     S ( 1.00)

     No symmetry found

   Cartesian axes

     site n.     atom                  positions (alat units)
         1           Mo  tau(   1) = (  -1.7355194   0.7329692   2.0161429  )
         2           Mo  tau(   2) = (  -1.2722717   0.5500937   1.8382269  )
         3           Mo  tau(   3) = (  -0.4125097   0.2447072   0.6137206  )
         4           Mo  tau(   4) = (  -1.1354641   1.2007604   1.8305423  )
         5           Mo  tau(   5) = (   0.0886398   0.2477161   0.5937124  )
         6           Mo  tau(   6) = (  -1.5460776   0.7015705   1.6283083  )
         7           Mo  tau(   7) = (   0.3379709   0.6857846   0.5846284  )
         8           Mo  tau(   8) = (  -0.1601354   0.6856344   0.6075248  )
         9           S   tau(   9) = (   0.0787948   0.5408023   0.3509226  )
        10           S   tau(  10) = (   0.0977518   0.5364315   0.8418259  )
        11           S   tau(  11) = (  -0.1725156   0.1036547   0.3565180  )
        12           S   tau(  12) = (  -0.1521984   0.0993777   0.8458156  )
        13           S   tau(  13) = (  -1.4798151   0.4913800   2.1579782  )
        14           S   tau(  14) = (  -0.9299409   1.2225279   1.5202197  )
        15           S   tau(  15) = (  -0.6706319   0.1022835   0.3770672  )
        16           S   tau(  16) = (  -0.6529942   0.0977701   0.8740264  )
        17           S   tau(  17) = (  -1.8923754   0.5599795   1.7300258  )
        18           S   tau(  18) = (  -1.2647210   1.0427880   1.4722374  )
        19           S   tau(  19) = (  -0.4199368   0.5391521   0.3717193  )
        20           S   tau(  20) = (  -0.4013281   0.5332112   0.8588468  )
        21           S   tau(  21) = (  -1.9088320   0.8336544   2.3388741  )
        22           S   tau(  22) = (  -1.5708745   1.0342881   1.8736163  )
        23           S   tau(  23) = (  -1.1060098   0.8722470   2.0332039  )
        24           S   tau(  24) = (  -1.2359449   0.7287236   1.4236948  )

     number of k points=    16  Marzari-Vanderbilt smearing, width (Ry)=  0.0200
                       cart. coord. in units 2pi/alat
        k(    1) = (   0.0000000   0.0000000   0.0000000), wk =   0.0666667
        k(    2) = (  -0.0082508   0.0005244  -0.2061206), wk =   0.0666667
        k(    3) = (  -0.0050561   0.3818685  -0.0809749), wk =   0.1333333
        k(    4) = (  -0.0133069   0.3823929  -0.2870955), wk =   0.1333333
        k(    5) = (   0.2124978  -0.1155930   0.2945198), wk =   0.1333333
        k(    6) = (   0.2042469  -0.1150686   0.0883992), wk =   0.1333333
        k(    7) = (   0.2074416   0.2662754   0.2135449), wk =   0.1333333
        k(    8) = (   0.1991908   0.2667999   0.0074243), wk =   0.1333333
        k(    9) = (   0.2175539  -0.4974615   0.3754947), wk =   0.1333333
        k(   10) = (   0.2093031  -0.4969371   0.1693741), wk =   0.1333333
        k(   11) = (   0.4249955  -0.2311860   0.5890396), wk =   0.1333333
        k(   12) = (   0.4167447  -0.2306616   0.3829190), wk =   0.1333333
        k(   13) = (   0.4199394   0.1506824   0.5080647), wk =   0.1333333
        k(   14) = (   0.4116886   0.1512069   0.3019441), wk =   0.1333333
        k(   15) = (   0.4300516  -0.6130545   0.6700146), wk =   0.1333333
        k(   16) = (   0.4218008  -0.6125301   0.4638939), wk =   0.1333333

     Initial potential from superposition of free atoms

     starting charge  143.98738, renormalised to  144.00000
     Starting wfcs are  136 randomized atomic wfcs

     Self-consistent Calculation

     iteration #  1     ecut=    45.00 Ry     beta= 0.70
     Davidson diagonalization with overlap
     ethr =  1.00E-02,  avg # of iterations =  2.0

     total energy              =    -562.35825857 Ry
     Harris-Foulkes estimate   =    -563.79132751 Ry
     estimated scf accuracy    <       3.72384026 Ry

[...]

     total energy              =    -563.05052001 Ry
     Harris-Foulkes estimate   =    -563.05052072 Ry
     estimated scf accuracy    <       0.00000333 Ry

     iteration # 15     ecut=    45.00 Ry     beta= 0.70
     Davidson diagonalization with overlap
     ethr =  2.31E-09,  avg # of iterations =  4.1

     End of self-consistent calculation

          k = 0.0000 0.0000 0.0000 ( 19003 PWs)   bands (ev):

    -9.8916  -9.3914  -9.0258  -7.9585  -7.8040  -7.5245  -7.3051  -7.2844
    -7.2366  -7.0182  -7.0023  -6.9756  -6.9440  -6.6720  -5.6395  -5.5718
    -0.6650  -0.6572  -0.6348  -0.5311  -0.3299  -0.2751   0.0746   0.2394
     0.2944   0.3018   0.3303   0.4319   0.8394   0.9003   0.9710   1.0020
     1.0488   1.2683   1.4339   1.6420   1.7219   1.8162   1.8834   1.9314
     1.9845   2.2174   2.3344   2.4241   2.4483   2.6173   2.8071   2.9560
     3.0962   3.1183   3.1852   3.2082   3.3556   3.4258   3.5037   3.5443
     3.6613   3.9888   4.0332   4.0722   4.1088   4.1318   4.3414   4.3525
     4.3962   4.4591   4.5596   4.6922   4.8370   5.0199   5.1485   6.1753
     6.5404   6.7812   6.8246   7.0332   7.0408   7.0704   7.2332   7.2652
     7.3317   7.5349   7.5646   7.5835   7.5915   7.6980

          k =-0.0083 0.0005-0.2061 ( 18996 PWs)   bands (ev):

[...]

          k =-0.0133 0.3824-0.2871 ( 19048 PWs)   bands (ev):

[...]

          k = 0.4218-0.6125 0.4639 ( 19089 PWs)   bands (ev):

    -9.7128  -9.3583  -8.1913  -8.1200  -8.0370  -7.8702  -7.8215  -7.4051
    -7.3408  -7.2559  -7.0436  -6.9983  -6.8448  -6.7517  -5.5869  -5.0974
    -0.8462  -0.2946  -0.2476  -0.0396   0.0963   0.1151   0.1590   0.2846
     0.4127   0.5982   0.8365   0.9639   1.1013   1.1408   1.1637   1.2210
     1.2630   1.3070   1.3924   1.4232   1.5105   1.6555   1.7047   1.8101
     1.9111   1.9836   2.0438   2.1183   2.1291   2.1829   2.2752   2.5079
     2.6364   2.8782   2.9329   2.9696   3.0640   3.1090   3.2958   3.3692
     3.7108   3.8477   3.8840   3.9846   4.0552   4.1793   4.2138   4.2637
     4.2901   4.5344   4.7837   4.9313   5.0662   5.1117   5.4279   5.9621
     6.2715   6.6171   6.6356   6.6982   6.8818   6.8889   6.9387   7.0999
     7.2186   7.3139   7.3357   7.3708   7.4100   7.5002

     the Fermi energy is     6.1680 ev

!    total energy              =    -563.05052001 Ry
     Harris-Foulkes estimate   =    -563.05052055 Ry
     estimated scf accuracy    <       0.00000069 Ry

     The total energy is the sum of the following terms:

     one-electron contribution =    -172.42372015 Ry
     hartree contribution      =     162.15459360 Ry
     xc contribution           =    -222.75499144 Ry
     ewald contribution        =    -330.02261026 Ry
     smearing contrib. (-TS)   =      -0.00379176 Ry

     convergence has been achieved in  15 iterations

     Forces acting on atoms (cartesian axes, Ry/au):

     atom    1 type  1   force =     0.00936366    0.00848915    0.00706550
     atom    2 type  1   force =    -0.00879802    0.00798488    0.00964187
     atom    3 type  1   force =    -0.00124379    0.00468249    0.00186395
     atom    4 type  1   force =    -0.01923613   -0.00549686    0.00215091
     atom    5 type  1   force =    -0.00224399    0.00349014    0.00205147
     atom    6 type  1   force =     0.01565654    0.01331227    0.00612992
     atom    7 type  1   force =     0.00004154    0.00109281    0.00296832
     atom    8 type  1   force =    -0.00485795   -0.00238226   -0.00468496
     atom    9 type  2   force =    -0.00277793   -0.00161961   -0.01098540
     atom   10 type  2   force =     0.00471215    0.00329096    0.00437637
     atom   11 type  2   force =     0.00259455   -0.00586550   -0.00406618
     atom   12 type  2   force =     0.00075343    0.00027234    0.01681678
     atom   13 type  2   force =     0.00238421   -0.00626450   -0.01696454
     atom   14 type  2   force =     0.01351222    0.00402730    0.01569087
     atom   15 type  2   force =    -0.00204463   -0.00995599   -0.00255619
     atom   16 type  2   force =     0.00427117    0.00295515   -0.00548941
     atom   17 type  2   force =    -0.00373902    0.00506266   -0.00553978
     atom   18 type  2   force =    -0.02773765   -0.00923296   -0.00676049
     atom   19 type  2   force =     0.00204560   -0.00288843   -0.01266496
     atom   20 type  2   force =    -0.00047109    0.00524965    0.01103045
     atom   21 type  2   force =     0.00744301   -0.00352185   -0.01099133
     atom   22 type  2   force =    -0.00498087   -0.01489181    0.01336824
     atom   23 type  2   force =     0.00616068   -0.02330360   -0.00908923
     atom   24 type  2   force =     0.00919231    0.02551356   -0.00336217

     Total force =     0.078768     Total SCF correction =     0.001572

     General routines

     Parallel routines

   This run was terminated on:  10:10:51  28Nov2021

   JOB DONE.