     Program PWSCF v.6.4 starts on  4Aug2021 at 16: 0:25

     R & G space division:  proc/nbgrp/npool/nimage =      40
     Waiting for input...
     Reading input from standard input
Warning: card    &IONS ignored
Warning: card      ION_DYNAMICS = 'BFGS' ignored
Warning: card   / ignored
Warning: card    &CELL ignored
Warning: card      CELL_DYNAMICS = 'BFGS', ignored
Warning: card    / ignored

     Current dimensions of program PWSCF are:
     Max number of different atomic species (ntypx) = 10
     Max number of k-points (npk) =  40000
     Max angular momentum in pseudopotentials (lmaxx) =  3

     bravais-lattice index     =            0
     lattice parameter (alat)  =      13.0119  a.u.
     unit-cell volume          =    7714.8177 (a.u.)^3
     number of atoms/cell      =           36
     number of atomic types    =            2
     number of electrons       =       216.00
     number of Kohn-Sham states=          130
     kinetic-energy cutoff     =      45.0000  Ry
     charge density cutoff     =     360.0000  Ry
     convergence threshold     =      1.0E-06
     mixing beta               =       0.7000
     number of iterations used =            8  local-TF  mixing
     Exchange-correlation      = SLA PW GGX GGC ( 1  4  2  2 0 0)

     celldm(1)=  13.011878  celldm(2)=   0.000000  celldm(3)=   0.000000
     celldm(4)=   0.000000  celldm(5)=   0.000000  celldm(6)=   0.000000

     crystal axes: (cart. coord. in units of alat)
               a(1) = (   1.000000   0.000332   0.000858 )
               a(2) = (  -0.493217   0.880190  -0.017867 )
               a(3) = (  -0.029618   0.126841   3.975315 )

     reciprocal axes: (cart. coord. in units 2 pi/alat)
               b(1) = (  0.999823  0.560043 -0.010420 )
               b(2) = ( -0.000346  1.135190 -0.036223 )
               b(3) = ( -0.000217  0.004981  0.251392 )

     PseudoPot. # 1 for Mo read from file:
     ~/pseudo/Mo.pw91-n-van.UPF
     MD5 check sum: Not computed, couldn't open file
     Pseudo is Ultrasoft + core correction, Zval =  6.0
     Generated by new atomic code, or converted to UPF format
     Using radial grid of  965 points,  3 beta functions with:
                l(1) =   1
                l(2) =   2
                l(3) =   2
     Q(r) pseudized with  8 coefficients,  rinner =    1.000   1.000   1.000
                                                       1.200   1.200

     PseudoPot. # 2 for S  read from file:
     ~/pseudo/S.pw91-van_ak.UPF
     MD5 check sum: Not computed, couldn't open file
     Pseudo is Ultrasoft, Zval =  6.0
     Generated by new atomic code, or converted to UPF format
     Using radial grid of  811 points,  6 beta functions with:
                l(1) =   0
                l(2) =   0
                l(3) =   1
                l(4) =   1
                l(5) =   2
                l(6) =   2
     Q(r) pseudized with  8 coefficients,  rinner =    1.100   1.100   1.100
                                                       1.100   1.100

     atomic species   valence    mass     pseudopotential
        Mo             6.00    95.50000     Mo( 1.00)
        S              6.00    32.06500     S ( 1.00)

     No symmetry found

   Cartesian axes

     site n.     atom                  positions (alat units)
         1           Mo  tau(   1) = (   0.2822796   0.1657373  -0.0293170  )
         2           Mo  tau(   2) = (  -0.0004171   0.5964095   0.0468093  )
         3           Mo  tau(   3) = (   0.7153243   0.1868361  -0.0231346  )
         4           Mo  tau(   4) = (   0.5058624   0.5820174   0.0927152  )
         5           Mo  tau(   5) = (  -0.0358158   0.4842826   3.0755836  )
         6           Mo  tau(   6) = (  -0.2569546   0.9076849   2.9570179  )
         7           Mo  tau(   7) = (   0.4693968   0.4761015   3.0623499  )
         8           Mo  tau(   8) = (   0.2377384   0.9055403   2.9771150  )
         9           Mo  tau(   9) = (  -0.0208794   0.2572479   0.8438040  )
        10           Mo  tau(  10) = (  -0.2489029   0.7495448   0.9689257  )
        11           Mo  tau(  11) = (   0.4898088   0.2962900   0.9397827  )
        12           Mo  tau(  12) = (   0.2453735   0.7376251   0.8959674  )
        13           S   tau(  13) = (  -0.0154543   0.3089885   0.2162257  )
        14           S   tau(  14) = (  -0.2428448   0.7929216   0.2206626  )
        15           S   tau(  15) = (   0.4895580   0.2792998   0.2462133  )
        16           S   tau(  16) = (   0.2497895   0.7915584   0.2181028  )
        17           S   tau(  17) = (   0.2153702   0.2915762   3.2294586  )
        18           S   tau(  18) = (  -0.0651727   0.7809177   3.2380470  )
        19           S   tau(  19) = (   0.7150889   0.2964037   3.2430558  )
        20           S   tau(  20) = (   0.4067932   0.7486997   3.2544658  )
        21           S   tau(  21) = (   0.2110766   0.1912556   1.1321370  )
        22           S   tau(  22) = (   0.0224829   0.7221785   1.1767846  )
        23           S   tau(  23) = (   0.7820613   0.2591051   1.1311932  )
        24           S   tau(  24) = (   0.4807149   0.6088809   1.1439898  )
        25           S   tau(  25) = (  -0.0313341   0.2148507   3.7493404  )
        26           S   tau(  26) = (  -0.3089384   0.6346188   3.7999039  )
        27           S   tau(  27) = (   0.4782802   0.1211953   3.7455592  )
        28           S   tau(  28) = (   0.2522790   0.6215141   3.8083300  )
        29           S   tau(  29) = (   0.4023984   0.2696945   2.7814360  )
        30           S   tau(  30) = (   0.0075544   0.7121101   2.7937249  )
        31           S   tau(  31) = (   0.9016530   0.2758291   2.8008583  )
        32           S   tau(  32) = (   0.5042229   0.7212848   2.7932395  )
        33           S   tau(  33) = (   0.2175927   0.0791180   0.6917589  )
        34           S   tau(  34) = (  -0.0331120   0.5911026   0.7290369  )
        35           S   tau(  35) = (   0.6947466   0.1332498   0.6850975  )
        36           S   tau(  36) = (   0.4302216   0.5344600   0.6817678  )

     number of k points=     5  Marzari-Vanderbilt smearing, width (Ry)=  0.0200
                       cart. coord. in units 2pi/alat
        k(    1) = (   0.0000000   0.0000000   0.0000000), wk =   0.2222222
        k(    2) = (  -0.0001153   0.3783965  -0.0120744), wk =   0.4444444
        k(    3) = (   0.3332745   0.1866809  -0.0034734), wk =   0.4444444
        k(    4) = (   0.3331592   0.5650774  -0.0155478), wk =   0.4444444
        k(    5) = (   0.3333897  -0.1917157   0.0086010), wk =   0.4444444

     Initial potential from superposition of free atoms

     starting charge  215.98107, renormalised to  216.00000

     negative rho (up, down):  4.787E-04 0.000E+00
     Starting wfcs are  204 randomized atomic wfcs

     Self-consistent Calculation

     iteration #  1     ecut=    45.00 Ry     beta= 0.70
     Davidson diagonalization with overlap
     ethr =  1.00E-02,  avg # of iterations =  2.0

     negative rho (up, down):  2.750E-04 0.000E+00

     total energy              =    -842.26880424 Ry
     Harris-Foulkes estimate   =    -845.89133541 Ry
     estimated scf accuracy    <       9.62986913 Ry

[...]

     iteration #  7     ecut=    45.00 Ry     beta= 0.70
     Davidson diagonalization with overlap
     c_bands:  1 eigenvalues not converged
     ethr =  3.52E-06,  avg # of iterations = 14.4

[...]

     total energy              =    -844.23156402 Ry
     Harris-Foulkes estimate   =    -844.23156376 Ry
     estimated scf accuracy    <       0.00000182 Ry

     iteration # 18     ecut=    45.00 Ry     beta= 0.70
     Davidson diagonalization with overlap
     ethr =  8.42E-10,  avg # of iterations =  3.8

[...]

     End of self-consistent calculation

          k = 0.0000 0.0000 0.0000 ( 39265 PWs)   bands (ev):

   -11.4453 -11.3967 -11.2739 -10.5450 -10.4551 -10.3595 -10.2628 -10.2221
   -10.1649 -10.1619 -10.1273 -10.0763 -10.0212 -10.0141  -9.9235  -9.9211
    -9.8641  -9.8225  -9.7593  -9.7145  -9.6257  -9.6251  -9.5047  -9.2309
    -3.2978  -3.2347  -3.1720  -3.0313  -2.9585  -2.9003  -2.8320  -2.8069
    -2.7284  -2.6845  -2.6156  -2.3698  -2.1981  -2.0591  -2.0234  -2.0171
    -1.9850  -1.9580  -1.9357  -1.9095  -1.7946  -1.7207  -1.6671  -1.5923
    -1.4926  -1.4401  -1.4144  -1.3837  -1.3133  -1.2609  -1.2136  -1.1635
    -1.1267  -1.0974  -1.0932  -1.0624  -1.0209  -0.9611  -0.9033  -0.8507
    -0.8072  -0.7488  -0.5519  -0.3843  -0.3673  -0.1960  -0.1641  -0.1565
    -0.1467  -0.0905   0.0203   0.0675   0.1052   0.1108   0.2098   0.2975
     0.3160   0.3753   0.4357   0.5914   0.6348   0.6930   0.7444   0.7984
     0.8827   0.9358   0.9997   1.1375   1.2404   1.2769   1.4707   1.5390
     1.8519   1.9718   2.0567   2.0789   2.1345   2.2133   2.2316   2.3515
     2.4020   2.4839   2.5270   2.6353   2.6763   2.7188   2.7734   2.8083
     2.8700   3.1813   3.2111   3.3470   3.3882   3.4417   3.4559   3.5547
     3.6054   3.6256   3.6766   3.7139   3.7318   3.8401   3.8568   3.9550
     3.9673   4.1074

          k =-0.0001 0.3784-0.0121 ( 39349 PWs)   bands (ev):

[...]

          k = 0.3334-0.1917 0.0086 ( 39326 PWs)   bands (ev):

   -11.1832 -11.1517 -11.0043 -10.5962 -10.5517 -10.4759 -10.4149 -10.3459
   -10.3074 -10.2008 -10.1690 -10.1208 -10.0800 -10.0294  -9.9787  -9.9260
    -9.9051  -9.8393  -9.7959  -9.7678  -9.6904  -9.6185  -9.4431  -9.2720
    -2.9264  -2.8249  -2.7674  -2.7173  -2.6674  -2.6476  -2.5547  -2.5311
    -2.4917  -2.3722  -2.3229  -2.2799  -2.1574  -2.1382  -2.1023  -2.0670
    -1.9923  -1.9222  -1.8735  -1.7999  -1.7506  -1.7010  -1.6810  -1.6548
    -1.5904  -1.5045  -1.4378  -1.4003  -1.3786  -1.3234  -1.2641  -1.2009
    -1.1511  -1.1069  -1.0698  -1.0066  -0.9830  -0.9040  -0.8257  -0.8192
    -0.7609  -0.7374  -0.6236  -0.5860  -0.5648  -0.4926  -0.4446  -0.3674
    -0.3554  -0.2626  -0.1788  -0.1137  -0.0732   0.0447   0.1022   0.1663
     0.2407   0.2997   0.3353   0.3667   0.5231   0.5582   0.6281   0.6622
     0.7127   0.8001   0.8663   0.9350   0.9833   1.1628   1.2767   1.5255
     1.7810   1.8158   1.8830   1.9373   1.9806   2.0939   2.1215   2.1805
     2.2222   2.3194   2.3553   2.5015   2.7517   2.7751   2.7901   2.9034
     3.0592   3.1582   3.2272   3.2764   3.2824   3.3738   3.4477   3.4585
     3.4989   3.5904   3.7026   3.7750   3.7897   3.9185   4.0055   4.0408
     4.1093   4.1580

     the Fermi energy is     2.6210 ev

!    total energy              =    -844.23156342 Ry
     Harris-Foulkes estimate   =    -844.23156412 Ry
     estimated scf accuracy    <       0.00000049 Ry

     The total energy is the sum of the following terms:

     one-electron contribution =   -3306.04420286 Ry
     hartree contribution      =    1743.16069117 Ry
     xc contribution           =    -331.82258155 Ry
     ewald contribution        =    1050.46753684 Ry
     smearing contrib. (-TS)   =       0.00699297 Ry

     convergence has been achieved in  18 iterations

     negative rho (up, down):  7.256E-04 0.000E+00

     Forces acting on atoms (cartesian axes, Ry/au):

     atom    1 type  1   force =     0.00860157    0.03726264    0.02584019
     atom    2 type  1   force =    -0.00910018    0.01199461   -0.01414754
     atom    3 type  1   force =    -0.01894336    0.02996291    0.02284110
     atom    4 type  1   force =     0.00469609   -0.04607225   -0.03451305
     atom    5 type  1   force =     0.00342886   -0.02958224   -0.02590815
     atom    6 type  1   force =     0.00805275    0.01675857    0.02385549
     atom    7 type  1   force =     0.00133136   -0.01114700   -0.01793572
     atom    8 type  1   force =     0.00024041   -0.01247008    0.02525519
     atom    9 type  1   force =    -0.00579846    0.03288055    0.03895623
     atom   10 type  1   force =     0.00605268    0.00451860   -0.02391529
     atom   11 type  1   force =    -0.02129192    0.01874110   -0.02743394
     atom   12 type  1   force =    -0.01438111    0.02073721    0.02522356
     atom   13 type  2   force =     0.01283065   -0.00671782   -0.01898609
     atom   14 type  2   force =    -0.01020131   -0.00938827   -0.01846632
     atom   15 type  2   force =     0.00759045    0.02551908   -0.01098001
     atom   16 type  2   force =     0.00155191   -0.01306263   -0.01884862
     atom   17 type  2   force =    -0.00788450    0.01377392   -0.00480633
     atom   18 type  2   force =     0.00983878    0.01060257   -0.03617268
     atom   19 type  2   force =    -0.00362169    0.01750929   -0.00939879
     atom   20 type  2   force =     0.02053295    0.01022328   -0.02863318
     atom   21 type  2   force =     0.00322791   -0.00580329   -0.02311253
     atom   22 type  2   force =    -0.01550280   -0.02056501   -0.02034045
     atom   23 type  2   force =    -0.02325560   -0.04250910   -0.01775813
     atom   24 type  2   force =     0.00110818   -0.00286087   -0.02209406
     atom   25 type  2   force =     0.00744819   -0.01425868    0.03285389
     atom   26 type  2   force =     0.02293197   -0.02080324    0.00395291
     atom   27 type  2   force =    -0.00478362    0.01211187    0.01994763
     atom   28 type  2   force =    -0.02319573   -0.01042872    0.00093290
     atom   29 type  2   force =     0.00339932   -0.00781901    0.01969778
     atom   30 type  2   force =    -0.01489356    0.00753273    0.01841260
     atom   31 type  2   force =     0.00437923   -0.01143747    0.01607817
     atom   32 type  2   force =    -0.02419239   -0.00424579    0.01821841
     atom   33 type  2   force =     0.02155621    0.00972394    0.02522245
     atom   34 type  2   force =     0.00485896   -0.02311074    0.00480995
     atom   35 type  2   force =     0.02219602   -0.00657737    0.02233848
     atom   36 type  2   force =     0.02119181    0.01900672    0.02901395

     Total force =     0.196758     Total SCF correction =     0.001796

     General routines

     Parallel routines

   This run was terminated on:  16: 2:50   4Aug2021

   JOB DONE.