     Program PWSCF v.6.4 starts on 28Nov2021 at 10: 7:47

     R & G space division:  proc/nbgrp/npool/nimage =      40
     Waiting for input...
     Reading input from standard input
Warning: card    &IONS ignored
Warning: card      ION_DYNAMICS = 'BFGS' ignored
Warning: card   / ignored
Warning: card    &CELL ignored
Warning: card      CELL_DYNAMICS = 'BFGS', ignored
Warning: card    / ignored

     Current dimensions of program PWSCF are:
     Max number of different atomic species (ntypx) = 10
     Max number of k-points (npk) =  40000
     Max angular momentum in pseudopotentials (lmaxx) =  3

     bravais-lattice index     =            0
     lattice parameter (alat)  =      10.4784  a.u.
     unit-cell volume          =    3333.6273 (a.u.)^3
     number of atoms/cell      =           27
     number of atomic types    =            2
     number of electrons       =       162.00
     number of Kohn-Sham states=           97
     kinetic-energy cutoff     =      45.0000  Ry
     charge density cutoff     =     360.0000  Ry
     convergence threshold     =      1.0E-06
     mixing beta               =       0.7000
     number of iterations used =            8  local-TF  mixing
     Exchange-correlation      = SLA PW GGX GGC ( 1  4  2  2 0 0)

     celldm(1)=  10.478437  celldm(2)=   0.000000  celldm(3)=   0.000000
     celldm(4)=   0.000000  celldm(5)=   0.000000  celldm(6)=   0.000000

     crystal axes: (cart. coord. in units of alat)
               a(1) = (   0.999573   0.006818   0.028410 )
               a(2) = (  -0.007135   1.625475   0.001513 )
               a(3) = (   0.003969   0.431301   1.783849 )

     reciprocal axes: (cart. coord. in units 2 pi/alat)
               b(1) = (  1.000491  0.004395 -0.003289 )
               b(2) = (  0.000031  0.615344 -0.148779 )
               b(3) = ( -0.015934 -0.000592  0.560764 )

     PseudoPot. # 1 for Mo read from file:
     ~/pseudo/Mo.pw91-n-van.UPF
     MD5 check sum: Not computed, couldn't open file
     Pseudo is Ultrasoft + core correction, Zval =  6.0
     Generated by new atomic code, or converted to UPF format
     Using radial grid of  965 points,  3 beta functions with:
                l(1) =   1
                l(2) =   2
                l(3) =   2
     Q(r) pseudized with  8 coefficients,  rinner =    1.000   1.000   1.000
                                                       1.200   1.200

     PseudoPot. # 2 for S  read from file:
     ~/pseudo/S.pw91-van_ak.UPF
     MD5 check sum: Not computed, couldn't open file
     Pseudo is Ultrasoft, Zval =  6.0
     Generated by new atomic code, or converted to UPF format
     Using radial grid of  811 points,  6 beta functions with:
                l(1) =   0
                l(2) =   0
                l(3) =   1
                l(4) =   1
                l(5) =   2
                l(6) =   2
     Q(r) pseudized with  8 coefficients,  rinner =    1.100   1.100   1.100
                                                       1.100   1.100

     atomic species   valence    mass     pseudopotential
        Mo             6.00    95.50000     Mo( 1.00)
        S              6.00    32.06500     S ( 1.00)

     No symmetry found

   Cartesian axes

     site n.     atom                  positions (alat units)
         1           Mo  tau(   1) = (   0.9669081   1.1009286   0.7430441  )
         2           Mo  tau(   2) = (   0.9537785   1.0488737   0.1793995  )
         3           Mo  tau(   3) = (   0.9528535   0.6048730   0.6207711  )
         4           Mo  tau(   4) = (   0.9535369   1.8744197   1.5639006  )
         5           Mo  tau(   5) = (   0.9685486   0.6731275   1.1338596  )
         6           Mo  tau(   6) = (   0.9692843   1.8101504   0.9991659  )
         7           Mo  tau(   7) = (   0.4608539   0.8561159   1.7526021  )
         8           Mo  tau(   8) = (   0.4714479   1.2664010   1.3654134  )
         9           Mo  tau(   9) = (   0.4405781   1.6463886   0.3465487  )
        10           S   tau(  10) = (   0.6617344   0.4708388   0.9084520  )
        11           S   tau(  11) = (   0.2821559   1.4176690   0.9685139  )
        12           S   tau(  12) = (   0.7209577   1.2093573   1.6990468  )
        13           S   tau(  13) = (   0.2612139   0.3733566   1.2219122  )
        14           S   tau(  14) = (   0.7435396   1.0634884   1.0972314  )
        15           S   tau(  15) = (   0.6127902   1.4960968   0.7343388  )
        16           S   tau(  16) = (   0.6871200   1.3817911   0.1198403  )
        17           S   tau(  17) = (   0.1988473   0.9415756   1.4037082  )
        18           S   tau(  18) = (   0.1938030   0.6774730   0.2165888  )
        19           S   tau(  19) = (   0.2150494   1.2600487   0.4069865  )
        20           S   tau(  20) = (   0.1859094   0.2291806   0.6071377  )
        21           S   tau(  21) = (   0.2164570   1.5282912   1.5883465  )
        22           S   tau(  22) = (   0.6745010   0.9145198   0.4951192  )
        23           S   tau(  23) = (   0.7101120   1.6378067   1.3016086  )
        24           S   tau(  24) = (   0.1834516   0.0823262   0.0208893  )
        25           S   tau(  25) = (   0.2648319   0.8039453   0.8194813  )
        26           S   tau(  26) = (   0.7027770   0.6016986   1.4942016  )
        27           S   tau(  27) = (   0.7222616   0.3443233   0.3136827  )

     number of k points=     8  Marzari-Vanderbilt smearing, width (Ry)=  0.0200
                       cart. coord. in units 2pi/alat
        k(    1) = (   0.0000000   0.0000000   0.0000000), wk =   0.1666667
        k(    2) = (   0.0079670   0.0002959  -0.2803821), wk =   0.1666667
        k(    3) = (  -0.0000156  -0.3076718   0.0743893), wk =   0.1666667
        k(    4) = (   0.0079515  -0.3073759  -0.2059929), wk =   0.1666667
        k(    5) = (   0.3334969   0.0014649  -0.0010963), wk =   0.3333333
        k(    6) = (   0.3414639   0.0017608  -0.2814784), wk =   0.3333333
        k(    7) = (   0.3334813  -0.3062069   0.0732930), wk =   0.3333333
        k(    8) = (   0.3414483  -0.3059110  -0.2070891), wk =   0.3333333

     Initial potential from superposition of free atoms

     starting charge  161.98581, renormalised to  162.00000
     Starting wfcs are  153 randomized atomic wfcs

     Self-consistent Calculation

     iteration #  1     ecut=    45.00 Ry     beta= 0.70
     Davidson diagonalization with overlap
     ethr =  1.00E-02,  avg # of iterations =  2.0

     total energy              =    -632.40882066 Ry
     Harris-Foulkes estimate   =    -634.49329940 Ry
     estimated scf accuracy    <       5.21504730 Ry

[...]

     total energy              =    -633.49770752 Ry
     Harris-Foulkes estimate   =    -633.49770770 Ry
     estimated scf accuracy    <       0.00000126 Ry

     iteration # 13     ecut=    45.00 Ry     beta= 0.70
     Davidson diagonalization with overlap
     ethr =  7.78E-10,  avg # of iterations =  1.4

     End of self-consistent calculation

          k = 0.0000 0.0000 0.0000 ( 16999 PWs)   bands (ev):

    -6.3959  -5.6921  -5.2573  -5.1877  -5.0246  -4.7830  -4.7356  -4.4911
    -4.3959  -4.3135  -4.2600  -4.2564  -4.2204  -4.1418  -4.1147  -4.0396
    -3.9804  -3.2896   1.8436   2.5181   2.5569   2.5872   2.7987   2.8720
     2.9749   3.0434   3.0466   3.1152   3.1524   3.2585   3.3695   3.4611
     3.4944   3.6867   3.7106   3.7479   3.8695   3.9233   3.9885   4.0895
     4.2137   4.3299   4.3605   4.4440   4.6114   4.6609   4.7512   4.8138
     4.8807   4.9427   5.0433   5.1491   5.2139   5.2849   5.3869   5.4396
     5.5809   5.6220   5.7818   5.8024   5.9421   5.9777   6.0557   6.3228
     6.4341   6.5173   6.6011   6.7644   6.8985   7.1666   7.3038   7.3707
     7.3999   7.4843   7.7084   7.8196   7.8425   7.9010   8.1192   8.3476
     8.5434   8.5812   8.8091   8.9610   9.1392   9.1958   9.2573   9.4854
     9.5227   9.6656   9.7010   9.8064   9.9191   9.9683  10.0799  10.2480
    10.3013

[...]

          k =-0.0000-0.3077 0.0744 ( 16990 PWs)   bands (ev):

[...]

          k = 0.3414-0.3059-0.2071 ( 16992 PWs)   bands (ev):

    -6.1002  -5.5323  -5.2330  -5.2147  -4.9036  -4.8600  -4.6768  -4.5957
    -4.5217  -4.4622  -4.4315  -4.3602  -4.2489  -4.1904  -4.1014  -4.0611
    -4.0293  -3.3349   2.2391   2.3312   2.4450   2.5631   2.5937   2.6997
     2.7949   2.8341   2.9089   3.0133   3.0476   3.1429   3.3033   3.4313
     3.5241   3.6260   3.7346   3.9179   4.0322   4.1501   4.2256   4.2824
     4.3757   4.4816   4.5707   4.5978   4.6942   4.7598   4.9061   4.9384
     5.0072   5.1180   5.1767   5.2454   5.3139   5.4180   5.4557   5.5685
     5.6563   5.7382   5.8641   5.9711   6.0279   6.1408   6.1797   6.3152
     6.3847   6.4509   6.5488   6.5942   6.7686   6.9121   7.0435   7.1266
     7.3118   7.4227   7.5384   7.6507   7.7961   7.9834   8.0392   8.1912
     8.3935   8.5254   8.8284   8.9040   9.0347   9.1953   9.2721   9.4231
     9.5495   9.5795   9.7144   9.7752   9.9203  10.0814  10.1627  10.2106
    10.3494

     the Fermi energy is     8.5163 ev

!    total energy              =    -633.49770752 Ry
     Harris-Foulkes estimate   =    -633.49770762 Ry
     estimated scf accuracy    <       0.00000014 Ry

     The total energy is the sum of the following terms:

     one-electron contribution =      98.72247137 Ry
     hartree contribution      =      52.60118357 Ry
     xc contribution           =    -250.52388586 Ry
     ewald contribution        =    -534.30008149 Ry
     smearing contrib. (-TS)   =       0.00260489 Ry

     convergence has been achieved in  13 iterations

     Forces acting on atoms (cartesian axes, Ry/au):

     atom    1 type  1   force =    -0.01029469    0.00226838   -0.00422929
     atom    2 type  1   force =     0.00556733    0.00178941   -0.01249500
     atom    3 type  1   force =     0.00452472   -0.00287602    0.00277533
     atom    4 type  1   force =     0.00610609    0.00045568   -0.01463704
     atom    5 type  1   force =     0.00043863    0.01767679    0.00341525
     atom    6 type  1   force =    -0.01050756    0.00143453    0.00212330
     atom    7 type  1   force =    -0.00393871    0.00888813   -0.00313187
     atom    8 type  1   force =    -0.00594885   -0.00425045    0.00300559
     atom    9 type  1   force =     0.00505265    0.00347316   -0.00544877
     atom   10 type  2   force =     0.00061233   -0.00627818   -0.00101945
     atom   11 type  2   force =    -0.00245705   -0.00344602    0.00400173
     atom   12 type  2   force =     0.00565527   -0.01052735   -0.00553566
     atom   13 type  2   force =    -0.00909799   -0.01139184    0.00655749
     atom   14 type  2   force =    -0.01001597   -0.00723716    0.00831800
     atom   15 type  2   force =     0.01200111    0.00296164    0.00372819
     atom   16 type  2   force =     0.00728327   -0.01106234   -0.00170053
     atom   17 type  2   force =    -0.00623196    0.00477204    0.00031087
     atom   18 type  2   force =     0.00930516   -0.00739554    0.00372888
     atom   19 type  2   force =    -0.00609711    0.01070527    0.00614555
     atom   20 type  2   force =     0.00578184   -0.00118688    0.00883910
     atom   21 type  2   force =    -0.00185828    0.00707260    0.00852537
     atom   22 type  2   force =    -0.00602165   -0.00486942    0.00520148
     atom   23 type  2   force =     0.00778695    0.00384869   -0.00740713
     atom   24 type  2   force =    -0.00431632    0.00531913    0.00385766
     atom   25 type  2   force =    -0.00121031    0.00392192   -0.00702003
     atom   26 type  2   force =     0.00589277    0.00746030   -0.00235701
     atom   27 type  2   force =     0.00198833   -0.01152649   -0.00555202

     Total force =     0.060066     Total SCF correction =     0.000697

     General routines

     Parallel routines

   This run was terminated on:  10: 8:53  28Nov2021

   JOB DONE.