     Program PWSCF v.6.4 starts on 25Dec2021 at  0:11:35

     R & G space division:  proc/nbgrp/npool/nimage =      40
     Waiting for input...
     Reading input from standard input
Warning: card    &IONS ignored
Warning: card      ION_DYNAMICS = 'BFGS' ignored
Warning: card   / ignored
Warning: card    &CELL ignored
Warning: card      CELL_DYNAMICS = 'BFGS', ignored
Warning: card    / ignored

     Current dimensions of program PWSCF are:
     Max number of different atomic species (ntypx) = 10
     Max number of k-points (npk) =  40000
     Max angular momentum in pseudopotentials (lmaxx) =  3

     bravais-lattice index     =            0
     lattice parameter (alat)  =      12.1536  a.u.
     unit-cell volume          =    5660.1662 (a.u.)^3
     number of atoms/cell      =           36
     number of atomic types    =            2
     number of electrons       =       216.00
     number of Kohn-Sham states=          130
     kinetic-energy cutoff     =      45.0000  Ry
     charge density cutoff     =     360.0000  Ry
     convergence threshold     =      1.0E-06
     mixing beta               =       0.7000
     number of iterations used =            8  local-TF  mixing
     Exchange-correlation      = SLA PW GGX GGC ( 1  4  2  2 0 0)

     celldm(1)=  12.153560  celldm(2)=   0.000000  celldm(3)=   0.000000
     celldm(4)=   0.000000  celldm(5)=   0.000000  celldm(6)=   0.000000

     crystal axes: (cart. coord. in units of alat)
               a(1) = (   1.000000   0.000000   0.000000 )
               a(2) = (  -0.500000   0.866026   0.000000 )
               a(3) = (   0.000000   0.000000   3.640726 )

     reciprocal axes: (cart. coord. in units 2 pi/alat)
               b(1) = (  1.000000  0.577350  0.000000 )
               b(2) = (  0.000000  1.154700  0.000000 )
               b(3) = (  0.000000  0.000000  0.274670 )

     PseudoPot. # 1 for Mo read from file:
     ~/pseudo/Mo.pw91-n-van.UPF
     MD5 check sum: Not computed, couldn't open file
     Pseudo is Ultrasoft + core correction, Zval =  6.0
     Generated by new atomic code, or converted to UPF format
     Using radial grid of  965 points,  3 beta functions with:
                l(1) =   1
                l(2) =   2
                l(3) =   2
     Q(r) pseudized with  8 coefficients,  rinner =    1.000   1.000   1.000
                                                       1.200   1.200

     PseudoPot. # 2 for S  read from file:
     ~/pseudo/S.pw91-van_ak.UPF
     MD5 check sum: Not computed, couldn't open file
     Pseudo is Ultrasoft, Zval =  6.0
     Generated by new atomic code, or converted to UPF format
     Using radial grid of  811 points,  6 beta functions with:
                l(1) =   0
                l(2) =   0
                l(3) =   1
                l(4) =   1
                l(5) =   2
                l(6) =   2
     Q(r) pseudized with  8 coefficients,  rinner =    1.100   1.100   1.100
                                                       1.100   1.100

     atomic species   valence    mass     pseudopotential
        Mo             6.00    95.50000     Mo( 1.00)
        S              6.00    32.06500     S ( 1.00)

     No symmetry found

   Cartesian axes

     site n.     atom                  positions (alat units)
         1           Mo  tau(   1) = (   0.1337481   0.7896483   1.4695957  )
         2           Mo  tau(   2) = (   0.3871401   0.0657256   2.5802810  )
         3           Mo  tau(   3) = (   0.3733838   0.6570999   0.3328555  )
         4           Mo  tau(   4) = (   0.3823475   0.3564083   1.4699714  )
         5           Mo  tau(   5) = (   0.6339533   0.5056382   2.6009813  )
         6           Mo  tau(   6) = (   0.6318926   0.2166932   0.3392142  )
         7           Mo  tau(   7) = (   0.8801218   0.0601773   2.5845769  )
         8           Mo  tau(   8) = (  -0.1123679   0.3654193   1.4883083  )
         9           Mo  tau(   9) = (  -0.3573535   0.7881419   1.4813027  )
        10           Mo  tau(  10) = (   0.1298842   0.4968857   2.6012905  )
        11           Mo  tau(  11) = (   0.1241161   0.2226115   0.3406821  )
        12           Mo  tau(  12) = (  -0.1212051   0.6463617   0.3209843  )
        13           S   tau(  13) = (   0.1326232   0.7871200   2.3361373  )
        14           S   tau(  14) = (   0.1406964   0.7850317   2.8402256  )
        15           S   tau(  15) = (   0.3765788   0.0761349   0.0754921  )
        16           S   tau(  16) = (   0.3728117   0.0664824   0.5739902  )
        17           S   tau(  17) = (   0.3913498   0.6473606   1.2347926  )
        18           S   tau(  18) = (   0.3904795   0.6403603   1.7269488  )
        19           S   tau(  19) = (   0.3829211   0.3587023   2.3578192  )
        20           S   tau(  20) = (   0.3829236   0.3529792   2.8474496  )
        21           S   tau(  21) = (   0.6162538   0.5108160   0.0870154  )
        22           S   tau(  22) = (   0.6251745   0.5011813   0.5844125  )
        23           S   tau(  23) = (   0.6281835   0.2191312   1.2429996  )
        24           S   tau(  24) = (   0.6339809   0.2017142   1.7242017  )
        25           S   tau(  25) = (   0.8677971   0.0707192   0.0964569  )
        26           S   tau(  26) = (   0.8788252   0.0770349   0.5859270  )
        27           S   tau(  27) = (  -0.1085866   0.3514871   2.3456904  )
        28           S   tau(  28) = (  -0.1135136   0.3580409   2.8254804  )
        29           S   tau(  29) = (  -0.3724396   0.7885415   2.3403813  )
        30           S   tau(  30) = (  -0.3740966   0.7884064   2.8420619  )
        31           S   tau(  31) = (   0.1293417   0.5111511   0.0953588  )
        32           S   tau(  32) = (   0.1184781   0.5020295   0.5857241  )
        33           S   tau(  33) = (   0.1314983   0.2233227   1.2347881  )
        34           S   tau(  34) = (   0.1423312   0.2166719   1.7244395  )
        35           S   tau(  35) = (  -0.1085193   0.6398278   1.2350069  )
        36           S   tau(  36) = (  -0.1211951   0.6359530   1.7256779  )

     number of k points=     5  Marzari-Vanderbilt smearing, width (Ry)=  0.0200
                       cart. coord. in units 2pi/alat
        k(    1) = (   0.0000000   0.0000000   0.0000000), wk =   0.2222222
        k(    2) = (   0.0000000   0.3849001   0.0000000), wk =   0.4444444
        k(    3) = (   0.3333333   0.5773502   0.0000000), wk =   0.4444444
        k(    4) = (  -0.3333333   0.1924501   0.0000000), wk =   0.4444444
        k(    5) = (   0.3333333   0.1924501   0.0000000), wk =   0.4444444

     Initial potential from superposition of free atoms

     starting charge  215.98107, renormalised to  216.00000
     Starting wfcs are  204 randomized atomic wfcs

     Self-consistent Calculation

     iteration #  1     ecut=    45.00 Ry     beta= 0.70
     Davidson diagonalization with overlap
     ethr =  1.00E-02,  avg # of iterations =  2.0

     total energy              =    -844.15305698 Ry
     Harris-Foulkes estimate   =    -846.76320262 Ry
     estimated scf accuracy    <       6.67569968 Ry

[...]

     End of self-consistent calculation

          k = 0.0000 0.0000 0.0000 ( 28709 PWs)   bands (ev):

    -9.1651  -9.0823  -9.0619  -7.9548  -7.9069  -7.8969  -7.4994  -7.4479
    -7.4392  -7.4268  -7.3661  -7.3600  -7.3153  -7.2670  -7.2361  -7.2276
    -7.1377  -7.1052  -7.0974  -7.0669  -7.0464  -7.0418  -7.0192  -6.9135
    -0.8233  -0.8161  -0.7506  -0.7468  -0.7336  -0.7039  -0.7021  -0.6914
    -0.6432  -0.6332  -0.5407  -0.4967   0.1363   0.1443   0.1672   0.2029
     0.2223   0.2407   0.2447   0.2485   0.3005   0.7566   0.8522   0.8786
     0.8836   0.9000   0.9186   0.9816   0.9974   1.0291   1.6444   1.6750
     1.7367   1.7370   1.8167   1.8207   1.8370   1.8378   1.8925   2.1811
     2.2652   2.3347   2.3528   2.3801   2.4224   2.8252   2.9202   2.9434
     2.9840   2.9957   3.0362   3.0784   3.1018   3.1085   3.1564   3.1746
     3.2696   3.3220   3.3879   3.4112   3.4325   3.4800   3.5124   3.8267
     3.9209   3.9421   3.9676   4.0009   4.0191   4.0222   4.0591   4.1025
     4.2195   4.2398   4.2566   4.2736   4.2909   4.3220   4.3371   4.3532
     4.3853   4.7570   4.9359   5.0500   6.7850   6.7977   6.8105   6.8193
     6.8628   6.9044   6.9103   6.9223   6.9388   7.3275   7.3578   7.3633
     7.3703   7.3878   7.3991   7.4275   7.4297   7.4502   7.5089   7.5370
     7.5661   7.6532

[...]

          k =-0.3333 0.1925 0.0000 ( 28834 PWs)   bands (ev):

[...]

     the Fermi energy is     5.0106 ev

!    total energy              =    -845.44918007 Ry
     Harris-Foulkes estimate   =    -845.44918082 Ry
     estimated scf accuracy    <       0.00000079 Ry

     The total energy is the sum of the following terms:

     one-electron contribution =    -485.89480459 Ry
     hartree contribution      =     354.96145324 Ry
     xc contribution           =    -334.15866564 Ry
     ewald contribution        =    -380.38038712 Ry
     smearing contrib. (-TS)   =       0.02322405 Ry

     convergence has been achieved in  14 iterations

     Forces acting on atoms (cartesian axes, Ry/au):

     atom    1 type  1   force =     0.02269540   -0.01943671    0.07360395
     atom    2 type  1   force =    -0.02646030   -0.01486327    0.07899483
     atom    3 type  1   force =     0.01062337   -0.03844706    0.07337527
     atom    4 type  1   force =     0.01415994    0.02413886    0.08220154
     atom    5 type  1   force =    -0.01005291   -0.02681707   -0.05111755
     atom    6 type  1   force =    -0.06226667    0.01095757   -0.01962468
     atom    7 type  1   force =     0.01241164    0.02574301    0.02284307
     atom    8 type  1   force =    -0.02256779   -0.08042391   -0.03579800
     atom    9 type  1   force =    -0.03158228    0.02462855   -0.01029970
     atom   10 type  1   force =     0.05159747    0.02984545   -0.06005445
     atom   11 type  1   force =     0.01468552   -0.03378977   -0.04441428
     atom   12 type  1   force =    -0.04508800    0.03263050    0.06783109
     atom   13 type  2   force =    -0.00261738   -0.01888033    0.01714784
     atom   14 type  2   force =    -0.02584885    0.01477588   -0.01399924
     atom   15 type  2   force =    -0.00083400    0.00411650    0.04347388
     atom   16 type  2   force =     0.01421757   -0.00060566   -0.00237027
     atom   17 type  2   force =    -0.00083197    0.00821927   -0.01850019
     atom   18 type  2   force =    -0.01349755    0.01104842   -0.02954463
     atom   19 type  2   force =     0.00675993    0.01196871   -0.02295300
     atom   20 type  2   force =     0.00570024   -0.01008490   -0.02524173
     atom   21 type  2   force =     0.01735881   -0.01870125    0.00068752
     atom   22 type  2   force =     0.00578789    0.02231962   -0.02857093
     atom   23 type  2   force =     0.04124779   -0.00921680   -0.04702185
     atom   24 type  2   force =    -0.00538361    0.02055537   -0.01028547
     atom   25 type  2   force =     0.03146198    0.02753542   -0.03129759
     atom   26 type  2   force =    -0.00414331   -0.00948015    0.00078331
     atom   27 type  2   force =    -0.02707029    0.01580457    0.00794056
     atom   28 type  2   force =    -0.02714327   -0.03748717    0.05937209
     atom   29 type  2   force =     0.02020353   -0.01149588    0.00902295
     atom   30 type  2   force =     0.02309863    0.02034116   -0.02041021
     atom   31 type  2   force =     0.00459956   -0.02473329   -0.04400587
     atom   32 type  2   force =     0.01245172    0.02842753   -0.01696937
     atom   33 type  2   force =    -0.00829211   -0.03124342   -0.00885029
     atom   34 type  2   force =    -0.00680349   -0.01150222    0.00185577
     atom   35 type  2   force =    -0.01978546    0.01381178   -0.02323491
     atom   36 type  2   force =     0.03120826    0.05034064    0.02543051

     Total force =     0.317363     Total SCF correction =     0.002465

     General routines

     Parallel routines

   This run was terminated on:   0:13: 9  25Dec2021

   JOB DONE.

     Program PWSCF v.6.4 starts on 25Dec2021 at  0:15:47

     R & G space division:  proc/nbgrp/npool/nimage =      40
     Waiting for input...
     Reading input from standard input
Warning: card    &IONS ignored
Warning: card      ION_DYNAMICS = 'BFGS' ignored
Warning: card   / ignored
Warning: card    &CELL ignored
Warning: card      CELL_DYNAMICS = 'BFGS', ignored
Warning: card    / ignored

     Current dimensions of program PWSCF are:
     Max number of different atomic species (ntypx) = 10
     Max number of k-points (npk) =  40000
     Max angular momentum in pseudopotentials (lmaxx) =  3

     bravais-lattice index     =            0
     lattice parameter (alat)  =      12.1536  a.u.
     unit-cell volume          =    5660.1662 (a.u.)^3
     number of atoms/cell      =           36
     number of atomic types    =            2
     number of electrons       =       216.00
     number of Kohn-Sham states=          130
     kinetic-energy cutoff     =      45.0000  Ry
     charge density cutoff     =     360.0000  Ry
     convergence threshold     =      1.0E-06
     mixing beta               =       0.7000
     number of iterations used =            8  local-TF  mixing
     Exchange-correlation      = SLA PW GGX GGC ( 1  4  2  2 0 0)

     celldm(1)=  12.153560  celldm(2)=   0.000000  celldm(3)=   0.000000
     celldm(4)=   0.000000  celldm(5)=   0.000000  celldm(6)=   0.000000

     crystal axes: (cart. coord. in units of alat)
               a(1) = (   1.000000   0.000000   0.000000 )
               a(2) = (  -0.500000   0.866026   0.000000 )
               a(3) = (   0.000000   0.000000   3.640726 )

     reciprocal axes: (cart. coord. in units 2 pi/alat)
               b(1) = (  1.000000  0.577350  0.000000 )
               b(2) = (  0.000000  1.154700  0.000000 )
               b(3) = (  0.000000  0.000000  0.274670 )

     PseudoPot. # 1 for Mo read from file:
     ~/pseudo/Mo.pw91-n-van.UPF
     MD5 check sum: Not computed, couldn't open file
     Pseudo is Ultrasoft + core correction, Zval =  6.0
     Generated by new atomic code, or converted to UPF format
     Using radial grid of  965 points,  3 beta functions with:
                l(1) =   1
                l(2) =   2
                l(3) =   2
     Q(r) pseudized with  8 coefficients,  rinner =    1.000   1.000   1.000
                                                       1.200   1.200

     PseudoPot. # 2 for S  read from file:
     ~/pseudo/S.pw91-van_ak.UPF
     MD5 check sum: Not computed, couldn't open file
     Pseudo is Ultrasoft, Zval =  6.0
     Generated by new atomic code, or converted to UPF format
     Using radial grid of  811 points,  6 beta functions with:
                l(1) =   0
                l(2) =   0
                l(3) =   1
                l(4) =   1
                l(5) =   2
                l(6) =   2
     Q(r) pseudized with  8 coefficients,  rinner =    1.100   1.100   1.100
                                                       1.100   1.100

     atomic species   valence    mass     pseudopotential
        Mo             6.00    95.50000     Mo( 1.00)
        S              6.00    32.06500     S ( 1.00)

     No symmetry found

   Cartesian axes

     site n.     atom                  positions (alat units)
         1           Mo  tau(   1) = (   0.1337481   0.7896483   1.4695957  )
         2           Mo  tau(   2) = (   0.3871401   0.0657256   2.5802810  )
         3           Mo  tau(   3) = (   0.3733838   0.6570999   0.3328555  )
         4           Mo  tau(   4) = (   0.3823475   0.3564083   1.4699714  )
         5           Mo  tau(   5) = (   0.6339533   0.5056382   2.6009813  )
         6           Mo  tau(   6) = (   0.6318926   0.2166932   0.3392142  )
         7           Mo  tau(   7) = (   0.8801218   0.0601773   2.5845769  )
         8           Mo  tau(   8) = (  -0.1123679   0.3654193   1.4883083  )
         9           Mo  tau(   9) = (  -0.3573535   0.7881419   1.4813027  )
        10           Mo  tau(  10) = (   0.1298842   0.4968857   2.6012905  )
        11           Mo  tau(  11) = (   0.1241161   0.2226115   0.3406821  )
        12           Mo  tau(  12) = (  -0.1212051   0.6463617   0.3209843  )
        13           S   tau(  13) = (   0.1326232   0.7871200   2.3361373  )
        14           S   tau(  14) = (   0.1406964   0.7850317   2.8402256  )
        15           S   tau(  15) = (   0.3765788   0.0761349   0.0754921  )
        16           S   tau(  16) = (   0.3728117   0.0664824   0.5739902  )
        17           S   tau(  17) = (   0.3913498   0.6473606   1.2347926  )
        18           S   tau(  18) = (   0.3904795   0.6403603   1.7269488  )
        19           S   tau(  19) = (   0.3829211   0.3587023   2.3578192  )
        20           S   tau(  20) = (   0.3829236   0.3529792   2.8474496  )
        21           S   tau(  21) = (   0.6162538   0.5108160   0.0870154  )
        22           S   tau(  22) = (   0.6251745   0.5011813   0.5844125  )
        23           S   tau(  23) = (   0.6281835   0.2191312   1.2429996  )
        24           S   tau(  24) = (   0.6339809   0.2017142   1.7242017  )
        25           S   tau(  25) = (   0.8677971   0.0707192   0.0964569  )
        26           S   tau(  26) = (   0.8788252   0.0770349   0.5859270  )
        27           S   tau(  27) = (  -0.1085866   0.3514871   2.3456904  )
        28           S   tau(  28) = (  -0.1135136   0.3580409   2.8254804  )
        29           S   tau(  29) = (  -0.3724396   0.7885415   2.3403813  )
        30           S   tau(  30) = (  -0.3740966   0.7884064   2.8420619  )
        31           S   tau(  31) = (   0.1293417   0.5111511   0.0953588  )
        32           S   tau(  32) = (   0.1184781   0.5020295   0.5857241  )
        33           S   tau(  33) = (   0.1314983   0.2233227   1.2347881  )
        34           S   tau(  34) = (   0.1423312   0.2166719   1.7244395  )
        35           S   tau(  35) = (  -0.1085193   0.6398278   1.2350069  )
        36           S   tau(  36) = (  -0.1211951   0.6359530   1.7256779  )

     number of k points=     5  Marzari-Vanderbilt smearing, width (Ry)=  0.0200
                       cart. coord. in units 2pi/alat
        k(    1) = (   0.0000000   0.0000000   0.0000000), wk =   0.2222222
        k(    2) = (   0.0000000   0.3849001   0.0000000), wk =   0.4444444
        k(    3) = (   0.3333333   0.5773502   0.0000000), wk =   0.4444444
        k(    4) = (  -0.3333333   0.1924501   0.0000000), wk =   0.4444444
        k(    5) = (   0.3333333   0.1924501   0.0000000), wk =   0.4444444

     Initial potential from superposition of free atoms

     starting charge  215.98107, renormalised to  216.00000
     Starting wfcs are  204 randomized atomic wfcs

     Self-consistent Calculation

[...]

     total energy              =    -845.44918060 Ry
     Harris-Foulkes estimate   =    -845.44918105 Ry
     estimated scf accuracy    <       0.00000277 Ry

     iteration # 14     ecut=    45.00 Ry     beta= 0.70
     Davidson diagonalization with overlap
     ethr =  1.28E-09,  avg # of iterations =  2.0

     End of self-consistent calculation

[...]

          k =-0.3333 0.1925 0.0000 ( 28834 PWs)   bands (ev):

[...]

          k = 0.3333 0.1925 0.0000 ( 28834 PWs)   bands (ev):

    -8.8039  -8.7204  -8.7052  -7.9656  -7.9018  -7.8888  -7.7792  -7.7198
    -7.6961  -7.4560  -7.4315  -7.4247  -7.3732  -7.3631  -7.3465  -7.3377
    -7.2804  -7.2344  -7.1737  -7.0709  -7.0575  -7.0407  -7.0274  -6.9912
    -0.4129  -0.3390  -0.3203  -0.2992  -0.2899  -0.2626  -0.2555  -0.2092
    -0.1662  -0.1260  -0.1092  -0.0855   0.0722   0.1238   0.1425   0.1731
     0.2058   0.2159   0.7634   0.8366   0.8501   0.9407   1.0129   1.0412
     1.0850   1.1128   1.1451   1.1716   1.1831   1.2072   1.4914   1.5578
     1.5920   1.6367   1.7096   1.7496   1.7653   1.7937   1.8259   2.0074
     2.0287   2.1095   2.1218   2.1353   2.2103   2.4943   2.5088   2.5647
     2.6093   2.6331   2.6539   2.6584   2.8008   2.8049   2.8369   2.8972
     2.9477   3.0827   3.1216   3.1955   3.2003   3.2039   3.2322   3.2651
     3.3234   3.3804   3.5483   3.6130   3.6329   3.6771   3.7864   3.8533
     3.9661   4.0256   4.0760   4.2520   4.3866   4.4051   4.4759   4.4866
     4.4990   4.5912   4.6510   4.6948   6.7705   6.8325   6.8350   6.8595
     6.8904   6.8995   6.9246   6.9860   6.9938   7.0142   7.0358   7.0673
     7.1093   7.1370   7.1933   7.2283   7.2739   7.2916   7.3159   7.3609
     7.3974   7.4402

     the Fermi energy is     5.0106 ev

!    total energy              =    -845.44918007 Ry
     Harris-Foulkes estimate   =    -845.44918082 Ry
     estimated scf accuracy    <       0.00000079 Ry

     The total energy is the sum of the following terms:

     one-electron contribution =    -485.89480459 Ry
     hartree contribution      =     354.96145324 Ry
     xc contribution           =    -334.15866564 Ry
     ewald contribution        =    -380.38038712 Ry
     smearing contrib. (-TS)   =       0.02322405 Ry

     convergence has been achieved in  14 iterations

     Forces acting on atoms (cartesian axes, Ry/au):

     atom    1 type  1   force =     0.02269540   -0.01943671    0.07360395
     atom    2 type  1   force =    -0.02646030   -0.01486327    0.07899483
     atom    3 type  1   force =     0.01062337   -0.03844706    0.07337527
     atom    4 type  1   force =     0.01415994    0.02413886    0.08220154
     atom    5 type  1   force =    -0.01005291   -0.02681707   -0.05111755
     atom    6 type  1   force =    -0.06226667    0.01095757   -0.01962468
     atom    7 type  1   force =     0.01241164    0.02574301    0.02284307
     atom    8 type  1   force =    -0.02256779   -0.08042391   -0.03579800
     atom    9 type  1   force =    -0.03158228    0.02462855   -0.01029970
     atom   10 type  1   force =     0.05159747    0.02984545   -0.06005445
     atom   11 type  1   force =     0.01468552   -0.03378977   -0.04441428
     atom   12 type  1   force =    -0.04508800    0.03263050    0.06783109
     atom   13 type  2   force =    -0.00261738   -0.01888033    0.01714784
     atom   14 type  2   force =    -0.02584885    0.01477588   -0.01399924
     atom   15 type  2   force =    -0.00083400    0.00411650    0.04347388
     atom   16 type  2   force =     0.01421757   -0.00060566   -0.00237027
     atom   17 type  2   force =    -0.00083197    0.00821927   -0.01850019
     atom   18 type  2   force =    -0.01349755    0.01104842   -0.02954463
     atom   19 type  2   force =     0.00675993    0.01196871   -0.02295300
     atom   20 type  2   force =     0.00570024   -0.01008490   -0.02524173
     atom   21 type  2   force =     0.01735881   -0.01870125    0.00068752
     atom   22 type  2   force =     0.00578789    0.02231962   -0.02857093
     atom   23 type  2   force =     0.04124779   -0.00921680   -0.04702185
     atom   24 type  2   force =    -0.00538361    0.02055537   -0.01028547
     atom   25 type  2   force =     0.03146198    0.02753542   -0.03129759
     atom   26 type  2   force =    -0.00414331   -0.00948015    0.00078331
     atom   27 type  2   force =    -0.02707029    0.01580457    0.00794056
     atom   28 type  2   force =    -0.02714327   -0.03748717    0.05937209
     atom   29 type  2   force =     0.02020353   -0.01149588    0.00902295
     atom   30 type  2   force =     0.02309863    0.02034116   -0.02041021
     atom   31 type  2   force =     0.00459956   -0.02473329   -0.04400587
     atom   32 type  2   force =     0.01245172    0.02842753   -0.01696937
     atom   33 type  2   force =    -0.00829211   -0.03124342   -0.00885029
     atom   34 type  2   force =    -0.00680349   -0.01150222    0.00185577
     atom   35 type  2   force =    -0.01978546    0.01381178   -0.02323491
     atom   36 type  2   force =     0.03120826    0.05034064    0.02543051

     Total force =     0.317363     Total SCF correction =     0.002465

     General routines

     Parallel routines

   This run was terminated on:   0:17:17  25Dec2021

   JOB DONE.