     Program PWSCF v.6.4 starts on 12Aug2021 at 14:30:34

     R & G space division:  proc/nbgrp/npool/nimage =      40
     Waiting for input...
     Reading input from standard input
Warning: card    &IONS ignored
Warning: card      ION_DYNAMICS = 'BFGS' ignored
Warning: card   / ignored
Warning: card    &CELL ignored
Warning: card      CELL_DYNAMICS = 'BFGS', ignored
Warning: card    / ignored

     Current dimensions of program PWSCF are:
     Max number of different atomic species (ntypx) = 10
     Max number of k-points (npk) =  40000
     Max angular momentum in pseudopotentials (lmaxx) =  3

     bravais-lattice index     =            0
     lattice parameter (alat)  =      13.3068  a.u.
     unit-cell volume          =    7467.3431 (a.u.)^3
     number of atoms/cell      =           36
     number of atomic types    =            2
     number of electrons       =       216.00
     number of Kohn-Sham states=          130
     kinetic-energy cutoff     =      45.0000  Ry
     charge density cutoff     =     360.0000  Ry
     convergence threshold     =      1.0E-06
     mixing beta               =       0.7000
     number of iterations used =            8  local-TF  mixing
     Exchange-correlation      = SLA PW GGX GGC ( 1  4  2  2 0 0)

     celldm(1)=  13.306788  celldm(2)=   0.000000  celldm(3)=   0.000000
     celldm(4)=   0.000000  celldm(5)=   0.000000  celldm(6)=   0.000000

     crystal axes: (cart. coord. in units of alat)
               a(1) = (   0.999909  -0.013301  -0.002123 )
               a(2) = (  -0.509729   0.863695   0.007408 )
               a(3) = (  -0.077097  -0.338587   3.696350 )

     reciprocal axes: (cart. coord. in units 2 pi/alat)
               b(1) = (  1.008157  0.594339  0.075470 )
               b(2) = (  0.015741  1.166187  0.107152 )
               b(3) = (  0.000548 -0.001996  0.270366 )

     PseudoPot. # 1 for Mo read from file:
     ~/pseudo/Mo.pw91-n-van.UPF
     MD5 check sum: Not computed, couldn't open file
     Pseudo is Ultrasoft + core correction, Zval =  6.0
     Generated by new atomic code, or converted to UPF format
     Using radial grid of  965 points,  3 beta functions with:
                l(1) =   1
                l(2) =   2
                l(3) =   2
     Q(r) pseudized with  8 coefficients,  rinner =    1.000   1.000   1.000
                                                       1.200   1.200

     PseudoPot. # 2 for S  read from file:
     ~/pseudo/S.pw91-van_ak.UPF
     MD5 check sum: Not computed, couldn't open file
     Pseudo is Ultrasoft, Zval =  6.0
     Generated by new atomic code, or converted to UPF format
     Using radial grid of  811 points,  6 beta functions with:
                l(1) =   0
                l(2) =   0
                l(3) =   1
                l(4) =   1
                l(5) =   2
                l(6) =   2
     Q(r) pseudized with  8 coefficients,  rinner =    1.100   1.100   1.100
                                                       1.100   1.100

     atomic species   valence    mass     pseudopotential
        Mo             6.00    95.50000     Mo( 1.00)
        S              6.00    32.06500     S ( 1.00)

     No symmetry found

   Cartesian axes

     site n.     atom                  positions (alat units)
         1           Mo  tau(   1) = (   0.2142654   0.1522631   0.0170356  )
         2           Mo  tau(   2) = (  -0.0021362   0.5570492   0.0379678  )
         3           Mo  tau(   3) = (   0.7276191   0.1320115   0.0797704  )
         4           Mo  tau(   4) = (   0.5157303   0.5484744  -0.0021575  )
         5           Mo  tau(   5) = (  -0.0256044   0.1476738   2.8495682  )
         6           Mo  tau(   6) = (  -0.3136861   0.6311836   2.7081260  )
         7           Mo  tau(   7) = (   0.4618079   0.1297109   2.8486589  )
         8           Mo  tau(   8) = (   0.2058744   0.6292479   2.7085532  )
         9           Mo  tau(   9) = (   0.0045664   0.1641448   0.8266593  )
        10           Mo  tau(  10) = (  -0.2841552   0.5731114   0.9573850  )
        11           Mo  tau(  11) = (   0.4787452   0.1365926   0.9652707  )
        12           Mo  tau(  12) = (   0.2382642   0.5955994   0.8149121  )
        13           S   tau(  13) = (  -0.0045661   0.2806148   0.2603849  )
        14           S   tau(  14) = (  -0.2548778   0.7201521   0.2132779  )
        15           S   tau(  15) = (   0.4961169   0.3017156   0.2537537  )
        16           S   tau(  16) = (   0.2630932   0.6844639   0.2335546  )
        17           S   tau(  17) = (   0.2154353  -0.0560964   2.9920426  )
        18           S   tau(  18) = (  -0.2839483   0.3640293   2.9426891  )
        19           S   tau(  19) = (   0.7206923  -0.0618816   2.9912383  )
        20           S   tau(  20) = (   0.2282226   0.3702101   2.9647358  )
        21           S   tau(  21) = (   0.1601305   0.0091746   1.1093025  )
        22           S   tau(  22) = (   0.0246815   0.6785084   1.0816739  )
        23           S   tau(  23) = (   0.7865509   0.2511863   1.0925155  )
        24           S   tau(  24) = (   0.4011177   0.4474427   1.0953847  )
        25           S   tau(  25) = (  -0.1016869  -0.3303616   3.5260457  )
        26           S   tau(  26) = (  -0.3122713   0.0604806   3.5297349  )
        27           S   tau(  27) = (   0.4233151  -0.3387558   3.5443846  )
        28           S   tau(  28) = (   0.1690639   0.0876007   3.5067112  )
        29           S   tau(  29) = (   0.4516782  -0.0441491   2.5594256  )
        30           S   tau(  30) = (  -0.0539627   0.4108651   2.6073838  )
        31           S   tau(  31) = (   0.9586693  -0.0396306   2.5520379  )
        32           S   tau(  32) = (   0.4346403   0.3871225   2.5945644  )
        33           S   tau(  33) = (   0.0531272  -0.1481047   0.6838471  )
        34           S   tau(  34) = (  -0.0582772   0.4899381   0.6827763  )
        35           S   tau(  35) = (   0.7020359   0.0681801   0.6908505  )
        36           S   tau(  36) = (   0.3063085   0.2689700   0.6965759  )

     number of k points=     5  Marzari-Vanderbilt smearing, width (Ry)=  0.0200
                       cart. coord. in units 2pi/alat
        k(    1) = (   0.0000000   0.0000000   0.0000000), wk =   0.2222222
        k(    2) = (   0.0052469   0.3887289   0.0357172), wk =   0.4444444
        k(    3) = (   0.3360524   0.1981131   0.0251565), wk =   0.4444444
        k(    4) = (   0.3412993   0.5868420   0.0608737), wk =   0.4444444
        k(    5) = (   0.3308055  -0.1906159  -0.0105607), wk =   0.4444444

     Initial potential from superposition of free atoms

     starting charge  215.98107, renormalised to  216.00000

     negative rho (up, down):  3.420E-04 0.000E+00
     Starting wfcs are  204 randomized atomic wfcs

     Self-consistent Calculation

     iteration #  1     ecut=    45.00 Ry     beta= 0.70
     Davidson diagonalization with overlap
     ethr =  1.00E-02,  avg # of iterations =  2.0

     negative rho (up, down):  8.466E-06 0.000E+00

     total energy              =    -842.66675138 Ry
     Harris-Foulkes estimate   =    -846.01118878 Ry
     estimated scf accuracy    <       8.70231241 Ry

[...]

     total energy              =    -844.46130398 Ry
     Harris-Foulkes estimate   =    -844.46130383 Ry
     estimated scf accuracy    <       0.00000189 Ry

     iteration # 19     ecut=    45.00 Ry     beta= 0.70
     Davidson diagonalization with overlap
     ethr =  8.74E-10,  avg # of iterations =  2.4

[...]

     End of self-consistent calculation

          k = 0.0000 0.0000 0.0000 ( 38049 PWs)   bands (ev):

   -11.4366 -11.3177 -10.9153 -10.4749 -10.3152 -10.1375 -10.0985 -10.0280
    -9.9219  -9.9200  -9.8505  -9.7604  -9.7533  -9.7098  -9.6964  -9.6660
    -9.6342  -9.5798  -9.5701  -9.3976  -9.3472  -9.2972  -9.2262  -9.1700
    -3.4007  -3.3106  -2.7800  -2.7523  -2.7227  -2.7161  -2.5999  -2.4004
    -2.2966  -2.2927  -2.2500  -2.2315  -2.0401  -1.9624  -1.9136  -1.8752
    -1.8449  -1.8045  -1.5640  -1.5409  -1.5143  -1.4994  -1.4056  -1.3651
    -1.3432  -1.2855  -1.2566  -1.2436  -1.1989  -1.1458  -1.0644  -0.9955
    -0.9597  -0.9452  -0.9399  -0.9003  -0.8427  -0.7466  -0.7294  -0.6810
    -0.6526  -0.6140  -0.5251  -0.5205  -0.0529   0.0137   0.0631   0.1798
     0.2435   0.3464   0.4414   0.4492   0.4941   0.5650   0.6206   0.6769
     0.8306   0.8326   0.8495   0.9870   1.0556   1.1823   1.2097   1.2385
     1.2451   1.3057   1.4960   1.7155   1.8058   1.9221   1.9267   2.0195
     2.1120   2.1576   2.2303   2.3067   2.3878   2.4323   2.4623   2.4986
     2.5609   2.7130   2.7252   2.8068   2.8782   3.0094   3.1875   3.2388
     3.3025   3.4050   3.5071   3.5170   3.5439   3.6100   3.6634   3.7166
     3.7765   3.9302   3.9565   4.0206   4.1595   4.1961   4.2394   4.2815
     4.3205   4.5744

[...]

          k = 0.3308-0.1906-0.0106 ( 38022 PWs)   bands (ev):

   -11.1718 -11.0277 -10.6444 -10.5400 -10.3959 -10.3660 -10.2289 -10.1531
   -10.0429 -10.0275  -9.9726  -9.9074  -9.8468  -9.7645  -9.6527  -9.6218
    -9.5994  -9.5658  -9.4853  -9.3896  -9.3642  -9.3091  -9.2806  -9.2219
    -2.9272  -2.8129  -2.6906  -2.5271  -2.4521  -2.3861  -2.3668  -2.2914
    -2.2868  -2.2344  -2.0925  -2.0583  -2.0408  -2.0110  -1.9169  -1.8663
    -1.7739  -1.7500  -1.7152  -1.6508  -1.6354  -1.6079  -1.5668  -1.4978
    -1.4268  -1.4008  -1.3043  -1.2930  -1.2040  -1.0773  -1.0242  -0.9965
    -0.9387  -0.8326  -0.7323  -0.6864  -0.6087  -0.5494  -0.5210  -0.4914
    -0.4710  -0.4078  -0.3490  -0.3103  -0.2810  -0.1377  -0.1030  -0.0634
     0.0248   0.1084   0.1486   0.2244   0.3128   0.3666   0.4901   0.5154
     0.5727   0.6020   0.6501   0.6737   0.7751   0.8321   0.8588   0.8757
     1.0493   1.1416   1.2196   1.2425   1.3650   1.5720   1.6026   1.6383
     1.8551   2.1752   2.1996   2.3524   2.4236   2.4554   2.5613   2.6437
     2.6926   2.8275   3.0100   3.0441   3.0905   3.1835   3.2689   3.3405
     3.4318   3.5196   3.6576   3.6736   3.7387   3.7743   3.8343   3.8644
     3.9163   3.9358   4.0108   4.2093   4.2646   4.3336   4.3922   4.4916
     4.5965   4.7486

     the Fermi energy is     2.9888 ev

!    total energy              =    -844.46130143 Ry
     Harris-Foulkes estimate   =    -844.46130410 Ry
     estimated scf accuracy    <       0.00000044 Ry

     The total energy is the sum of the following terms:

     one-electron contribution =   -2657.39074694 Ry
     hartree contribution      =    1421.30596883 Ry
     xc contribution           =    -332.54130242 Ry
     ewald contribution        =     724.15343352 Ry
     smearing contrib. (-TS)   =       0.01134558 Ry

     convergence has been achieved in  19 iterations

     negative rho (up, down):  5.514E-04 0.000E+00

     Forces acting on atoms (cartesian axes, Ry/au):

     atom    1 type  1   force =     0.00053148    0.01859291    0.01210386
     atom    2 type  1   force =    -0.00336337   -0.02356650   -0.00272492
     atom    3 type  1   force =     0.02415790    0.02605105   -0.02592187
     atom    4 type  1   force =     0.00555886   -0.00863533    0.03696109
     atom    5 type  1   force =    -0.01379250   -0.01831179   -0.02855991
     atom    6 type  1   force =     0.01531909    0.00872804    0.01508966
     atom    7 type  1   force =    -0.00891240   -0.00154562   -0.02777968
     atom    8 type  1   force =     0.00017931    0.00214552    0.01647726
     atom    9 type  1   force =     0.00356004   -0.00224504    0.01562274
     atom   10 type  1   force =    -0.00872898    0.01708770    0.00737120
     atom   11 type  1   force =    -0.00934377    0.00835983   -0.00973910
     atom   12 type  1   force =     0.00272780   -0.00758543    0.02047853
     atom   13 type  2   force =     0.00224217   -0.00310361   -0.00291328
     atom   14 type  2   force =     0.00738790    0.00165179    0.00616270
     atom   15 type  2   force =    -0.01049207   -0.01589891   -0.02813606
     atom   16 type  2   force =    -0.00652088    0.01284890   -0.00707312
     atom   17 type  2   force =    -0.00996611   -0.00904415    0.01780443
     atom   18 type  2   force =    -0.00911541    0.00167760    0.00593761
     atom   19 type  2   force =    -0.00342443    0.00862021    0.00722221
     atom   20 type  2   force =    -0.01561044   -0.01197006   -0.02044159
     atom   21 type  2   force =     0.02581417    0.02076074   -0.01725888
     atom   22 type  2   force =     0.00463043    0.00451810    0.00609666
     atom   23 type  2   force =    -0.00520100   -0.00104093   -0.00791432
     atom   24 type  2   force =     0.02923294    0.01460549   -0.00298880
     atom   25 type  2   force =     0.00819188   -0.01384415    0.00018892
     atom   26 type  2   force =    -0.00739772    0.00547235   -0.00459809
     atom   27 type  2   force =    -0.02042439   -0.00730244    0.01092924
     atom   28 type  2   force =     0.00380090    0.00643360   -0.00352469
     atom   29 type  2   force =     0.01162536   -0.00182745   -0.01044908
     atom   30 type  2   force =     0.01204756    0.00622641    0.00901018
     atom   31 type  2   force =     0.00169021   -0.00474683   -0.00152307
     atom   32 type  2   force =     0.01899386    0.02018685    0.01484501
     atom   33 type  2   force =    -0.00090555   -0.00707689   -0.00751320
     atom   34 type  2   force =    -0.01225725   -0.01859742    0.01098504
     atom   35 type  2   force =    -0.01937509   -0.02810200    0.00243339
     atom   36 type  2   force =    -0.01286053    0.00047746   -0.00666008

     Total force =     0.138904     Total SCF correction =     0.001297

     General routines

     Parallel routines

   This run was terminated on:  14:33: 7  12Aug2021

   JOB DONE.