     Program PWSCF v.6.4 starts on 23Dec2021 at 22:48: 2

     R & G space division:  proc/nbgrp/npool/nimage =      40
     Waiting for input...
     Reading input from standard input
Warning: card    &IONS ignored
Warning: card      ION_DYNAMICS = 'BFGS' ignored
Warning: card   / ignored
Warning: card    &CELL ignored
Warning: card      CELL_DYNAMICS = 'BFGS', ignored
Warning: card    / ignored

     Current dimensions of program PWSCF are:
     Max number of different atomic species (ntypx) = 10
     Max number of k-points (npk) =  40000
     Max angular momentum in pseudopotentials (lmaxx) =  3

     bravais-lattice index     =            0
     lattice parameter (alat)  =      16.5413  a.u.
     unit-cell volume          =   20229.1719 (a.u.)^3
     number of atoms/cell      =           27
     number of atomic types    =            2
     number of electrons       =       162.00
     number of Kohn-Sham states=           97
     kinetic-energy cutoff     =      45.0000  Ry
     charge density cutoff     =     360.0000  Ry
     convergence threshold     =      1.0E-06
     mixing beta               =       0.7000
     number of iterations used =            8  local-TF  mixing
     Exchange-correlation      = SLA PW GGX GGC ( 1  4  2  2 0 0)

     celldm(1)=  16.541331  celldm(2)=   0.000000  celldm(3)=   0.000000
     celldm(4)=   0.000000  celldm(5)=   0.000000  celldm(6)=   0.000000

     crystal axes: (cart. coord. in units of alat)
               a(1) = (   1.000000   0.000000   0.000000 )
               a(2) = (  -0.336656   1.266756   0.000000 )
               a(3) = (  -0.033240   0.129186   3.528368 )

     reciprocal axes: (cart. coord. in units 2 pi/alat)
               b(1) = (  1.000000  0.265762 -0.000310 )
               b(2) = (  0.000000  0.789418 -0.028903 )
               b(3) = (  0.000000  0.000000  0.283417 )

     PseudoPot. # 1 for Mo read from file:
     ~/pseudo/Mo.pw91-n-van.UPF
     MD5 check sum: Not computed, couldn't open file
     Pseudo is Ultrasoft + core correction, Zval =  6.0
     Generated by new atomic code, or converted to UPF format
     Using radial grid of  965 points,  3 beta functions with:
                l(1) =   1
                l(2) =   2
                l(3) =   2
     Q(r) pseudized with  8 coefficients,  rinner =    1.000   1.000   1.000
                                                       1.200   1.200

     PseudoPot. # 2 for S  read from file:
     ~/pseudo/S.pw91-van_ak.UPF
     MD5 check sum: Not computed, couldn't open file
     Pseudo is Ultrasoft, Zval =  6.0
     Generated by new atomic code, or converted to UPF format
     Using radial grid of  811 points,  6 beta functions with:
                l(1) =   0
                l(2) =   0
                l(3) =   1
                l(4) =   1
                l(5) =   2
                l(6) =   2
     Q(r) pseudized with  8 coefficients,  rinner =    1.100   1.100   1.100
                                                       1.100   1.100

     atomic species   valence    mass     pseudopotential
        Mo             6.00    95.50000     Mo( 1.00)
        S              6.00    32.06500     S ( 1.00)

     No symmetry found

   Cartesian axes

     site n.     atom                  positions (alat units)
         1           Mo  tau(   1) = (  -0.3239760   1.2243232   1.9025607  )
         2           Mo  tau(   2) = (   0.6465121   0.8831969   1.8998750  )
         3           Mo  tau(   3) = (  -0.0506253   1.0093630   1.9031169  )
         4           Mo  tau(   4) = (   0.7411807   0.1675668   1.9128808  )
         5           Mo  tau(   5) = (   0.3962243   0.1098714   1.8995962  )
         6           Mo  tau(   6) = (   0.3724325   1.1079832   1.9068278  )
         7           Mo  tau(   7) = (   0.1258641   0.3056809   1.8973294  )
         8           Mo  tau(   8) = (   0.4387956   0.4213860   1.8881643  )
         9           Mo  tau(   9) = (   0.3513765   0.7414022   1.8602810  )
        10           S   tau(  10) = (   0.1769244   0.1220097   2.0809815  )
        11           S   tau(  11) = (   0.9508044   0.1765149   1.7250419  )
        12           S   tau(  12) = (   0.8845610   0.3887207   2.0099434  )
        13           S   tau(  13) = (   0.2662561   1.2978725   1.7191690  )
        14           S   tau(  14) = (  -0.1492048   0.8410023   1.6904641  )
        15           S   tau(  15) = (  -0.1150237   0.7523852   2.0108591  )
        16           S   tau(  16) = (   0.4330574   0.8847787   2.0730237  )
        17           S   tau(  17) = (   0.2354117   0.5449451   2.0048076  )
        18           S   tau(  18) = (  -0.2392051   1.0384860   2.1045131  )
        19           S   tau(  19) = (   0.5577894   1.0532240   1.7044693  )
        20           S   tau(  20) = (   0.1854077   0.9412416   1.7649981  )
        21           S   tau(  21) = (   0.3091697   0.2941648   1.6936363  )
        22           S   tau(  22) = (   0.4808142   1.2699974   2.1072227  )
        23           S   tau(  23) = (   0.1255384   1.1451916   2.0610769  )
        24           S   tau(  24) = (   0.3403298   0.7042334   1.5740119  )
        25           S   tau(  25) = (  -0.0979697   1.2016373   1.7231955  )
        26           S   tau(  26) = (   0.5420084   0.2678064   2.0828644  )
        27           S   tau(  27) = (   0.5884095   0.6281788   1.7877790  )

     number of k points=     4  Marzari-Vanderbilt smearing, width (Ry)=  0.0200
                       cart. coord. in units 2pi/alat
        k(    1) = (   0.0000000   0.0000000   0.0000000), wk =   0.5000000
        k(    2) = (   0.0000000  -0.3947092   0.0144517), wk =   0.5000000
        k(    3) = (  -0.5000000  -0.1328812   0.0001548), wk =   0.5000000
        k(    4) = (  -0.5000000  -0.5275904   0.0146065), wk =   0.5000000

     Initial potential from superposition of free atoms

     starting charge  161.98581, renormalised to  162.00000

     negative rho (up, down):  3.636E-03 0.000E+00
     Starting wfcs are  153 randomized atomic wfcs

     Self-consistent Calculation

     iteration #  1     ecut=    45.00 Ry     beta= 0.70
     Davidson diagonalization with overlap
     ethr =  1.00E-02,  avg # of iterations =  2.0

     negative rho (up, down):  5.261E-03 0.000E+00

     total energy              =    -631.85492784 Ry
     Harris-Foulkes estimate   =    -634.41929511 Ry
     estimated scf accuracy    <       7.25970174 Ry

[...]

     total energy              =    -633.25875626 Ry
     Harris-Foulkes estimate   =    -633.25875302 Ry
     estimated scf accuracy    <       0.00000234 Ry

     iteration # 22     ecut=    45.00 Ry     beta= 0.70
     Davidson diagonalization with overlap
     ethr =  1.45E-09,  avg # of iterations =  1.0

[...]

     End of self-consistent calculation

          k = 0.0000 0.0000 0.0000 (103139 PWs)   bands (ev):

   -17.2746 -16.7258 -16.6556 -16.4951 -16.3632 -16.3138 -16.2498 -16.1753
   -16.1147 -16.0907 -15.9729 -15.9249 -15.7242 -15.5627 -15.5040 -15.0621
   -14.7794 -14.4582  -9.0055  -8.7963  -8.7277  -8.6940  -8.5949  -8.4097
    -8.3236  -8.2352  -8.1582  -8.1070  -8.0799  -7.9636  -7.8458  -7.7754
    -7.6496  -7.6080  -7.5503  -7.5306  -7.4983  -7.3664  -7.2659  -7.2139
    -7.1725  -7.1159  -7.0271  -6.9530  -6.8713  -6.8060  -6.7313  -6.6827
    -6.6193  -6.5417  -6.5143  -6.3941  -6.3477  -6.2940  -6.1835  -6.1184
    -5.9421  -5.8603  -5.8173  -5.5791  -5.4743  -5.4122  -5.2746  -5.1611
    -5.1378  -4.9703  -4.9334  -4.7717  -4.6818  -4.6432  -4.4535  -4.3480
    -4.3121  -4.2066  -4.0824  -3.8631  -3.7868  -3.6391  -3.5418  -3.4622
    -3.3907  -3.3111  -3.2321  -3.0320  -2.8095  -2.7654  -2.6363  -2.4712
    -2.3592  -2.2586  -2.0669  -1.9212  -1.7601  -1.7058  -1.5990  -1.4992
    -1.4098

          k = 0.0000-0.3947 0.0145 (103142 PWs)   bands (ev):

[...]

          k =-0.5000-0.1329 0.0002 (103054 PWs)   bands (ev):

[...]

          k =-0.5000-0.5276 0.0146 (103154 PWs)   bands (ev):

   -17.0817 -16.7748 -16.7566 -16.6158 -16.4504 -16.3325 -16.2806 -16.2347
   -16.1446 -16.0254 -15.9841 -15.7842 -15.6746 -15.5447 -15.4292 -15.0730
   -14.7621 -14.4710  -9.1565  -8.8780  -8.7224  -8.6342  -8.5464  -8.3355
    -8.3301  -8.2758  -8.2030  -8.1262  -8.0295  -7.9838  -7.8685  -7.7880
    -7.7104  -7.6858  -7.6045  -7.5511  -7.4689  -7.3616  -7.3187  -7.1866
    -7.1393  -7.0877  -6.9904  -6.8610  -6.8484  -6.7275  -6.6730  -6.6436
    -6.5702  -6.5444  -6.4662  -6.3935  -6.2895  -6.2654  -6.2311  -6.0517
    -5.9676  -5.8399  -5.7438  -5.6143  -5.5250  -5.3438  -5.2910  -5.2264
    -5.1534  -4.9731  -4.9504  -4.8872  -4.7495  -4.6228  -4.4947  -4.4082
    -4.2801  -4.1192  -4.0111  -3.9561  -3.8072  -3.6270  -3.5866  -3.4473
    -3.3154  -3.2910  -3.2315  -3.1720  -2.9397  -2.7444  -2.5617  -2.4460
    -2.2929  -2.1716  -2.1415  -1.8975  -1.8679  -1.7034  -1.5450  -1.4588
    -1.4014

     the Fermi energy is    -3.3323 ev

!    total energy              =    -633.25875836 Ry
     Harris-Foulkes estimate   =    -633.25875636 Ry
     estimated scf accuracy    <       0.00000044 Ry

     The total energy is the sum of the following terms:

     one-electron contribution =   -6589.77186171 Ry
     hartree contribution      =    3328.05358504 Ry
     xc contribution           =    -249.51980824 Ry
     ewald contribution        =    2877.98541732 Ry
     smearing contrib. (-TS)   =      -0.00609078 Ry

     convergence has been achieved in  22 iterations

     negative rho (up, down):  4.872E-03 0.000E+00

     Forces acting on atoms (cartesian axes, Ry/au):

     atom    1 type  1   force =    -0.01084815   -0.03892063    0.00426012
     atom    2 type  1   force =     0.05607503    0.02472653   -0.00899390
     atom    3 type  1   force =    -0.03755816    0.01503890   -0.01455683
     atom    4 type  1   force =    -0.02174860    0.00712899    0.01463956
     atom    5 type  1   force =     0.02215019    0.00228605   -0.03957030
     atom    6 type  1   force =     0.01828584   -0.01362276   -0.02707790
     atom    7 type  1   force =    -0.01873195   -0.00571788    0.03453404
     atom    8 type  1   force =     0.00337994   -0.00317894    0.00436825
     atom    9 type  1   force =    -0.00465963    0.00904056   -0.07179540
     atom   10 type  2   force =    -0.00059593    0.01664505   -0.02098372
     atom   11 type  2   force =     0.00022082   -0.00311131    0.00971207
     atom   12 type  2   force =     0.01464345   -0.00506481   -0.01702889
     atom   13 type  2   force =     0.00585817   -0.00613916    0.01541673
     atom   14 type  2   force =    -0.00621799    0.01757781    0.05139174
     atom   15 type  2   force =    -0.00974328    0.01236485   -0.04161247
     atom   16 type  2   force =    -0.02469803    0.00699057    0.03978008
     atom   17 type  2   force =    -0.02877713    0.00988410    0.01122537
     atom   18 type  2   force =    -0.00513713    0.00250338   -0.02949219
     atom   19 type  2   force =     0.00527692    0.00685174    0.01704981
     atom   20 type  2   force =     0.00998668   -0.01212682   -0.00245846
     atom   21 type  2   force =     0.02614151   -0.02382284    0.00735096
     atom   22 type  2   force =     0.00347068   -0.00436938   -0.01713314
     atom   23 type  2   force =     0.02198672   -0.00648717    0.01700435
     atom   24 type  2   force =     0.00116447    0.01423539    0.07446164
     atom   25 type  2   force =    -0.00468805   -0.00305731    0.00389192
     atom   26 type  2   force =     0.00284398    0.00211511   -0.00290978
     atom   27 type  2   force =    -0.01808037   -0.02177003   -0.01147366

     Total force =     0.197231     Total SCF correction =     0.001426

     General routines

     Parallel routines

   This run was terminated on:  22:56:41  23Dec2021

   JOB DONE.