     Program PWSCF v.6.4 starts on 24Dec2021 at 21:19: 9

     R & G space division:  proc/nbgrp/npool/nimage =      40
     Waiting for input...
     Reading input from standard input
Warning: card    &IONS ignored
Warning: card      ION_DYNAMICS = 'BFGS' ignored
Warning: card   / ignored
Warning: card    &CELL ignored
Warning: card      CELL_DYNAMICS = 'BFGS', ignored
Warning: card    / ignored

     Current dimensions of program PWSCF are:
     Max number of different atomic species (ntypx) = 10
     Max number of k-points (npk) =  40000
     Max angular momentum in pseudopotentials (lmaxx) =  3

     bravais-lattice index     =            0
     lattice parameter (alat)  =      19.1885  a.u.
     unit-cell volume          =    7334.8079 (a.u.)^3
     number of atoms/cell      =           48
     number of atomic types    =            2
     number of electrons       =       288.00
     number of Kohn-Sham states=          173
     kinetic-energy cutoff     =      45.0000  Ry
     charge density cutoff     =     360.0000  Ry
     convergence threshold     =      1.0E-06
     mixing beta               =       0.7000
     number of iterations used =            8  local-TF  mixing
     Exchange-correlation      = SLA PW GGX GGC ( 1  4  2  2 0 0)

     celldm(1)=  19.188486  celldm(2)=   0.000000  celldm(3)=   0.000000
     celldm(4)=   0.000000  celldm(5)=   0.000000  celldm(6)=   0.000000

     crystal axes: (cart. coord. in units of alat)
               a(1) = (   1.000000   0.000000   0.000000 )
               a(2) = (   0.122536   1.037073   0.000000 )
               a(3) = (   0.061890   0.140123   1.001054 )

     reciprocal axes: (cart. coord. in units 2 pi/alat)
               b(1) = (  1.000000 -0.118156 -0.045286 )
               b(2) = (  0.000000  0.964252 -0.134972 )
               b(3) = (  0.000000  0.000000  0.998948 )

     PseudoPot. # 1 for Mo read from file:
     ~/pseudo/Mo.pw91-n-van.UPF
     MD5 check sum: Not computed, couldn't open file
     Pseudo is Ultrasoft + core correction, Zval =  6.0
     Generated by new atomic code, or converted to UPF format
     Using radial grid of  965 points,  3 beta functions with:
                l(1) =   1
                l(2) =   2
                l(3) =   2
     Q(r) pseudized with  8 coefficients,  rinner =    1.000   1.000   1.000
                                                       1.200   1.200

     PseudoPot. # 2 for S  read from file:
     ~/pseudo/S.pw91-van_ak.UPF
     MD5 check sum: Not computed, couldn't open file
     Pseudo is Ultrasoft, Zval =  6.0
     Generated by new atomic code, or converted to UPF format
     Using radial grid of  811 points,  6 beta functions with:
                l(1) =   0
                l(2) =   0
                l(3) =   1
                l(4) =   1
                l(5) =   2
                l(6) =   2
     Q(r) pseudized with  8 coefficients,  rinner =    1.100   1.100   1.100
                                                       1.100   1.100

     atomic species   valence    mass     pseudopotential
        Mo             6.00    95.50000     Mo( 1.00)
        S              6.00    32.06500     S ( 1.00)

     No symmetry found

   Cartesian axes

     site n.     atom                  positions (alat units)
         1           Mo  tau(   1) = (   0.4696424   0.4915300   0.8502165  )
         2           Mo  tau(   2) = (   0.1799451   0.4515722   0.5755958  )
         3           Mo  tau(   3) = (   0.1797018   0.2448180   0.8744169  )
         4           Mo  tau(   4) = (   0.4563800   0.2783395   0.6599776  )
         5           Mo  tau(   5) = (   0.5154425   1.0749216   0.5734536  )
         6           Mo  tau(   6) = (   0.2317489   0.9712347   0.0692765  )
         7           Mo  tau(   7) = (   0.1684166   0.5934775   0.3401949  )
         8           Mo  tau(   8) = (   0.4398945   0.5678395   0.0344104  )
         9           Mo  tau(   9) = (   1.0727807   1.1151128   0.8874253  )
        10           Mo  tau(  10) = (   0.8701436   1.0162223   0.7093117  )
        11           Mo  tau(  11) = (   0.6808417   0.7093831   0.8099133  )
        12           Mo  tau(  12) = (   0.9543979   0.6248678   0.5545430  )
        13           Mo  tau(  13) = (   0.9572019   0.4035863   0.3696736  )
        14           Mo  tau(  14) = (   0.6597180   0.3706260   0.0341944  )
        15           Mo  tau(  15) = (   0.7900927   0.1880231   0.5093720  )
        16           Mo  tau(  16) = (   0.9176524   0.1329768   0.0897112  )
        17           S   tau(  17) = (   0.2178644   0.4817584   0.8248389  )
        18           S   tau(  18) = (   0.9134884   0.7804909   0.7475943  )
        19           S   tau(  19) = (   0.4278745   0.4927558   0.5974750  )
        20           S   tau(  20) = (   0.6332218   0.9578863   0.7324619  )
        21           S   tau(  21) = (   0.2924207   1.0354288   0.8552074  )
        22           S   tau(  22) = (   0.1799163   0.6933353   0.5497598  )
        23           S   tau(  23) = (   0.4426112   0.7269128   0.8147724  )
        24           S   tau(  24) = (   0.7134151   0.6718731   0.5657452  )
        25           S   tau(  25) = (   0.4404255   0.9515562   0.4073906  )
        26           S   tau(  26) = (   0.9499125   0.1616796   0.3351167  )
        27           S   tau(  27) = (   0.3775723   0.7938661   0.1273555  )
        28           S   tau(  28) = (   0.4306627   0.3472580   0.0919055  )
        29           S   tau(  29) = (   0.1945352   0.3683643   0.3511304  )
        30           S   tau(  30) = (   0.1580440   0.1584810   0.1033179  )
        31           S   tau(  31) = (   0.5296944   0.1771182   0.4576881  )
        32           S   tau(  32) = (   0.6766242   0.1486038   0.1272727  )
        33           S   tau(  33) = (   0.8586594   1.0326348   0.9463799  )
        34           S   tau(  34) = (   0.4293665   0.2452250   0.8885281  )
        35           S   tau(  35) = (   1.0806140   1.1109591   0.6441523  )
        36           S   tau(  36) = (   0.9456506   0.3997410   0.6078565  )
        37           S   tau(  37) = (   0.7039890   0.4779295   0.8133012  )
        38           S   tau(  38) = (   0.6778695   0.2147003   0.7153204  )
        39           S   tau(  39) = (   0.9527427   0.3063852   0.8596927  )
        40           S   tau(  40) = (   0.2332242   0.2036650   0.6362970  )
        41           S   tau(  41) = (   0.7153269   0.3780061   0.3777463  )
        42           S   tau(  42) = (   0.4245252   0.5895397   0.3143690  )
        43           S   tau(  43) = (   0.8955882   0.3781137   0.1187736  )
        44           S   tau(  44) = (   1.0175250   0.9344962   0.1327995  )
        45           S   tau(  45) = (   0.8539241   0.9957363   0.4680640  )
        46           S   tau(  46) = (   0.6659493   0.6080574   0.0409740  )
        47           S   tau(  47) = (   0.9410496   0.6394658   0.3222816  )
        48           S   tau(  48) = (   0.2192211   0.6607012   0.1119041  )

     number of k points=     8  Marzari-Vanderbilt smearing, width (Ry)=  0.0200
                       cart. coord. in units 2pi/alat
        k(    1) = (   0.0000000   0.0000000   0.0000000), wk =   0.2500000
        k(    2) = (   0.0000000   0.0000000  -0.4994738), wk =   0.2500000
        k(    3) = (   0.0000000  -0.4821262   0.0674860), wk =   0.2500000
        k(    4) = (   0.0000000  -0.4821262  -0.4319878), wk =   0.2500000
        k(    5) = (  -0.5000000   0.0590780   0.0226431), wk =   0.2500000
        k(    6) = (  -0.5000000   0.0590780  -0.4768307), wk =   0.2500000
        k(    7) = (  -0.5000000  -0.4230482   0.0901291), wk =   0.2500000
        k(    8) = (  -0.5000000  -0.4230482  -0.4093447), wk =   0.2500000

     Initial potential from superposition of free atoms

     starting charge  287.97477, renormalised to  288.00000
     Starting wfcs are  272 randomized atomic wfcs

     Self-consistent Calculation

     iteration #  1     ecut=    45.00 Ry     beta= 0.70
     Davidson diagonalization with overlap
     ethr =  1.00E-02,  avg # of iterations =  2.0

     total energy              =   -1123.53837255 Ry
     Harris-Foulkes estimate   =   -1127.61200590 Ry
     estimated scf accuracy    <      11.01755747 Ry

[...]

     iteration #  8     ecut=    45.00 Ry     beta= 0.70
     Davidson diagonalization with overlap
     c_bands:  1 eigenvalues not converged
     ethr =  1.62E-06,  avg # of iterations = 12.9

[...]

     total energy              =   -1125.67111427 Ry
     Harris-Foulkes estimate   =   -1125.67111491 Ry
     estimated scf accuracy    <       0.00000446 Ry

     iteration # 14     ecut=    45.00 Ry     beta= 0.70
     Davidson diagonalization with overlap
     ethr =  1.55E-09,  avg # of iterations =  1.9

     End of self-consistent calculation

          k = 0.0000 0.0000 0.0000 ( 37427 PWs)   bands (ev):

   -10.0108  -8.6368  -8.0605  -7.9574  -7.7848  -7.7179  -7.6989  -7.6045
    -7.5068  -7.4058  -7.3392  -7.3358  -7.3012  -7.2568  -7.2140  -7.1834
    -7.0612  -7.0529  -6.9633  -6.8098  -6.7950  -6.7166  -6.4115  -6.3766
    -6.3184  -6.1983  -6.1268  -6.0912  -5.9243  -5.9065  -5.8113  -5.6601
    -0.4574  -0.3966  -0.3298  -0.1816  -0.0448   0.0107   0.0850   0.2136
     0.2786   0.3025   0.3800   0.4202   0.5684   0.5996   0.6461   0.7028
     0.7212   0.7582   0.8351   0.8514   0.9108   0.9710   1.0305   1.0707
     1.0906   1.1911   1.2628   1.2976   1.3187   1.3785   1.4295   1.4533
     1.5253   1.5482   1.5643   1.6078   1.6492   1.6988   1.7143   1.7916
     1.8109   1.8408   1.8820   1.9047   1.9421   1.9671   2.0431   2.0625
     2.1349   2.1591   2.2243   2.2636   2.2826   2.3411   2.3675   2.3861
     2.4356   2.4753   2.5621   2.6004   2.6102   2.7135   2.7584   2.7780
     2.8604   2.9138   2.9446   3.0004   3.0516   3.0837   3.2440   3.2751
     3.3737   3.3905   3.4210   3.5196   3.5731   3.6395   3.6660   3.7943
     3.8470   3.8588   3.9296   4.0440   4.0530   4.0747   4.1289   4.2393
     4.2831   4.3646   4.4101   4.5172   4.5361   4.6101   4.6482   4.7402
     4.7545   4.7956   4.8969   4.9202   5.0330   5.0517   5.1611   5.2128
     5.2611   5.3123   5.3811   5.4070   5.4888   5.5284   5.5874   5.6540
     5.6871   5.7613   5.8430   5.8958   5.9620   6.1626   6.2043   6.3604
     6.3808   6.4477   6.6027   6.6630   6.7120   6.8571   6.8617   6.8977
     7.0048   7.0674   7.1228   7.1803   7.2138   7.2575   7.3297   7.4152
     7.4480   7.5241   7.5523   7.6685   7.7180

[...]

          k = 0.0000-0.4821-0.4320 ( 37416 PWs)   bands (ev):

[...]

          k =-0.5000 0.0591 0.0226 ( 37372 PWs)   bands (ev):

[...]

          k =-0.5000-0.4230-0.4093 ( 37396 PWs)   bands (ev):

   -10.0098  -8.4669  -8.2787  -7.9416  -7.8798  -7.8236  -7.6037  -7.5727
    -7.5434  -7.4100  -7.3339  -7.3160  -7.3005  -7.2490  -7.2239  -7.1283
    -7.1105  -7.0085  -6.9103  -6.8523  -6.7586  -6.6544  -6.4365  -6.3638
    -6.3073  -6.2131  -6.1307  -6.0916  -5.9196  -5.9027  -5.8174  -5.6428
    -0.4348  -0.3767  -0.3665  -0.0999  -0.0079   0.0365   0.1142   0.1612
     0.2323   0.2905   0.3246   0.3633   0.4263   0.5962   0.6216   0.6548
     0.7114   0.7727   0.7998   0.8064   0.9270   0.9623   1.0260   1.0988
     1.1361   1.1912   1.2162   1.2527   1.2798   1.3630   1.3969   1.4215
     1.4688   1.5100   1.5606   1.5784   1.6487   1.7046   1.7231   1.7413
     1.7759   1.8036   1.8517   1.8705   1.8980   1.9841   2.0053   2.0622
     2.1044   2.1722   2.2132   2.2793   2.3309   2.3650   2.3903   2.4709
     2.5107   2.5346   2.6203   2.6747   2.7460   2.7598   2.8241   2.8647
     2.9089   2.9643   3.0020   3.0567   3.1383   3.2293   3.3196   3.3302
     3.3804   3.4008   3.4506   3.5474   3.5842   3.5999   3.6860   3.7045
     3.7977   3.8656   3.9290   3.9947   4.1049   4.1644   4.1714   4.2765
     4.2919   4.3313   4.4229   4.4585   4.4980   4.5318   4.6003   4.6412
     4.6644   4.7934   4.8540   4.9035   5.0420   5.0494   5.1202   5.1937
     5.2250   5.3598   5.4168   5.4574   5.5243   5.5703   5.5806   5.6686
     5.7256   5.7974   5.8617   5.9342   6.0060   6.0999   6.1616   6.3144
     6.3671   6.3903   6.5611   6.6148   6.6788   6.7337   6.8115   6.8926
     6.9430   6.9919   7.1434   7.1657   7.2177   7.2902   7.3254   7.3696
     7.4245   7.5335   7.5604   7.6577   7.7237

     the Fermi energy is     5.6901 ev

!    total energy              =   -1125.67111419 Ry
     Harris-Foulkes estimate   =   -1125.67111468 Ry
     estimated scf accuracy    <       0.00000076 Ry

     The total energy is the sum of the following terms:

     one-electron contribution =    -201.81414154 Ry
     hartree contribution      =     255.08267511 Ry
     xc contribution           =    -444.48177027 Ry
     ewald contribution        =    -734.45814524 Ry
     smearing contrib. (-TS)   =       0.00026775 Ry

     convergence has been achieved in  14 iterations

     Forces acting on atoms (cartesian axes, Ry/au):

     atom    1 type  1   force =    -0.02077874    0.05669958    0.02929279
     atom    2 type  1   force =     0.01106367   -0.01507141    0.00911758
     atom    3 type  1   force =     0.01164718    0.01260625    0.01735656
     atom    4 type  1   force =    -0.01375374    0.01634575   -0.03315043
     atom    5 type  1   force =    -0.03673570   -0.09501845   -0.03648243
     atom    6 type  1   force =     0.00714547   -0.03608797    0.02126259
     atom    7 type  1   force =     0.06602501   -0.00342333    0.02953263
     atom    8 type  1   force =     0.01748237   -0.00083579    0.03913356
     atom    9 type  1   force =    -0.02782940    0.00315101    0.00890739
     atom   10 type  1   force =     0.05174945   -0.00394741    0.01698166
     atom   11 type  1   force =    -0.05306939    0.00729369   -0.01294023
     atom   12 type  1   force =    -0.02881779    0.01354073   -0.00414432
     atom   13 type  1   force =    -0.01246406    0.01581751   -0.02907122
     atom   14 type  1   force =    -0.00976398   -0.02048796    0.03647411
     atom   15 type  1   force =    -0.03772783   -0.00102172   -0.07832969
     atom   16 type  1   force =    -0.03241082    0.02230033    0.01002808
     atom   17 type  2   force =     0.00543131    0.00735655    0.00080298
     atom   18 type  2   force =     0.01343651   -0.00198452   -0.01910841
     atom   19 type  2   force =     0.00989261    0.00886457   -0.00430598
     atom   20 type  2   force =    -0.01871764    0.01064167   -0.01474353
     atom   21 type  2   force =     0.00864156    0.00269407   -0.00827269
     atom   22 type  2   force =     0.01111831   -0.01696139    0.01878864
     atom   23 type  2   force =    -0.00552621   -0.00417527   -0.02639694
     atom   24 type  2   force =     0.02175429   -0.01017145    0.01309937
     atom   25 type  2   force =     0.01137761    0.03441245    0.03884843
     atom   26 type  2   force =     0.01334329   -0.00538367    0.01894738
     atom   27 type  2   force =     0.02398245   -0.01226921    0.01474238
     atom   28 type  2   force =    -0.00602845   -0.01885987   -0.00222590
     atom   29 type  2   force =     0.00387870   -0.00377693   -0.00049195
     atom   30 type  2   force =    -0.00402356   -0.01092405   -0.01004956
     atom   31 type  2   force =     0.01414303    0.01126375   -0.00185618
     atom   32 type  2   force =     0.01011696    0.02287247   -0.01276885
     atom   33 type  2   force =     0.01876303    0.00108234   -0.02661571
     atom   34 type  2   force =     0.02379954    0.00905115    0.00409092
     atom   35 type  2   force =    -0.01155253   -0.02421843    0.02193622
     atom   36 type  2   force =     0.00500628    0.02032336   -0.00839378
     atom   37 type  2   force =     0.02285707   -0.01675458   -0.01441805
     atom   38 type  2   force =     0.01493641   -0.00848106    0.02100204
     atom   39 type  2   force =    -0.00288326   -0.01213018    0.00755659
     atom   40 type  2   force =    -0.02240746    0.01123151   -0.00638031
     atom   41 type  2   force =     0.01993184   -0.01851453    0.02145659
     atom   42 type  2   force =    -0.02638292    0.00789851   -0.01317421
     atom   43 type  2   force =    -0.00102272   -0.00276486    0.00038381
     atom   44 type  2   force =    -0.00715814    0.01710957   -0.00113517
     atom   45 type  2   force =    -0.00051617    0.01844609    0.01523137
     atom   46 type  2   force =     0.02842065    0.01173835    0.00584837
     atom   47 type  2   force =    -0.03992543   -0.00604963   -0.01673457
     atom   48 type  2   force =    -0.02644866    0.00657241   -0.03963193

     Total force =     0.268815     Total SCF correction =     0.001399

     General routines

     Parallel routines

   This run was terminated on:  21:23:41  24Dec2021

   JOB DONE.