     Program PWSCF v.6.4 starts on 18Oct2021 at 12:25: 5

     R & G space division:  proc/nbgrp/npool/nimage =      40
     Waiting for input...
     Reading input from standard input
Warning: card    &IONS ignored
Warning: card      ION_DYNAMICS = 'BFGS' ignored
Warning: card   / ignored
Warning: card    &CELL ignored
Warning: card      CELL_DYNAMICS = 'BFGS', ignored
Warning: card    / ignored

     Current dimensions of program PWSCF are:
     Max number of different atomic species (ntypx) = 10
     Max number of k-points (npk) =  40000
     Max angular momentum in pseudopotentials (lmaxx) =  3

     bravais-lattice index     =            0
     lattice parameter (alat)  =      12.1555  a.u.
     unit-cell volume          =    7139.1456 (a.u.)^3
     number of atoms/cell      =           36
     number of atomic types    =            2
     number of electrons       =       216.00
     number of Kohn-Sham states=          130
     kinetic-energy cutoff     =      45.0000  Ry
     charge density cutoff     =     360.0000  Ry
     convergence threshold     =      1.0E-06
     mixing beta               =       0.7000
     number of iterations used =            8  local-TF  mixing
     Exchange-correlation      = SLA PW GGX GGC ( 1  4  2  2 0 0)

     celldm(1)=  12.155489  celldm(2)=   0.000000  celldm(3)=   0.000000
     celldm(4)=   0.000000  celldm(5)=   0.000000  celldm(6)=   0.000000

     crystal axes: (cart. coord. in units of alat)
               a(1) = (   1.000000   0.000000   0.000000 )
               a(2) = (   0.501744   0.879367   0.000000 )
               a(3) = (   0.127226  -0.084225   4.520210 )

     reciprocal axes: (cart. coord. in units 2 pi/alat)
               b(1) = (  1.000000 -0.570574 -0.038778 )
               b(2) = (  0.000000  1.137181  0.021189 )
               b(3) = (  0.000000  0.000000  0.221229 )

     PseudoPot. # 1 for Mo read from file:
     ~/pseudo/Mo.pw91-n-van.UPF
     MD5 check sum: Not computed, couldn't open file
     Pseudo is Ultrasoft + core correction, Zval =  6.0
     Generated by new atomic code, or converted to UPF format
     Using radial grid of  965 points,  3 beta functions with:
                l(1) =   1
                l(2) =   2
                l(3) =   2
     Q(r) pseudized with  8 coefficients,  rinner =    1.000   1.000   1.000
                                                       1.200   1.200

     PseudoPot. # 2 for S  read from file:
     ~/pseudo/S.pw91-van_ak.UPF
     MD5 check sum: Not computed, couldn't open file
     Pseudo is Ultrasoft, Zval =  6.0
     Generated by new atomic code, or converted to UPF format
     Using radial grid of  811 points,  6 beta functions with:
                l(1) =   0
                l(2) =   0
                l(3) =   1
                l(4) =   1
                l(5) =   2
                l(6) =   2
     Q(r) pseudized with  8 coefficients,  rinner =    1.100   1.100   1.100
                                                       1.100   1.100

     atomic species   valence    mass     pseudopotential
        Mo             6.00    95.50000     Mo( 1.00)
        S              6.00    32.06500     S ( 1.00)

     No symmetry found

   Cartesian axes

     site n.     atom                  positions (alat units)
         1           Mo  tau(   1) = (   0.4492682   0.2001395   4.4251629  )
         2           Mo  tau(   2) = (   1.1944867   0.5482137   4.4443813  )
         3           Mo  tau(   3) = (   0.7164567   0.5469149   4.4389717  )
         4           Mo  tau(   4) = (   0.9461294   0.1981000   4.4255181  )
         5           Mo  tau(   5) = (   0.8956192   0.7106785   1.1610119  )
         6           Mo  tau(   6) = (   1.1218408   0.2814953   1.1490401  )
         7           Mo  tau(   7) = (   0.6315972   0.2745927   1.1639678  )
         8           Mo  tau(   8) = (   1.4010338   0.7170765   1.1537730  )
         9           Mo  tau(   9) = (   0.7250299   0.5376769   3.4291741  )
        10           Mo  tau(  10) = (   0.9608611   0.1036719   3.4429076  )
        11           Mo  tau(  11) = (   0.4706389   0.0980697   3.4608759  )
        12           Mo  tau(  12) = (   1.2209803   0.5467090   3.4562645  )
        13           S   tau(  13) = (   0.9716816   0.7548414   4.2285805  )
        14           S   tau(  14) = (   1.2203662   0.2920279   4.1784918  )
        15           S   tau(  15) = (   0.7022963   0.3095451   4.1648189  )
        16           S   tau(  16) = (   1.4459681   0.7350401   4.2298784  )
        17           S   tau(  17) = (   0.3776400   0.1164862   0.8991086  )
        18           S   tau(  18) = (   1.1384227   0.5656692   0.8876476  )
        19           S   tau(  19) = (   0.6378671   0.5666278   0.9190522  )
        20           S   tau(  20) = (   0.8752008   0.1209059   0.9120849  )
        21           S   tau(  21) = (   0.2374628  -0.0566884   3.1975584  )
        22           S   tau(  22) = (   0.9766308   0.3893000   3.1872090  )
        23           S   tau(  23) = (   0.4908685   0.3908077   3.1994747  )
        24           S   tau(  24) = (   0.7381670  -0.0423378   3.2003333  )
        25           S   tau(  25) = (   0.0788083   0.1015683   0.1428511  )
        26           S   tau(  26) = (   0.8322439   0.5431244   0.2117439  )
        27           S   tau(  27) = (   1.3460607   0.5437020   0.1846721  )
        28           S   tau(  28) = (   0.5882906   0.0841866   0.1464002  )
        29           S   tau(  29) = (   0.3731140   0.1350849   1.3986321  )
        30           S   tau(  30) = (   1.1209631   0.5642125   1.3879105  )
        31           S   tau(  31) = (   0.6247774   0.5563404   1.3970570  )
        32           S   tau(  32) = (   0.8748112   0.1250338   1.3804740  )
        33           S   tau(  33) = (   0.2261439  -0.0587121   3.7052662  )
        34           S   tau(  34) = (   0.9761844   0.3891857   3.6729295  )
        35           S   tau(  35) = (   0.4711419   0.3800344   3.7012132  )
        36           S   tau(  36) = (   0.7098249  -0.0465959   3.6968253  )

     number of k points=     5  Marzari-Vanderbilt smearing, width (Ry)=  0.0200
                       cart. coord. in units 2pi/alat
        k(    1) = (   0.0000000   0.0000000   0.0000000), wk =   0.2222222
        k(    2) = (   0.0000000   0.3790604   0.0070630), wk =   0.4444444
        k(    3) = (   0.3333333  -0.1901912  -0.0129259), wk =   0.4444444
        k(    4) = (   0.3333333   0.1888692  -0.0058629), wk =   0.4444444
        k(    5) = (   0.3333333  -0.5692516  -0.0199889), wk =   0.4444444

     Initial potential from superposition of free atoms

     starting charge  215.98107, renormalised to  216.00000

     negative rho (up, down):  4.693E-04 0.000E+00
     Starting wfcs are  204 randomized atomic wfcs

     Self-consistent Calculation

     iteration #  1     ecut=    45.00 Ry     beta= 0.70
     Davidson diagonalization with overlap
     ethr =  1.00E-02,  avg # of iterations =  2.0

     negative rho (up, down):  9.470E-06 0.000E+00

     total energy              =    -843.75919871 Ry
     Harris-Foulkes estimate   =    -846.48750470 Ry
     estimated scf accuracy    <       7.27727363 Ry

[...]

     total energy              =    -845.15296736 Ry
     Harris-Foulkes estimate   =    -845.15296725 Ry
     estimated scf accuracy    <       0.00000186 Ry

     iteration # 18     ecut=    45.00 Ry     beta= 0.70
     Davidson diagonalization with overlap
     ethr =  8.63E-10,  avg # of iterations =  1.0

[...]

     End of self-consistent calculation

          k = 0.0000 0.0000 0.0000 ( 36329 PWs)   bands (ev):

   -11.3338 -11.3065 -11.1698 -10.2475 -10.1239 -10.0700  -9.9001  -9.8541
    -9.7667  -9.6888  -9.6293  -9.6017  -9.5068  -9.4653  -9.4575  -9.4564
    -9.4219  -9.2760  -9.2097  -9.1921  -9.1484  -9.1046  -9.0263  -8.8709
    -3.1857  -3.0934  -3.0521  -3.0308  -3.0243  -2.9264  -2.9051  -2.8676
    -2.8553  -2.8112  -2.7781  -2.4256  -2.1206  -2.0266  -2.0135  -1.9510
    -1.9386  -1.8155  -1.8123  -1.7099  -1.6716  -1.4726  -1.4270  -1.3820
    -1.3628  -1.3602  -1.1285  -1.1253  -1.0998  -0.9030  -0.7331  -0.6631
    -0.6247  -0.5569  -0.4794  -0.3319  -0.3180  -0.2541  -0.1874  -0.1582
    -0.1269   0.0164   0.0687   0.0891   0.1562   0.2570   0.4183   0.5421
     0.5867   0.7076   0.7630   0.7647   0.8319   0.8482   0.8906   0.9010
     1.0059   1.0286   1.0980   1.1895   1.2672   1.3143   1.4351   1.5020
     1.5201   1.6222   1.6286   1.6578   1.6744   1.7987   1.8516   1.9894
     2.0026   2.0135   2.0837   2.1662   2.1798   2.1849   2.2769   2.3481
     2.6161   2.8234   2.8617   2.9993   3.2698   3.6302   4.2741   4.4189
     4.4308   4.4592   4.5074   4.5604   4.5824   4.6318   4.7197   4.8840
     4.9590   4.9817   5.0135   5.0575   5.0781   5.0957   5.1221   5.1484
     5.1702   5.2347

[...]

          k = 0.3333-0.5693-0.0200 ( 36467 PWs)   bands (ev):

   -10.5708 -10.5261 -10.4777 -10.3990 -10.3232 -10.2119 -10.1886 -10.1772
   -10.1117  -9.8363  -9.7630  -9.7048  -9.6885  -9.6836  -9.6799  -9.5515
    -9.5062  -9.4026  -9.3968  -9.3168  -9.2261  -9.1578  -9.0557  -8.8959
    -2.5947  -2.5380  -2.4790  -2.3761  -2.3359  -2.3162  -2.1766  -2.1317
    -2.0862  -2.0207  -1.9391  -1.8392  -1.7778  -1.7754  -1.6750  -1.5573
    -1.4262  -1.3619  -1.3460  -1.2647  -1.2521  -1.2252  -1.2065  -1.1864
    -1.1440  -1.1004  -1.0725  -1.0662  -0.9931  -0.9517  -0.8852  -0.8692
    -0.8586  -0.8050  -0.8025  -0.7644  -0.7198  -0.6309  -0.5610  -0.4684
    -0.4401  -0.4123  -0.3838  -0.3705  -0.3140  -0.2322  -0.2104  -0.1051
    -0.0945  -0.0437   0.1558   0.2854   0.3941   0.5334   0.5983   0.6366
     0.7071   0.7209   0.7356   0.8638   0.8807   0.9067   1.0306   1.1439
     1.3699   1.4207   1.4347   1.4855   1.5620   1.6088   1.6888   1.7922
     1.8239   1.8561   1.8631   1.9134   1.9946   2.0418   2.0958   2.1115
     2.2490   2.3283   2.6259   2.6470   3.1218   3.5166   3.9858   4.0429
     4.0807   4.2569   4.3484   4.3526   4.4449   4.4676   4.4781   4.6024
     4.7007   4.7542   4.7696   4.8132   4.8549   4.8819   4.9549   5.0233
     5.0480   5.1225

     the Fermi energy is     2.8730 ev

!    total energy              =    -845.15296639 Ry
     Harris-Foulkes estimate   =    -845.15296743 Ry
     estimated scf accuracy    <       0.00000092 Ry

     The total energy is the sum of the following terms:

     one-electron contribution =   -3542.74317686 Ry
     hartree contribution      =    1865.64284309 Ry
     xc contribution           =    -333.89889595 Ry
     ewald contribution        =    1165.83061416 Ry
     smearing contrib. (-TS)   =       0.01564917 Ry

     convergence has been achieved in  18 iterations

     negative rho (up, down):  6.709E-04 0.000E+00

     Forces acting on atoms (cartesian axes, Ry/au):

     atom    1 type  1   force =     0.05109932   -0.00877547    0.09351413
     atom    2 type  1   force =     0.03938349    0.00892583    0.09192641
     atom    3 type  1   force =    -0.01937640    0.05512265    0.07289176
     atom    4 type  1   force =     0.02205234   -0.02267634    0.04509949
     atom    5 type  1   force =    -0.08861587    0.03922242   -0.08786924
     atom    6 type  1   force =     0.05528541   -0.03891279   -0.05135213
     atom    7 type  1   force =    -0.05478132   -0.02308677   -0.11132934
     atom    8 type  1   force =    -0.12110597   -0.04816361   -0.03738384
     atom    9 type  1   force =     0.01967335   -0.00283119    0.09962186
     atom   10 type  1   force =     0.10492583   -0.04410358    0.01819288
     atom   11 type  1   force =    -0.00143264   -0.00669444   -0.07734680
     atom   12 type  1   force =     0.05135506   -0.03575629   -0.08647709
     atom   13 type  2   force =    -0.03258236   -0.02362671   -0.01854675
     atom   14 type  2   force =    -0.06871375    0.00774822   -0.09000769
     atom   15 type  2   force =     0.01646136   -0.02538100   -0.02637133
     atom   16 type  2   force =     0.02741081    0.02731622   -0.01348479
     atom   17 type  2   force =     0.00708229    0.02421453    0.05529509
     atom   18 type  2   force =     0.00636176    0.01191720    0.06452583
     atom   19 type  2   force =     0.03138338   -0.01172007   -0.01767213
     atom   20 type  2   force =     0.00388448    0.02604522   -0.01445311
     atom   21 type  2   force =    -0.02882726    0.04507577    0.01769440
     atom   22 type  2   force =     0.01356095    0.01113964    0.02981172
     atom   23 type  2   force =    -0.07169985   -0.01778865    0.00922805
     atom   24 type  2   force =    -0.06550436   -0.01967094    0.00468616
     atom   25 type  2   force =     0.00636670   -0.01811231   -0.02545057
     atom   26 type  2   force =    -0.00195332   -0.00849112   -0.07445278
     atom   27 type  2   force =    -0.02871027   -0.00903459   -0.01026773
     atom   28 type  2   force =    -0.00867483    0.01472681   -0.03485784
     atom   29 type  2   force =    -0.00443804   -0.01506204   -0.00044341
     atom   30 type  2   force =     0.08009671   -0.00224698    0.06101539
     atom   31 type  2   force =     0.04668163    0.03471037    0.04775082
     atom   32 type  2   force =     0.03765376    0.00330595    0.09199019
     atom   33 type  2   force =    -0.03321419    0.00869750   -0.05436480
     atom   34 type  2   force =    -0.03559142    0.01424321    0.04900529
     atom   35 type  2   force =     0.00616675    0.04808655   -0.03143834
     atom   36 type  2   force =     0.03833646    0.00163681    0.01132024

     Total force =     0.473402     Total SCF correction =     0.002121

     General routines

     Parallel routines

   This run was terminated on:  12:27: 6  18Oct2021

   JOB DONE.