     Program PWSCF v.6.4 starts on  3Aug2021 at 21: 9:10

     R & G space division:  proc/nbgrp/npool/nimage =      40
     Waiting for input...
     Reading input from standard input
Warning: card    &IONS ignored
Warning: card      ION_DYNAMICS = 'BFGS' ignored
Warning: card   / ignored
Warning: card    &CELL ignored
Warning: card      CELL_DYNAMICS = 'BFGS', ignored
Warning: card    / ignored

     Current dimensions of program PWSCF are:
     Max number of different atomic species (ntypx) = 10
     Max number of k-points (npk) =  40000
     Max angular momentum in pseudopotentials (lmaxx) =  3

     bravais-lattice index     =            0
     lattice parameter (alat)  =      11.4641  a.u.
     unit-cell volume          =    2857.1084 (a.u.)^3
     number of atoms/cell      =           24
     number of atomic types    =            2
     number of electrons       =       144.00
     number of Kohn-Sham states=           86
     kinetic-energy cutoff     =      45.0000  Ry
     charge density cutoff     =     360.0000  Ry
     convergence threshold     =      1.0E-06
     mixing beta               =       0.7000
     number of iterations used =            8  local-TF  mixing
     Exchange-correlation      = SLA PW GGX GGC ( 1  4  2  2 0 0)

     celldm(1)=  11.464107  celldm(2)=   0.000000  celldm(3)=   0.000000
     celldm(4)=   0.000000  celldm(5)=   0.000000  celldm(6)=   0.000000

     crystal axes: (cart. coord. in units of alat)
               a(1) = (   1.000000   0.000000   0.000000 )
               a(2) = (  -0.500000   0.866025   0.000000 )
               a(3) = (   0.000000   0.000000   2.189653 )

     reciprocal axes: (cart. coord. in units 2 pi/alat)
               b(1) = (  1.000000  0.577350  0.000000 )
               b(2) = (  0.000000  1.154701  0.000000 )
               b(3) = (  0.000000  0.000000  0.456693 )

     PseudoPot. # 1 for Mo read from file:
     ~/pseudo/Mo.pw91-n-van.UPF
     MD5 check sum: Not computed, couldn't open file
     Pseudo is Ultrasoft + core correction, Zval =  6.0
     Generated by new atomic code, or converted to UPF format
     Using radial grid of  965 points,  3 beta functions with:
                l(1) =   1
                l(2) =   2
                l(3) =   2
     Q(r) pseudized with  8 coefficients,  rinner =    1.000   1.000   1.000
                                                       1.200   1.200

     PseudoPot. # 2 for S  read from file:
     ~/pseudo/S.pw91-van_ak.UPF
     MD5 check sum: Not computed, couldn't open file
     Pseudo is Ultrasoft, Zval =  6.0
     Generated by new atomic code, or converted to UPF format
     Using radial grid of  811 points,  6 beta functions with:
                l(1) =   0
                l(2) =   0
                l(3) =   1
                l(4) =   1
                l(5) =   2
                l(6) =   2
     Q(r) pseudized with  8 coefficients,  rinner =    1.100   1.100   1.100
                                                       1.100   1.100

     atomic species   valence    mass     pseudopotential
        Mo             6.00    95.50000     Mo( 1.00)
        S              6.00    32.06500     S ( 1.00)

     No symmetry found

   Cartesian axes

     site n.     atom                  positions (alat units)
         1           Mo  tau(   1) = (  -0.0042641   0.0023457   1.6264911  )
         2           Mo  tau(   2) = (  -0.2447402   0.4258262   1.6561112  )
         3           Mo  tau(   3) = (   0.4954518  -0.0078535   1.6560007  )
         4           Mo  tau(   4) = (   0.2662553   0.4344030   1.6445955  )
         5           Mo  tau(   5) = (   0.0052220   0.0143621   0.5535922  )
         6           Mo  tau(   6) = (  -0.2533024   0.4171398   0.5444363  )
         7           Mo  tau(   7) = (   0.5144143   0.0012643   0.5553094  )
         8           Mo  tau(   8) = (   0.2636871   0.4410729   0.5430073  )
         9           S   tau(   9) = (   0.2645628   0.1387500   1.8821689  )
        10           S   tau(  10) = (  -0.0115155   0.5722399   1.8768713  )
        11           S   tau(  11) = (   0.7633143   0.1540310   1.8881991  )
        12           S   tau(  12) = (   0.5038383   0.5829546   1.9025202  )
        13           S   tau(  13) = (  -0.0053216   0.2896556   0.2865820  )
        14           S   tau(  14) = (  -0.2516885   0.7255524   0.3180878  )
        15           S   tau(  15) = (   0.4864864   0.2935083   0.2940439  )
        16           S   tau(  16) = (   0.2505940   0.7124684   0.2885009  )
        17           S   tau(  17) = (   0.0006296   0.2744856   0.8010393  )
        18           S   tau(  18) = (  -0.2472422   0.7347069   0.7829472  )
        19           S   tau(  19) = (   0.4899794   0.2877145   0.8057275  )
        20           S   tau(  20) = (   0.2376372   0.7220263   0.8035724  )
        21           S   tau(  21) = (   0.2478019   0.1453860   1.4132821  )
        22           S   tau(  22) = (  -0.0015059   0.5766451   1.3805795  )
        23           S   tau(  23) = (   0.7485284   0.1599221   1.4021435  )
        24           S   tau(  24) = (   0.4950084   0.5924497   1.4013151  )

     number of k points=    10  Marzari-Vanderbilt smearing, width (Ry)=  0.0200
                       cart. coord. in units 2pi/alat
        k(    1) = (   0.0000000   0.0000000   0.0000000), wk =   0.1111111
        k(    2) = (   0.0000000   0.0000000  -0.2283466), wk =   0.1111111
        k(    3) = (   0.0000000   0.3849002   0.0000000), wk =   0.2222222
        k(    4) = (   0.0000000   0.3849002  -0.2283466), wk =   0.2222222
        k(    5) = (   0.3333333   0.5773503   0.0000000), wk =   0.2222222
        k(    6) = (   0.3333333   0.5773503  -0.2283466), wk =   0.2222222
        k(    7) = (  -0.3333333   0.1924501   0.0000000), wk =   0.2222222
        k(    8) = (   0.3333333   0.1924501   0.0000000), wk =   0.2222222
        k(    9) = (  -0.3333333   0.1924501  -0.2283466), wk =   0.2222222
        k(   10) = (   0.3333333   0.1924501  -0.2283466), wk =   0.2222222

     Initial potential from superposition of free atoms

     starting charge  143.98738, renormalised to  144.00000
     Starting wfcs are  136 randomized atomic wfcs

     Self-consistent Calculation

     iteration #  1     ecut=    45.00 Ry     beta= 0.70
     Davidson diagonalization with overlap
     ethr =  1.00E-02,  avg # of iterations =  2.3

     total energy              =    -562.49045178 Ry
     Harris-Foulkes estimate   =    -563.51838373 Ry
     estimated scf accuracy    <       2.50162784 Ry

[...]

     total energy              =    -562.93409132 Ry
     Harris-Foulkes estimate   =    -562.93409165 Ry
     estimated scf accuracy    <       0.00000233 Ry

     iteration # 11     ecut=    45.00 Ry     beta= 0.70
     Davidson diagonalization with overlap
     ethr =  1.62E-09,  avg # of iterations =  2.0

     End of self-consistent calculation

          k = 0.0000 0.0000 0.0000 ( 14573 PWs)   bands (ev):

    -6.8631  -6.6772  -5.2119  -5.0770  -4.7515  -4.5934  -4.5700  -4.4617
    -4.3515  -4.3136  -4.2539  -4.2520  -4.1521  -4.1075  -4.0385  -4.0146
     1.5018   1.5724   1.5990   1.6476   1.7618   1.7704   1.8868   2.0828
     2.6353   2.6921   2.8009   2.8099   2.9264   2.9899   3.3336   3.4503
     3.5673   3.6819   3.7012   3.8930   4.2524   4.3802   4.5508   4.5923
     4.7866   4.8765   4.9847   5.1733   5.2739   5.3375   5.6503   5.7902
     5.8567   6.0363   6.1757   6.3413   6.4388   6.5529   6.6970   6.7286
     6.9625   7.0629   7.1305   7.2447   7.2804   7.3842   7.4797   7.5258
     7.5511   7.6858   7.7948   7.8538   7.9367   7.9815   8.1683   8.7366
    10.4872  10.5770  10.6940  10.7525  10.7729  10.9341  11.1322  11.2171
    11.3184  11.3956  11.4178  11.4696  11.5118  11.5790

[...]

          k =-0.3333 0.1925 0.0000 ( 14575 PWs)   bands (ev):

[...]

          k =-0.3333 0.1925-0.2283 ( 14542 PWs)   bands (ev):

[...]

          k = 0.3333 0.1925-0.2283 ( 14542 PWs)   bands (ev):

    -6.3859  -6.2264  -5.2751  -5.1439  -4.9854  -4.9216  -4.6915  -4.5104
    -4.4445  -4.4359  -4.3565  -4.2798  -4.2593  -4.1890  -4.1032  -4.0805
     1.9790   2.0031   2.0962   2.1245   2.2276   2.2507   2.3045   2.4326
     2.4732   2.5899   2.7972   2.8625   3.3465   3.4502   3.7689   3.8318
     3.9564   4.0386   4.0887   4.1513   4.1985   4.4756   4.4945   4.5934
     4.6705   4.6873   4.7679   4.9153   4.9602   5.1727   5.4469   5.5414
     5.5614   5.7982   5.8100   5.9408   6.0346   6.1173   6.3280   6.4225
     6.4730   6.5278   6.6732   6.6820   6.8351   6.9799   7.0415   7.2275
     7.3254   7.3414   7.5260   7.6553   7.8537   7.9941   8.2145   8.2369
    10.3951  10.5131  10.6000  10.6729  10.7576  10.8031  10.8503  10.8896
    10.9506  11.0485  11.1275  11.1754  11.2910  11.3449

     the Fermi energy is     8.5714 ev

!    total energy              =    -562.93409065 Ry
     Harris-Foulkes estimate   =    -562.93409154 Ry
     estimated scf accuracy    <       0.00000100 Ry

     The total energy is the sum of the following terms:

     one-electron contribution =     -45.86464076 Ry
     hartree contribution      =     115.22487467 Ry
     xc contribution           =    -226.37739125 Ry
     ewald contribution        =    -405.92806764 Ry
     smearing contrib. (-TS)   =       0.01113433 Ry

     convergence has been achieved in  11 iterations

     Forces acting on atoms (cartesian axes, Ry/au):

     atom    1 type  1   force =     0.02305597    0.02273190    0.24034064
     atom    2 type  1   force =    -0.11683284    0.14252962   -0.19227379
     atom    3 type  1   force =     0.14669869    0.03054015   -0.18857296
     atom    4 type  1   force =    -0.13611641    0.03444476    0.02705632
     atom    5 type  1   force =    -0.11752083   -0.12784399   -0.10336078
     atom    6 type  1   force =     0.02219642    0.10477105    0.05877876
     atom    7 type  1   force =    -0.07460490    0.04105105   -0.12353282
     atom    8 type  1   force =    -0.16874637   -0.06139651    0.07355842
     atom    9 type  2   force =    -0.11497595    0.03973891    0.21529474
     atom   10 type  2   force =     0.13791239   -0.01667447    0.27332176
     atom   11 type  2   force =    -0.02834176   -0.11329842    0.20149966
     atom   12 type  2   force =     0.00050073    0.01798124    0.09449195
     atom   13 type  2   force =     0.03662586    0.01423940   -0.07796723
     atom   14 type  2   force =     0.03717794   -0.02176959   -0.16568968
     atom   15 type  2   force =     0.06889477   -0.05770267   -0.14208037
     atom   16 type  2   force =     0.02765132    0.07589718   -0.09026337
     atom   17 type  2   force =     0.01803133    0.12626850    0.13813567
     atom   18 type  2   force =     0.00874105   -0.09524966    0.18517530
     atom   19 type  2   force =     0.04081501    0.01396992    0.11240923
     atom   20 type  2   force =     0.10065264   -0.01194543    0.13589449
     atom   21 type  2   force =     0.07059843    0.01076285   -0.24406862
     atom   22 type  2   force =     0.01567162   -0.00962548   -0.03612309
     atom   23 type  2   force =    -0.06402911   -0.05383420   -0.18203528
     atom   24 type  2   force =     0.06594402   -0.10558610   -0.20998896

     Total force =     0.954315     Total SCF correction =     0.002519

     General routines

     Parallel routines

   This run was terminated on:  21:10: 2   3Aug2021

   JOB DONE.