     Program PWSCF v.6.4 starts on 23Dec2021 at 23:59: 5

     R & G space division:  proc/nbgrp/npool/nimage =      40
     Waiting for input...
     Reading input from standard input
Warning: card    &IONS ignored
Warning: card      ION_DYNAMICS = 'BFGS' ignored
Warning: card   / ignored
Warning: card    &CELL ignored
Warning: card      CELL_DYNAMICS = 'BFGS', ignored
Warning: card    / ignored

     Current dimensions of program PWSCF are:
     Max number of different atomic species (ntypx) = 10
     Max number of k-points (npk) =  40000
     Max angular momentum in pseudopotentials (lmaxx) =  3

     bravais-lattice index     =            0
     lattice parameter (alat)  =      12.6984  a.u.
     unit-cell volume          =    3342.0941 (a.u.)^3
     number of atoms/cell      =           24
     number of atomic types    =            2
     number of electrons       =       144.00
     number of Kohn-Sham states=           86
     kinetic-energy cutoff     =      45.0000  Ry
     charge density cutoff     =     360.0000  Ry
     convergence threshold     =      1.0E-06
     mixing beta               =       0.7000
     number of iterations used =            8  local-TF  mixing
     Exchange-correlation      = SLA PW GGX GGC ( 1  4  2  2 0 0)

     celldm(1)=  12.698374  celldm(2)=   0.000000  celldm(3)=   0.000000
     celldm(4)=   0.000000  celldm(5)=   0.000000  celldm(6)=   0.000000

     crystal axes: (cart. coord. in units of alat)
               a(1) = (   1.000000   0.000000   0.000000 )
               a(2) = (  -0.246862   0.982443   0.000000 )
               a(3) = (  -0.052556   0.162055   1.661371 )

     reciprocal axes: (cart. coord. in units 2 pi/alat)
               b(1) = (  1.000000  0.251273  0.007124 )
               b(2) = (  0.000000  1.017870 -0.099286 )
               b(3) = (  0.000000  0.000000  0.601912 )

     PseudoPot. # 1 for Mo read from file:
     ~/pseudo/Mo.pw91-n-van.UPF
     MD5 check sum: Not computed, couldn't open file
     Pseudo is Ultrasoft + core correction, Zval =  6.0
     Generated by new atomic code, or converted to UPF format
     Using radial grid of  965 points,  3 beta functions with:
                l(1) =   1
                l(2) =   2
                l(3) =   2
     Q(r) pseudized with  8 coefficients,  rinner =    1.000   1.000   1.000
                                                       1.200   1.200

     PseudoPot. # 2 for S  read from file:
     ~/pseudo/S.pw91-van_ak.UPF
     MD5 check sum: Not computed, couldn't open file
     Pseudo is Ultrasoft, Zval =  6.0
     Generated by new atomic code, or converted to UPF format
     Using radial grid of  811 points,  6 beta functions with:
                l(1) =   0
                l(2) =   0
                l(3) =   1
                l(4) =   1
                l(5) =   2
                l(6) =   2
     Q(r) pseudized with  8 coefficients,  rinner =    1.100   1.100   1.100
                                                       1.100   1.100

     atomic species   valence    mass     pseudopotential
        Mo             6.00    95.50000     Mo( 1.00)
        S              6.00    32.06500     S ( 1.00)

     No symmetry found

   Cartesian axes

     site n.     atom                  positions (alat units)
         1           Mo  tau(   1) = (   0.7876262   0.7324371   1.4392855  )
         2           Mo  tau(   2) = (   0.5259742   0.4973833   0.9946319  )
         3           Mo  tau(   3) = (   0.0424055   0.3189074   0.3163676  )
         4           Mo  tau(   4) = (   0.8016050   0.3533679   1.6128718  )
         5           Mo  tau(   5) = (   0.7680878   0.3546556   0.6851003  )
         6           Mo  tau(   6) = (   0.2514624   0.3664706   1.6312117  )
         7           Mo  tau(   7) = (   0.0410266   0.4956875   0.9876051  )
         8           Mo  tau(   8) = (   0.2854266   0.3559783   0.6816587  )
         9           S   tau(   9) = (   0.0263011   0.6090239   0.6279756  )
        10           S   tau(  10) = (   0.7831223   0.2383800   1.0117783  )
        11           S   tau(  11) = (   0.5254816   0.1219844   0.5697730  )
        12           S   tau(  12) = (   0.2833731   0.2324631   1.0095092  )
        13           S   tau(  13) = (   0.5261433   0.4746318   1.3795198  )
        14           S   tau(  14) = (   0.0345979   0.4747513   1.3635224  )
        15           S   tau(  15) = (   0.0237262   0.1065746   0.5992009  )
        16           S   tau(  16) = (   0.7854899   0.7497809   1.0718368  )
        17           S   tau(  17) = (   0.5786505   0.0442346   0.1387605  )
        18           S   tau(  18) = (   0.3060753   0.4906773   0.1727715  )
        19           S   tau(  19) = (   0.5290222   0.6168803   0.6542571  )
        20           S   tau(  20) = (   0.2803042   0.7527077   1.0630234  )
        21           S   tau(  21) = (   0.7971200   0.4972488   0.1376038  )
        22           S   tau(  22) = (   0.5391730   0.9995201   1.4467707  )
        23           S   tau(  23) = (  -0.1599080   0.9876497   0.1566354  )
        24           S   tau(  24) = (   0.0356939   0.9960157   1.4560897  )

     number of k points=    10  Marzari-Vanderbilt smearing, width (Ry)=  0.0200
                       cart. coord. in units 2pi/alat
        k(    1) = (   0.0000000   0.0000000   0.0000000), wk =   0.1111111
        k(    2) = (   0.0000000   0.0000000  -0.3009562), wk =   0.1111111
        k(    3) = (   0.0000000   0.3392901  -0.0330953), wk =   0.2222222
        k(    4) = (   0.0000000   0.3392901  -0.3340515), wk =   0.2222222
        k(    5) = (   0.3333333   0.0837577   0.0023748), wk =   0.2222222
        k(    6) = (   0.3333333   0.0837577  -0.2985814), wk =   0.2222222
        k(    7) = (   0.3333333   0.4230477  -0.0307205), wk =   0.2222222
        k(    8) = (   0.3333333   0.4230477  -0.3316767), wk =   0.2222222
        k(    9) = (   0.3333333  -0.2555324   0.0354701), wk =   0.2222222
        k(   10) = (   0.3333333  -0.2555324  -0.2654860), wk =   0.2222222

     Initial potential from superposition of free atoms

     starting charge  143.98738, renormalised to  144.00000
     Starting wfcs are  136 randomized atomic wfcs

     Self-consistent Calculation

     iteration #  1     ecut=    45.00 Ry     beta= 0.70
     Davidson diagonalization with overlap
     ethr =  1.00E-02,  avg # of iterations =  2.0

     total energy              =    -561.79569967 Ry
     Harris-Foulkes estimate   =    -563.99478272 Ry
     estimated scf accuracy    <       5.93657061 Ry

[...]

     iteration #  6     ecut=    45.00 Ry     beta= 0.70
     Davidson diagonalization with overlap
     c_bands:  1 eigenvalues not converged
     ethr =  1.05E-05,  avg # of iterations =  5.6

[...]

     total energy              =    -562.98742516 Ry
     Harris-Foulkes estimate   =    -562.98742567 Ry
     estimated scf accuracy    <       0.00000242 Ry

     iteration # 13     ecut=    45.00 Ry     beta= 0.70
     Davidson diagonalization with overlap
     ethr =  1.68E-09,  avg # of iterations =  3.0

     End of self-consistent calculation

          k = 0.0000 0.0000 0.0000 ( 17065 PWs)   bands (ev):

    -7.4712  -6.8628  -6.7879  -6.4139  -6.2286  -6.1188  -6.0829  -6.0246
    -5.8786  -5.7600  -5.7280  -5.6531  -5.3580  -5.1937  -5.1189  -4.8794
     0.7317   0.8132   0.8386   0.8822   1.1346   1.2030   1.3851   1.5207
     1.6553   1.8331   2.0028   2.1664   2.2635   2.3115   2.4612   2.5336
     2.6633   2.6711   2.7202   2.8044   2.8634   2.9162   3.0421   3.1346
     3.2364   3.2889   3.3057   3.4555   3.5746   3.6821   3.7379   3.7692
     4.1085   4.1444   4.2584   4.4176   4.4999   4.5937   4.8268   4.9442
     4.9654   5.0366   5.0960   5.2467   5.3450   5.4413   5.5831   5.6251
     5.6957   5.8930   5.9250   5.9591   6.1495   6.3266   6.4846   6.6004
     6.8354   6.9292   7.0232   7.1712   7.2937   7.4251   7.6193   7.7089
     7.8485   7.9549   8.1733   8.3684   8.5158   8.6214

[...]

          k = 0.3333-0.2555-0.2655 ( 17031 PWs)   bands (ev):

    -7.1119  -6.8882  -6.5855  -6.3958  -6.2987  -6.2547  -6.1832  -6.0481
    -5.9568  -5.8535  -5.8047  -5.7294  -5.4622  -5.2493  -5.1345  -4.9015
     0.9236   1.0805   1.1942   1.3321   1.4258   1.5365   1.6311   1.7203
     1.7879   1.8350   2.0030   2.0503   2.1568   2.2066   2.3155   2.4301
     2.5002   2.6600   2.7056   2.7531   2.8857   3.0070   3.0542   3.1527
     3.1743   3.2836   3.3488   3.4514   3.5274   3.6795   3.7989   3.8130
     3.8985   4.0450   4.1610   4.2105   4.3211   4.3730   4.5787   4.6038
     4.7083   4.8855   4.9332   5.0084   5.0849   5.3099   5.3915   5.5496
     5.6637   5.8315   6.0053   6.0424   6.1300   6.2649   6.4972   6.7014
     6.7955   6.9658   7.1310   7.1974   7.3682   7.4396   7.6485   7.7524
     7.8630   7.9886   8.2064   8.3002   8.4217   8.5996

     the Fermi energy is     6.7360 ev

!    total energy              =    -562.98742518 Ry
     Harris-Foulkes estimate   =    -562.98742569 Ry
     estimated scf accuracy    <       0.00000062 Ry

     The total energy is the sum of the following terms:

     one-electron contribution =       4.17977762 Ry
     hartree contribution      =      80.38267525 Ry
     xc contribution           =    -222.13901665 Ry
     ewald contribution        =    -425.41080145 Ry
     smearing contrib. (-TS)   =      -0.00005994 Ry

     convergence has been achieved in  13 iterations

     Forces acting on atoms (cartesian axes, Ry/au):

     atom    1 type  1   force =     0.00400927    0.09812721   -0.01187300
     atom    2 type  1   force =    -0.02837936    0.00571088   -0.00327645
     atom    3 type  1   force =     0.01106811   -0.00477930   -0.08089180
     atom    4 type  1   force =     0.01862452   -0.04077049    0.01201028
     atom    5 type  1   force =    -0.03079725   -0.00392606   -0.00544373
     atom    6 type  1   force =    -0.00916522   -0.01199387    0.00657327
     atom    7 type  1   force =     0.02826377    0.02045866   -0.00513651
     atom    8 type  1   force =     0.03580895   -0.00138465    0.00610700
     atom    9 type  2   force =     0.00128199   -0.01150427   -0.00612445
     atom   10 type  2   force =    -0.00100578   -0.01694610    0.01692236
     atom   11 type  2   force =     0.01255348   -0.02085970   -0.01203363
     atom   12 type  2   force =     0.00074073   -0.02351629    0.00958412
     atom   13 type  2   force =    -0.00319615    0.00211723    0.01891886
     atom   14 type  2   force =     0.01147982    0.00832998    0.00135079
     atom   15 type  2   force =    -0.00078653   -0.00601425    0.00523893
     atom   16 type  2   force =    -0.00312222    0.01099212    0.00742723
     atom   17 type  2   force =    -0.01423658    0.00508219   -0.00956532
     atom   18 type  2   force =     0.00852781    0.00461419    0.00934138
     atom   19 type  2   force =    -0.00580773    0.02871211   -0.00654234
     atom   20 type  2   force =    -0.00187896    0.00630699   -0.00225600
     atom   21 type  2   force =     0.00043849   -0.00626656    0.02536579
     atom   22 type  2   force =     0.01752957   -0.01274815    0.00217236
     atom   23 type  2   force =    -0.01953638    0.00654786    0.01985582
     atom   24 type  2   force =    -0.03241434   -0.03628973    0.00227503

     Total force =     0.179056     Total SCF correction =     0.001377

     General routines

     Parallel routines

   This run was terminated on:   0: 0: 6  24Dec2021

   JOB DONE.