     Program PWSCF v.6.4 starts on 14Oct2021 at 10: 4:33

     R & G space division:  proc/nbgrp/npool/nimage =      40
     Waiting for input...
     Reading input from standard input
Warning: card    &IONS ignored
Warning: card      ION_DYNAMICS = 'BFGS' ignored
Warning: card   / ignored
Warning: card    &CELL ignored
Warning: card      CELL_DYNAMICS = 'BFGS', ignored
Warning: card    / ignored

     Current dimensions of program PWSCF are:
     Max number of different atomic species (ntypx) = 10
     Max number of k-points (npk) =  40000
     Max angular momentum in pseudopotentials (lmaxx) =  3

     bravais-lattice index     =            0
     lattice parameter (alat)  =       6.0312  a.u.
     unit-cell volume          =    1988.9862 (a.u.)^3
     number of atoms/cell      =           12
     number of atomic types    =            2
     number of electrons       =        72.00
     number of Kohn-Sham states=           43
     kinetic-energy cutoff     =      45.0000  Ry
     charge density cutoff     =     360.0000  Ry
     convergence threshold     =      1.0E-06
     mixing beta               =       0.7000
     number of iterations used =            8  local-TF  mixing
     Exchange-correlation      = SLA PW GGX GGC ( 1  4  2  2 0 0)

     celldm(1)=   6.031211  celldm(2)=   0.000000  celldm(3)=   0.000000
     celldm(4)=   0.000000  celldm(5)=   0.000000  celldm(6)=   0.000000

     crystal axes: (cart. coord. in units of alat)
               a(1) = (   1.000000   0.000000   0.000000 )
               a(2) = (  -0.006033   1.887065   0.000000 )
               a(3) = (   0.347217   0.520871   4.804315 )

     reciprocal axes: (cart. coord. in units 2 pi/alat)
               b(1) = (  1.000000  0.003197 -0.072619 )
               b(2) = (  0.000000  0.529924 -0.057453 )
               b(3) = (  0.000000  0.000000  0.208146 )

     PseudoPot. # 1 for Mo read from file:
     ~/pseudo/Mo.pw91-n-van.UPF
     MD5 check sum: Not computed, couldn't open file
     Pseudo is Ultrasoft + core correction, Zval =  6.0
     Generated by new atomic code, or converted to UPF format
     Using radial grid of  965 points,  3 beta functions with:
                l(1) =   1
                l(2) =   2
                l(3) =   2
     Q(r) pseudized with  8 coefficients,  rinner =    1.000   1.000   1.000
                                                       1.200   1.200

     PseudoPot. # 2 for S  read from file:
     ~/pseudo/S.pw91-van_ak.UPF
     MD5 check sum: Not computed, couldn't open file
     Pseudo is Ultrasoft, Zval =  6.0
     Generated by new atomic code, or converted to UPF format
     Using radial grid of  811 points,  6 beta functions with:
                l(1) =   0
                l(2) =   0
                l(3) =   1
                l(4) =   1
                l(5) =   2
                l(6) =   2
     Q(r) pseudized with  8 coefficients,  rinner =    1.100   1.100   1.100
                                                       1.100   1.100

     atomic species   valence    mass     pseudopotential
        Mo             6.00    95.50000     Mo( 1.00)
        S              6.00    32.06500     S ( 1.00)

     No symmetry found

   Cartesian axes

     site n.     atom                  positions (alat units)
         1           Mo  tau(   1) = (   0.0038016   1.2330454   1.7592912  )
         2           Mo  tau(   2) = (   0.5036730   1.9456498   1.7550456  )
         3           Mo  tau(   3) = (   0.8885374   0.5938307   4.4037778  )
         4           Mo  tau(   4) = (   1.4083884   1.7741997   4.4614719  )
         5           S   tau(   5) = (   1.3864421   0.3629240   3.8919351  )
         6           S   tau(   6) = (   0.5111153   1.4288073   2.2752986  )
         7           S   tau(   7) = (   0.0182834   0.5170730   2.1545232  )
         8           S   tau(   8) = (   0.0061569   1.7679835   1.2392202  )
         9           S   tau(   9) = (   1.3945431   1.0524389   4.8206894  )
        10           S   tau(  10) = (   0.5050045   0.7797134   1.3426654  )
        11           S   tau(  11) = (   0.5575363   1.4643773   0.1700947  )
        12           S   tau(  12) = (   0.9057887   1.3158711   4.0648204  )

     number of k points=     8  Marzari-Vanderbilt smearing, width (Ry)=  0.0200
                       cart. coord. in units 2pi/alat
        k(    1) = (   0.0000000   0.0000000   0.0000000), wk =   0.1333333
        k(    2) = (   0.0000000   0.1766412  -0.0191510), wk =   0.2666667
        k(    3) = (   0.2000000   0.0006395  -0.0145237), wk =   0.2666667
        k(    4) = (   0.2000000   0.1772806  -0.0336747), wk =   0.2666667
        k(    5) = (   0.2000000  -0.1760017   0.0046272), wk =   0.2666667
        k(    6) = (   0.4000000   0.0012789  -0.0290475), wk =   0.2666667
        k(    7) = (   0.4000000   0.1779201  -0.0481984), wk =   0.2666667
        k(    8) = (   0.4000000  -0.1753623  -0.0098965), wk =   0.2666667

     Initial potential from superposition of free atoms

     starting charge   71.99369, renormalised to   72.00000
     Starting wfcs are   68 randomized atomic wfcs

     Self-consistent Calculation

     iteration #  1     ecut=    45.00 Ry     beta= 0.70
     Davidson diagonalization with overlap
     ethr =  1.00E-02,  avg # of iterations =  2.1

     total energy              =    -281.13422437 Ry
     Harris-Foulkes estimate   =    -282.07142800 Ry
     estimated scf accuracy    <       2.45619951 Ry

[...]

     End of self-consistent calculation

          k = 0.0000 0.0000 0.0000 ( 10179 PWs)   bands (ev):

    -9.5455  -9.4996  -8.6839  -8.5777  -8.0728  -7.8974  -7.5953  -7.5476
    -1.3989  -1.3177  -0.8543  -0.6086  -0.0260   0.0136   0.1618   0.1932
     1.0762   1.1204   1.1301   1.2465   1.4492   1.5311   1.8541   2.1331
     2.5603   2.5990   2.8116   2.9289   3.4734   3.5090   3.9857   4.2644
     4.3533   4.4353   4.4531   4.5576   4.7600   4.9296   4.9392   5.1942
     6.2053   6.3339   6.6745

[...]

     the Fermi energy is     4.5379 ev

!    total energy              =    -281.63614672 Ry
     Harris-Foulkes estimate   =    -281.63614742 Ry
     estimated scf accuracy    <       0.00000076 Ry

     The total energy is the sum of the following terms:

     one-electron contribution =    -170.68194991 Ry
     hartree contribution      =     121.16518541 Ry
     xc contribution           =    -111.34231519 Ry
     ewald contribution        =    -120.78164647 Ry
     smearing contrib. (-TS)   =       0.00457945 Ry

     convergence has been achieved in  11 iterations

     Forces acting on atoms (cartesian axes, Ry/au):

     atom    1 type  1   force =     0.00900723   -0.06829824    0.01343979
     atom    2 type  1   force =     0.00273096    0.07972898   -0.03479937
     atom    3 type  1   force =     0.00783669    0.05687039    0.00914514
     atom    4 type  1   force =    -0.01139557   -0.06784041    0.01536346
     atom    5 type  2   force =     0.00578849    0.02168925   -0.03960054
     atom    6 type  2   force =    -0.00697872   -0.02421158    0.06724425
     atom    7 type  2   force =    -0.00533789   -0.00203543    0.01602482
     atom    8 type  2   force =    -0.00212980    0.00724704   -0.05890261
     atom    9 type  2   force =     0.00475574   -0.01606267    0.01520179
     atom   10 type  2   force =     0.00292282    0.00879149   -0.00105817
     atom   11 type  2   force =     0.00051966   -0.00285415    0.03137621
     atom   12 type  2   force =    -0.00771960    0.00697533   -0.03343478

     Total force =     0.186310     Total SCF correction =     0.002279

     General routines

     Parallel routines

   This run was terminated on:  10: 4:47  14Oct2021

   JOB DONE.

     Program PWSCF v.6.4 starts on 14Oct2021 at 10:48: 7

     R & G space division:  proc/nbgrp/npool/nimage =      40
     Waiting for input...
     Reading input from standard input
Warning: card    &IONS ignored
Warning: card      ION_DYNAMICS = 'BFGS' ignored
Warning: card   / ignored
Warning: card    &CELL ignored
Warning: card      CELL_DYNAMICS = 'BFGS', ignored
Warning: card    / ignored

     Current dimensions of program PWSCF are:
     Max number of different atomic species (ntypx) = 10
     Max number of k-points (npk) =  40000
     Max angular momentum in pseudopotentials (lmaxx) =  3

     bravais-lattice index     =            0
     lattice parameter (alat)  =       6.0312  a.u.
     unit-cell volume          =    1988.9862 (a.u.)^3
     number of atoms/cell      =           12
     number of atomic types    =            2
     number of electrons       =        72.00
     number of Kohn-Sham states=           43
     kinetic-energy cutoff     =      45.0000  Ry
     charge density cutoff     =     360.0000  Ry
     convergence threshold     =      1.0E-06
     mixing beta               =       0.7000
     number of iterations used =            8  local-TF  mixing
     Exchange-correlation      = SLA PW GGX GGC ( 1  4  2  2 0 0)

     celldm(1)=   6.031211  celldm(2)=   0.000000  celldm(3)=   0.000000
     celldm(4)=   0.000000  celldm(5)=   0.000000  celldm(6)=   0.000000

     crystal axes: (cart. coord. in units of alat)
               a(1) = (   1.000000   0.000000   0.000000 )
               a(2) = (  -0.006033   1.887065   0.000000 )
               a(3) = (   0.347217   0.520871   4.804315 )

     reciprocal axes: (cart. coord. in units 2 pi/alat)
               b(1) = (  1.000000  0.003197 -0.072619 )
               b(2) = (  0.000000  0.529924 -0.057453 )
               b(3) = (  0.000000  0.000000  0.208146 )

     PseudoPot. # 1 for Mo read from file:
     ~/pseudo/Mo.pw91-n-van.UPF
     MD5 check sum: Not computed, couldn't open file
     Pseudo is Ultrasoft + core correction, Zval =  6.0
     Generated by new atomic code, or converted to UPF format
     Using radial grid of  965 points,  3 beta functions with:
                l(1) =   1
                l(2) =   2
                l(3) =   2
     Q(r) pseudized with  8 coefficients,  rinner =    1.000   1.000   1.000
                                                       1.200   1.200

     PseudoPot. # 2 for S  read from file:
     ~/pseudo/S.pw91-van_ak.UPF
     MD5 check sum: Not computed, couldn't open file
     Pseudo is Ultrasoft, Zval =  6.0
     Generated by new atomic code, or converted to UPF format
     Using radial grid of  811 points,  6 beta functions with:
                l(1) =   0
                l(2) =   0
                l(3) =   1
                l(4) =   1
                l(5) =   2
                l(6) =   2
     Q(r) pseudized with  8 coefficients,  rinner =    1.100   1.100   1.100
                                                       1.100   1.100

     atomic species   valence    mass     pseudopotential
        Mo             6.00    95.50000     Mo( 1.00)
        S              6.00    32.06500     S ( 1.00)

     No symmetry found

   Cartesian axes

     site n.     atom                  positions (alat units)
         1           Mo  tau(   1) = (   0.0038016   1.2330454   1.7592912  )
         2           Mo  tau(   2) = (   0.5036730   1.9456498   1.7550456  )
         3           Mo  tau(   3) = (   0.8885374   0.5938307   4.4037778  )
         4           Mo  tau(   4) = (   1.4083884   1.7741997   4.4614719  )
         5           S   tau(   5) = (   1.3864421   0.3629240   3.8919351  )
         6           S   tau(   6) = (   0.5111153   1.4288073   2.2752986  )
         7           S   tau(   7) = (   0.0182834   0.5170730   2.1545232  )
         8           S   tau(   8) = (   0.0061569   1.7679835   1.2392202  )
         9           S   tau(   9) = (   1.3945431   1.0524389   4.8206894  )
        10           S   tau(  10) = (   0.5050045   0.7797134   1.3426654  )
        11           S   tau(  11) = (   0.5575363   1.4643773   0.1700947  )
        12           S   tau(  12) = (   0.9057887   1.3158711   4.0648204  )

     number of k points=     8  Marzari-Vanderbilt smearing, width (Ry)=  0.0200
                       cart. coord. in units 2pi/alat
        k(    1) = (   0.0000000   0.0000000   0.0000000), wk =   0.1333333
        k(    2) = (   0.0000000   0.1766412  -0.0191510), wk =   0.2666667
        k(    3) = (   0.2000000   0.0006395  -0.0145237), wk =   0.2666667
        k(    4) = (   0.2000000   0.1772806  -0.0336747), wk =   0.2666667
        k(    5) = (   0.2000000  -0.1760017   0.0046272), wk =   0.2666667
        k(    6) = (   0.4000000   0.0012789  -0.0290475), wk =   0.2666667
        k(    7) = (   0.4000000   0.1779201  -0.0481984), wk =   0.2666667
        k(    8) = (   0.4000000  -0.1753623  -0.0098965), wk =   0.2666667

     Initial potential from superposition of free atoms

     starting charge   71.99369, renormalised to   72.00000
     Starting wfcs are   68 randomized atomic wfcs

     Self-consistent Calculation

[...]

     total energy              =    -281.63614670 Ry
     Harris-Foulkes estimate   =    -281.63614856 Ry
     estimated scf accuracy    <       0.00000774 Ry

     iteration # 11     ecut=    45.00 Ry     beta= 0.70
     Davidson diagonalization with overlap
     ethr =  1.07E-08,  avg # of iterations =  2.5

     End of self-consistent calculation

[...]

          k = 0.4000-0.1754-0.0099 ( 10115 PWs)   bands (ev):

    -8.2917  -8.2134  -8.1946  -8.1122  -7.7201  -7.5738  -7.2163  -7.1394
    -1.2504  -1.2176  -0.8348  -0.8207  -0.3499  -0.3153   0.2562   0.3581
     0.5036   0.5627   0.7691   0.8099   0.9431   0.9723   1.3990   1.5035
     1.7577   1.8848   1.9913   2.0597   2.3600   2.4389   3.0124   3.0931
     3.3166   3.4357   3.6861   3.8305   5.8267   5.8582   6.1627   6.1699
     6.8111   6.9143   7.0309

     the Fermi energy is     4.5379 ev

!    total energy              =    -281.63614672 Ry
     Harris-Foulkes estimate   =    -281.63614742 Ry
     estimated scf accuracy    <       0.00000076 Ry

     The total energy is the sum of the following terms:

     one-electron contribution =    -170.68194991 Ry
     hartree contribution      =     121.16518541 Ry
     xc contribution           =    -111.34231519 Ry
     ewald contribution        =    -120.78164647 Ry
     smearing contrib. (-TS)   =       0.00457945 Ry

     convergence has been achieved in  11 iterations

     Forces acting on atoms (cartesian axes, Ry/au):

     atom    1 type  1   force =     0.00900723   -0.06829824    0.01343979
     atom    2 type  1   force =     0.00273096    0.07972898   -0.03479937
     atom    3 type  1   force =     0.00783669    0.05687039    0.00914514
     atom    4 type  1   force =    -0.01139557   -0.06784041    0.01536346
     atom    5 type  2   force =     0.00578849    0.02168925   -0.03960054
     atom    6 type  2   force =    -0.00697872   -0.02421158    0.06724425
     atom    7 type  2   force =    -0.00533789   -0.00203543    0.01602482
     atom    8 type  2   force =    -0.00212980    0.00724704   -0.05890261
     atom    9 type  2   force =     0.00475574   -0.01606267    0.01520179
     atom   10 type  2   force =     0.00292282    0.00879149   -0.00105817
     atom   11 type  2   force =     0.00051966   -0.00285415    0.03137621
     atom   12 type  2   force =    -0.00771960    0.00697533   -0.03343478

     Total force =     0.186310     Total SCF correction =     0.002279

     General routines

     Parallel routines

   This run was terminated on:  10:48:23  14Oct2021

   JOB DONE.