     Program PWSCF v.6.4 starts on  4Aug2021 at 13:48:21

     R & G space division:  proc/nbgrp/npool/nimage =      40
     Waiting for input...
     Reading input from standard input
Warning: card    &IONS ignored
Warning: card      ION_DYNAMICS = 'BFGS' ignored
Warning: card   / ignored
Warning: card    &CELL ignored
Warning: card      CELL_DYNAMICS = 'BFGS', ignored
Warning: card    / ignored

     Current dimensions of program PWSCF are:
     Max number of different atomic species (ntypx) = 10
     Max number of k-points (npk) =  40000
     Max angular momentum in pseudopotentials (lmaxx) =  3

     bravais-lattice index     =            0
     lattice parameter (alat)  =      12.1997  a.u.
     unit-cell volume          =    4763.4522 (a.u.)^3
     number of atoms/cell      =           36
     number of atomic types    =            2
     number of electrons       =       216.00
     number of Kohn-Sham states=          130
     kinetic-energy cutoff     =      45.0000  Ry
     charge density cutoff     =     360.0000  Ry
     convergence threshold     =      1.0E-06
     mixing beta               =       0.7000
     number of iterations used =            8  local-TF  mixing
     Exchange-correlation      = SLA PW GGX GGC ( 1  4  2  2 0 0)

     celldm(1)=  12.199686  celldm(2)=   0.000000  celldm(3)=   0.000000
     celldm(4)=   0.000000  celldm(5)=   0.000000  celldm(6)=   0.000000

     crystal axes: (cart. coord. in units of alat)
               a(1) = (   0.999981  -0.004517   0.004147 )
               a(2) = (  -0.496987   0.866103  -0.015364 )
               a(3) = (  -0.058906  -0.083490   3.038024 )

     reciprocal axes: (cart. coord. in units 2 pi/alat)
               b(1) = (  1.002474  0.575864  0.035263 )
               b(2) = (  0.005099  1.158090  0.031925 )
               b(3) = ( -0.001343  0.005071  0.329275 )

     PseudoPot. # 1 for Mo read from file:
     ~/pseudo/Mo.pw91-n-van.UPF
     MD5 check sum: Not computed, couldn't open file
     Pseudo is Ultrasoft + core correction, Zval =  6.0
     Generated by new atomic code, or converted to UPF format
     Using radial grid of  965 points,  3 beta functions with:
                l(1) =   1
                l(2) =   2
                l(3) =   2
     Q(r) pseudized with  8 coefficients,  rinner =    1.000   1.000   1.000
                                                       1.200   1.200

     PseudoPot. # 2 for S  read from file:
     ~/pseudo/S.pw91-van_ak.UPF
     MD5 check sum: Not computed, couldn't open file
     Pseudo is Ultrasoft, Zval =  6.0
     Generated by new atomic code, or converted to UPF format
     Using radial grid of  811 points,  6 beta functions with:
                l(1) =   0
                l(2) =   0
                l(3) =   1
                l(4) =   1
                l(5) =   2
                l(6) =   2
     Q(r) pseudized with  8 coefficients,  rinner =    1.100   1.100   1.100
                                                       1.100   1.100

     atomic species   valence    mass     pseudopotential
        Mo             6.00    95.50000     Mo( 1.00)
        S              6.00    32.06500     S ( 1.00)

     No symmetry found

   Cartesian axes

     site n.     atom                  positions (alat units)
         1           Mo  tau(   1) = (   0.2477066   0.1355312   1.0026173  )
         2           Mo  tau(   2) = (  -0.0073906   0.5625732   0.9989640  )
         3           Mo  tau(   3) = (   0.7397754   0.1351987   1.0094635  )
         4           Mo  tau(   4) = (   0.4913822   0.5739004   1.0091543  )
         5           Mo  tau(   5) = (  -0.0336871   0.2230166   2.0177236  )
         6           Mo  tau(   6) = (  -0.2847252   0.6502942   2.0056581  )
         7           Mo  tau(   7) = (   0.4619598   0.2176748   2.0229284  )
         8           Mo  tau(   8) = (   0.2168131   0.6549593   2.0106067  )
         9           Mo  tau(   9) = (  -0.0745642  -0.0930854   3.0399107  )
        10           Mo  tau(  10) = (  -0.3195364   0.3384838   3.0399592  )
        11           Mo  tau(  11) = (   0.4231397  -0.0951691   3.0497879  )
        12           Mo  tau(  12) = (   0.1808525   0.3392010   3.0320219  )
        13           S   tau(  13) = (  -0.0061959   0.2762063   0.2429451  )
        14           S   tau(  14) = (  -0.2706480   0.7143848   0.2438575  )
        15           S   tau(  15) = (   0.4788875   0.2821940   0.2527835  )
        16           S   tau(  16) = (   0.2395213   0.7083317   0.2374519  )
        17           S   tau(  17) = (  -0.0073259  -0.0046316   0.7639676  )
        18           S   tau(  18) = (  -0.2685498   0.4300509   0.7593329  )
        19           S   tau(  19) = (   0.4984244  -0.0153394   0.7576786  )
        20           S   tau(  20) = (   0.2525336   0.4303982   0.7583313  )
        21           S   tau(  21) = (  -0.0075037   0.0064865   1.2561017  )
        22           S   tau(  22) = (  -0.2573530   0.4244013   1.2520042  )
        23           S   tau(  23) = (   0.4906204  -0.0149852   1.2509089  )
        24           S   tau(  24) = (   0.2396177   0.4162004   1.2508076  )
        25           S   tau(  25) = (   0.2092534   0.0686994   1.7736478  )
        26           S   tau(  26) = (  -0.0334657   0.5026625   1.7627675  )
        27           S   tau(  27) = (   0.7127017   0.0717492   1.7793498  )
        28           S   tau(  28) = (   0.4612489   0.4919016   1.7669424  )
        29           S   tau(  29) = (   0.2132479   0.0757305   2.2679220  )
        30           S   tau(  30) = (  -0.0325470   0.5179659   2.2566916  )
        31           S   tau(  31) = (   0.7173031   0.0892923   2.2746468  )
        32           S   tau(  32) = (   0.4650232   0.5180103   2.2620133  )
        33           S   tau(  33) = (  -0.0710549   0.1967415   2.7883702  )
        34           S   tau(  34) = (  -0.3169464   0.6212615   2.7893847  )
        35           S   tau(  35) = (   0.4376283   0.1867695   2.7985301  )
        36           S   tau(  36) = (   0.1736064   0.6297431   2.7831440  )

     number of k points=     5  Marzari-Vanderbilt smearing, width (Ry)=  0.0200
                       cart. coord. in units 2pi/alat
        k(    1) = (   0.0000000   0.0000000   0.0000000), wk =   0.2222222
        k(    2) = (   0.0016996   0.3860298   0.0106417), wk =   0.4444444
        k(    3) = (   0.3341579   0.1919548   0.0117544), wk =   0.4444444
        k(    4) = (   0.3358575   0.5779847   0.0223961), wk =   0.4444444
        k(    5) = (   0.3324583  -0.1940750   0.0011127), wk =   0.4444444

     Initial potential from superposition of free atoms

     starting charge  215.98107, renormalised to  216.00000
     Starting wfcs are  204 randomized atomic wfcs

     Self-consistent Calculation

     iteration #  1     ecut=    45.00 Ry     beta= 0.70
     Davidson diagonalization with overlap
     ethr =  1.00E-02,  avg # of iterations =  2.0

     total energy              =    -844.16546838 Ry
     Harris-Foulkes estimate   =    -846.84605654 Ry
     estimated scf accuracy    <       6.89178520 Ry

[...]

     total energy              =    -845.50820853 Ry
     Harris-Foulkes estimate   =    -845.50820894 Ry
     estimated scf accuracy    <       0.00000243 Ry

     iteration # 12     ecut=    45.00 Ry     beta= 0.70
     Davidson diagonalization with overlap
     ethr =  8.14E-10,  avg # of iterations =  2.2

     End of self-consistent calculation

          k = 0.0000 0.0000 0.0000 ( 24211 PWs)   bands (ev):

    -7.0649  -6.9692  -6.9436  -5.9188  -5.8917  -5.7376  -5.3038  -5.3006
    -5.2982  -5.2885  -5.2824  -5.2705  -5.2489  -5.2390  -5.2203  -5.0556
    -5.0458  -5.0364  -5.0085  -5.0037  -5.0021  -4.9969  -4.9887  -4.9595
     1.1834   1.3304   1.3361   1.3434   1.3484   1.3542   1.3770   1.3934
     1.4100   1.4417   1.6414   1.6618   2.1829   2.2196   2.2374   2.2750
     2.2891   2.2954   2.3063   2.3192   2.3367   2.8981   2.9299   2.9371
     2.9507   2.9664   3.0179   3.0621   3.0974   3.1649   3.8647   3.8800
     3.8882   3.8913   3.9051   3.9131   3.9189   3.9339   3.9684   4.4121
     4.4191   4.4376   4.4484   4.4683   4.4800   4.7744   4.8138   4.8528
     4.8870   4.9542   5.0553   5.1257   5.1469   5.1548   5.1808   5.2651
     5.4735   5.4890   5.5055   5.5199   5.5254   5.5644   5.9584   5.9838
     6.0012   6.0349   6.0408   6.0535   6.0614   6.0660   6.0774   6.1316
     6.2551   6.2663   6.2787   6.2808   6.3010   6.3191   6.3320   6.3620
     6.4284   6.5388   7.2419   7.2762   8.9363   8.9464   8.9468   8.9590
     8.9620   8.9645   8.9649   8.9747   8.9785   9.4137   9.4184   9.4240
     9.4303   9.4358   9.4514   9.4661   9.4761   9.5085   9.5458   9.5731
     9.5853   9.5949

[...]

          k = 0.3325-0.1941 0.0011 ( 24268 PWs)   bands (ev):

    -6.7050  -6.6143  -6.5870  -5.8789  -5.8120  -5.7592  -5.7171  -5.6734
    -5.5571  -5.3601  -5.3301  -5.3199  -5.2981  -5.2896  -5.2673  -5.2408
    -5.2328  -5.1721  -5.0592  -5.0329  -5.0118  -4.9750  -4.9616  -4.9278
     1.5940   1.7343   1.7623   1.7919   1.8078   1.8320   1.8562   1.9013
     1.9438   1.9681   2.0288   2.0467   2.2015   2.2207   2.2398   2.2438
     2.2605   2.2770   2.7862   2.8121   2.9577   3.0459   3.0785   3.1155
     3.1318   3.1714   3.2206   3.2372   3.2617   3.3603   3.6565   3.6946
     3.7045   3.7413   3.7631   3.8079   3.8532   3.9066   3.9673   4.0284
     4.0599   4.1885   4.2083   4.2660   4.4101   4.5384   4.5977   4.6138
     4.6917   4.7176   4.7805   4.8537   4.8725   4.8882   4.9558   5.0021
     5.0446   5.0697   5.1333   5.1615   5.2237   5.2501   5.2734   5.3024
     5.3430   5.5348   5.6481   5.6849   5.6877   5.7041   5.7207   5.9468
     6.0244   6.0477   6.2933   6.4337   6.4490   6.4647   6.4722   6.4816
     6.4929   6.5152   6.7481   6.7618   8.8332   8.8369   8.8780   8.8855
     8.9483   8.9706   8.9873   9.0040   9.0267   9.0502   9.0623   9.1724
     9.1993   9.2157   9.2283   9.3334   9.3635   9.3912   9.4205   9.4458
     9.4620   9.4873

     the Fermi energy is     7.2301 ev

!    total energy              =    -845.50820781 Ry
     Harris-Foulkes estimate   =    -845.50820874 Ry
     estimated scf accuracy    <       0.00000097 Ry

     The total energy is the sum of the following terms:

     one-electron contribution =       6.07108675 Ry
     hartree contribution      =     125.32135455 Ry
     xc contribution           =    -333.87235958 Ry
     ewald contribution        =    -643.04074900 Ry
     smearing contrib. (-TS)   =       0.01245947 Ry

     convergence has been achieved in  12 iterations

     Forces acting on atoms (cartesian axes, Ry/au):

     atom    1 type  1   force =    -0.00872091    0.00106089   -0.00044711
     atom    2 type  1   force =     0.00317130    0.01270736   -0.00480949
     atom    3 type  1   force =     0.00468633   -0.00230405   -0.00366888
     atom    4 type  1   force =     0.00487921   -0.01217328    0.00478838
     atom    5 type  1   force =    -0.00505485   -0.00223843    0.00357521
     atom    6 type  1   force =    -0.00335573    0.00712098    0.00423400
     atom    7 type  1   force =     0.00294718    0.00216626   -0.00022415
     atom    8 type  1   force =    -0.00073318   -0.00043447    0.00661723
     atom    9 type  1   force =     0.00449598   -0.00192477   -0.00707354
     atom   10 type  1   force =    -0.00236445    0.00087011    0.00472637
     atom   11 type  1   force =     0.00848053   -0.00104339    0.00406275
     atom   12 type  1   force =    -0.00429282   -0.00352611    0.00095805
     atom   13 type  2   force =    -0.01032723    0.01425063   -0.00481789
     atom   14 type  2   force =     0.01120604   -0.00053994   -0.01860730
     atom   15 type  2   force =     0.01511330   -0.00416488   -0.01847062
     atom   16 type  2   force =    -0.00818053    0.01154585   -0.00580913
     atom   17 type  2   force =    -0.00051933   -0.00340908    0.01007827
     atom   18 type  2   force =     0.01886900   -0.01216935    0.00548384
     atom   19 type  2   force =    -0.00851923   -0.00495659    0.02439532
     atom   20 type  2   force =    -0.01469266   -0.01985442    0.00938754
     atom   21 type  2   force =    -0.00083230   -0.00670803   -0.01330311
     atom   22 type  2   force =    -0.00911695    0.01407190   -0.01818422
     atom   23 type  2   force =     0.00120151    0.01144930   -0.00098771
     atom   24 type  2   force =     0.00700637    0.02246016   -0.01433385
     atom   25 type  2   force =     0.01305776    0.00378622    0.01471767
     atom   26 type  2   force =     0.00537542    0.00805623    0.01843408
     atom   27 type  2   force =     0.00339442    0.00293233    0.00864707
     atom   28 type  2   force =     0.00581238    0.02108124    0.01658709
     atom   29 type  2   force =    -0.00363517    0.00053092   -0.01591822
     atom   30 type  2   force =    -0.00389874   -0.00569887   -0.01074132
     atom   31 type  2   force =    -0.00889105   -0.02164651   -0.02684232
     atom   32 type  2   force =    -0.00462921   -0.01578426   -0.01716703
     atom   33 type  2   force =     0.00209695   -0.01098088    0.01842103
     atom   34 type  2   force =    -0.00813978    0.00329239    0.00467401
     atom   35 type  2   force =    -0.01508050    0.00372043    0.00396592
     atom   36 type  2   force =     0.00919094   -0.01154589    0.01765204

     Total force =     0.107704     Total SCF correction =     0.003055

     General routines

     Parallel routines

   This run was terminated on:  13:49:36   4Aug2021

   JOB DONE.