     Program PWSCF v.6.4 starts on 23Dec2021 at 22:59:13

     R & G space division:  proc/nbgrp/npool/nimage =      40
     Waiting for input...
     Reading input from standard input
Warning: card    &IONS ignored
Warning: card      ION_DYNAMICS = 'BFGS' ignored
Warning: card   / ignored
Warning: card    &CELL ignored
Warning: card      CELL_DYNAMICS = 'BFGS', ignored
Warning: card    / ignored

     Current dimensions of program PWSCF are:
     Max number of different atomic species (ntypx) = 10
     Max number of k-points (npk) =  40000
     Max angular momentum in pseudopotentials (lmaxx) =  3

     bravais-lattice index     =            0
     lattice parameter (alat)  =      12.7714  a.u.
     unit-cell volume          =    4730.1504 (a.u.)^3
     number of atoms/cell      =           36
     number of atomic types    =            2
     number of electrons       =       216.00
     number of Kohn-Sham states=          130
     kinetic-energy cutoff     =      45.0000  Ry
     charge density cutoff     =     360.0000  Ry
     convergence threshold     =      1.0E-06
     mixing beta               =       0.7000
     number of iterations used =            8  local-TF  mixing
     Exchange-correlation      = SLA PW GGX GGC ( 1  4  2  2 0 0)

     celldm(1)=  12.771426  celldm(2)=   0.000000  celldm(3)=   0.000000
     celldm(4)=   0.000000  celldm(5)=   0.000000  celldm(6)=   0.000000

     crystal axes: (cart. coord. in units of alat)
               a(1) = (   1.000000   0.000000   0.000000 )
               a(2) = (   0.388810   1.379738   0.000000 )
               a(3) = (   0.199098   0.106291   1.645736 )

     reciprocal axes: (cart. coord. in units 2 pi/alat)
               b(1) = (  1.000000 -0.281800 -0.102778 )
               b(2) = (  0.000000  0.724775 -0.046810 )
               b(3) = (  0.000000  0.000000  0.607631 )

     PseudoPot. # 1 for Mo read from file:
     ~/pseudo/Mo.pw91-n-van.UPF
     MD5 check sum: Not computed, couldn't open file
     Pseudo is Ultrasoft + core correction, Zval =  6.0
     Generated by new atomic code, or converted to UPF format
     Using radial grid of  965 points,  3 beta functions with:
                l(1) =   1
                l(2) =   2
                l(3) =   2
     Q(r) pseudized with  8 coefficients,  rinner =    1.000   1.000   1.000
                                                       1.200   1.200

     PseudoPot. # 2 for S  read from file:
     ~/pseudo/S.pw91-van_ak.UPF
     MD5 check sum: Not computed, couldn't open file
     Pseudo is Ultrasoft, Zval =  6.0
     Generated by new atomic code, or converted to UPF format
     Using radial grid of  811 points,  6 beta functions with:
                l(1) =   0
                l(2) =   0
                l(3) =   1
                l(4) =   1
                l(5) =   2
                l(6) =   2
     Q(r) pseudized with  8 coefficients,  rinner =    1.100   1.100   1.100
                                                       1.100   1.100

     atomic species   valence    mass     pseudopotential
        Mo             6.00    95.50000     Mo( 1.00)
        S              6.00    32.06500     S ( 1.00)

     No symmetry found

   Cartesian axes

     site n.     atom                  positions (alat units)
         1           Mo  tau(   1) = (   0.8094408   0.7461360   0.6188677  )
         2           Mo  tau(   2) = (   0.4157302   0.0405102   0.0341047  )
         3           Mo  tau(   3) = (   0.7714946   0.9611906   1.3951851  )
         4           Mo  tau(   4) = (   0.7740301   0.4525078   1.4000271  )
         5           Mo  tau(   5) = (   1.0217341   0.8292134   0.9939520  )
         6           Mo  tau(   6) = (   0.9736755   0.3669004   0.8032604  )
         7           Mo  tau(   7) = (   1.2855258   0.9668193   1.4006550  )
         8           Mo  tau(   8) = (   1.2142619   0.6754958   0.6021932  )
         9           Mo  tau(   9) = (   0.1888382   0.1849626   0.4094965  )
        10           Mo  tau(  10) = (   0.3265819   0.9641428   0.1714381  )
        11           Mo  tau(  11) = (   0.3715312   0.4656767   0.1652419  )
        12           Mo  tau(  12) = (   1.3085290   1.3182299   0.6815287  )
        13           S   tau(  13) = (   0.8285986   1.0519461   0.7926185  )
        14           S   tau(  14) = (   1.2917322   0.9886881   0.8134830  )
        15           S   tau(  15) = (   0.5958925   0.7415196   0.0863174  )
        16           S   tau(  16) = (   0.7465566   1.2545582   1.5997219  )
        17           S   tau(  17) = (   1.0460064   0.9283750   0.4130437  )
        18           S   tau(  18) = (   1.2664491   1.2545466   1.6069142  )
        19           S   tau(  19) = (   0.5290868   0.6983289   1.3594150  )
        20           S   tau(  20) = (   0.5586524   0.1919382   1.3182995  )
        21           S   tau(  21) = (   0.6947984   0.1397154   0.8180388  )
        22           S   tau(  22) = (   0.7403546   0.6156500   0.9374631  )
        23           S   tau(  23) = (   0.6668152   0.2799192   0.0740219  )
        24           S   tau(  24) = (   0.9383303   0.4528022   0.4534732  )
        25           S   tau(  25) = (   1.0292146   1.1206001   1.2035603  )
        26           S   tau(  26) = (   1.0338392   0.7083582   1.3408023  )
        27           S   tau(  27) = (   1.3173881   1.2977238   0.3428175  )
        28           S   tau(  28) = (   0.9859205   0.2675143   1.1791600  )
        29           S   tau(  29) = (   0.1240346   0.2402131   0.0525844  )
        30           S   tau(  30) = (   1.1074471   0.7013747   0.0766007  )
        31           S   tau(  31) = (   1.2483269   0.5580990   0.9399084  )
        32           S   tau(  32) = (   0.2030692   0.0943063   0.7645193  )
        33           S   tau(  33) = (   0.5058369   0.8599239   0.4738757  )
        34           S   tau(  34) = (   0.4463209   0.4178671   0.5024466  )
        35           S   tau(  35) = (   0.5233071   1.1180808   1.1981708  )
        36           S   tau(  36) = (   0.8086714   1.3039050   0.3656112  )

     number of k points=     8  Marzari-Vanderbilt smearing, width (Ry)=  0.0200
                       cart. coord. in units 2pi/alat
        k(    1) = (   0.0000000   0.0000000   0.0000000), wk =   0.1666667
        k(    2) = (   0.0000000   0.0000000  -0.3038154), wk =   0.1666667
        k(    3) = (   0.0000000  -0.3623877   0.0234050), wk =   0.1666667
        k(    4) = (   0.0000000  -0.3623877  -0.2804104), wk =   0.1666667
        k(    5) = (   0.3333333  -0.0939332  -0.0342593), wk =   0.3333333
        k(    6) = (   0.3333333  -0.0939332  -0.3380747), wk =   0.3333333
        k(    7) = (   0.3333333  -0.4563209  -0.0108542), wk =   0.3333333
        k(    8) = (   0.3333333  -0.4563209  -0.3146696), wk =   0.3333333

     Initial potential from superposition of free atoms

     starting charge  215.98107, renormalised to  216.00000
     Starting wfcs are  204 randomized atomic wfcs

     Self-consistent Calculation

     iteration #  1     ecut=    45.00 Ry     beta= 0.70
     Davidson diagonalization with overlap
     ethr =  1.00E-02,  avg # of iterations =  2.0

     total energy              =    -842.50749334 Ry
     Harris-Foulkes estimate   =    -845.74830369 Ry
     estimated scf accuracy    <       8.54414019 Ry

[...]

     iteration #  6     ecut=    45.00 Ry     beta= 0.70
     Davidson diagonalization with overlap
     c_bands:  1 eigenvalues not converged
     ethr =  1.59E-05,  avg # of iterations =  6.5

[...]

     iteration #  7     ecut=    45.00 Ry     beta= 0.70
     Davidson diagonalization with overlap
     c_bands:  1 eigenvalues not converged
     c_bands:  1 eigenvalues not converged
     c_bands:  1 eigenvalues not converged
     ethr =  4.98E-06,  avg # of iterations = 13.6

[...]

     total energy              =    -844.23744188 Ry
     Harris-Foulkes estimate   =    -844.23744208 Ry
     estimated scf accuracy    <       0.00000183 Ry

     iteration # 13     ecut=    45.00 Ry     beta= 0.70
     Davidson diagonalization with overlap
     ethr =  8.45E-10,  avg # of iterations =  2.6

     End of self-consistent calculation

          k = 0.0000 0.0000 0.0000 ( 24163 PWs)   bands (ev):

    -7.1261  -6.5018  -6.2817  -6.0714  -5.9302  -5.8259  -5.7774  -5.6426
    -5.5616  -5.4556  -5.4137  -5.3837  -5.3262  -5.2540  -5.0276  -4.9626
    -4.9607  -4.9130  -4.6888  -4.6518  -4.5901  -4.5337  -4.4523  -4.0309
     1.2189   1.3861   1.4616   1.6024   1.6514   1.7235   1.8209   1.9190
     1.9582   2.0200   2.1911   2.2307   2.2797   2.3526   2.5018   2.5534
     2.5630   2.6305   2.6961   2.7854   2.8481   2.8705   2.9270   3.0067
     3.1031   3.1900   3.2495   3.2942   3.3792   3.5019   3.5143   3.5735
     3.6212   3.6972   3.7627   3.9072   3.9171   3.9772   3.9903   4.0913
     4.1700   4.2183   4.2481   4.2992   4.3707   4.4213   4.5021   4.5732
     4.6468   4.7489   4.7854   4.9683   5.0059   5.0469   5.1772   5.2244
     5.2885   5.3535   5.4470   5.5334   5.6707   5.7392   5.8455   5.8689
     6.0078   6.0472   6.1334   6.2225   6.3582   6.4090   6.4886   6.5142
     6.6091   6.6316   6.7805   6.8860   6.9509   7.1403   7.2400   7.2448
     7.3571   7.4076   7.5744   7.6255   7.7666   7.8253   7.9081   7.9645
     8.0528   8.1909   8.2412   8.3010   8.4492   8.6089   8.6245   8.6767
     8.7367   8.7920   8.9069   9.0059   9.0354   9.1253   9.1652   9.2739
     9.3488   9.4288

[...]

          k = 0.3333-0.4563-0.3147 ( 24111 PWs)   bands (ev):

    -6.8115  -6.5613  -6.2930  -6.1709  -5.9855  -5.8766  -5.7622  -5.6788
    -5.6483  -5.5384  -5.4324  -5.3750  -5.2928  -5.1867  -5.1180  -4.9932
    -4.9452  -4.8661  -4.7972  -4.6421  -4.5705  -4.4894  -4.4055  -4.0668
     1.3106   1.5218   1.5732   1.6399   1.7313   1.8024   1.9460   2.0023
     2.0419   2.1272   2.2302   2.2740   2.3600   2.4428   2.4764   2.5730
     2.6226   2.6539   2.7093   2.7731   2.8523   2.9181   3.0017   3.0558
     3.1594   3.2331   3.2658   3.3279   3.4381   3.5016   3.5652   3.6017
     3.6589   3.7288   3.8045   3.8729   3.9097   3.9582   4.0264   4.0458
     4.1576   4.2190   4.2359   4.2644   4.3616   4.4319   4.4920   4.5529
     4.5818   4.6619   4.7045   4.7748   4.8244   4.9290   5.0186   5.0899
     5.1636   5.2426   5.2720   5.3611   5.4349   5.5321   5.5870   5.6967
     5.8276   5.9010   6.0458   6.1069   6.1254   6.3077   6.3802   6.4262
     6.5788   6.7437   6.8264   6.9755   7.0609   7.1754   7.1890   7.2886
     7.4228   7.4929   7.5980   7.6874   7.7683   7.8264   7.9212   7.9973
     8.1002   8.1751   8.2522   8.3740   8.4247   8.5746   8.6379   8.7276
     8.7749   8.8228   8.9189   8.9906   9.0989   9.1612   9.2198   9.3086
     9.3764   9.4746

     the Fermi energy is     7.6932 ev

!    total energy              =    -844.23744156 Ry
     Harris-Foulkes estimate   =    -844.23744207 Ry
     estimated scf accuracy    <       0.00000064 Ry

     The total energy is the sum of the following terms:

     one-electron contribution =      40.15822273 Ry
     hartree contribution      =     109.65533284 Ry
     xc contribution           =    -333.87410340 Ry
     ewald contribution        =    -660.17461609 Ry
     smearing contrib. (-TS)   =      -0.00227764 Ry

     convergence has been achieved in  13 iterations

     Forces acting on atoms (cartesian axes, Ry/au):

     atom    1 type  1   force =    -0.00729549    0.01276778    0.02450130
     atom    2 type  1   force =    -0.02626759    0.02018720   -0.03975570
     atom    3 type  1   force =     0.01042584    0.00657922   -0.00062585
     atom    4 type  1   force =    -0.02302077   -0.05389450   -0.05522775
     atom    5 type  1   force =    -0.00289010    0.01486286    0.03451475
     atom    6 type  1   force =    -0.00162654    0.03143897    0.02057144
     atom    7 type  1   force =     0.01143586    0.02213927    0.00827899
     atom    8 type  1   force =     0.01396293    0.01526661   -0.01436354
     atom    9 type  1   force =     0.00457304   -0.05358596   -0.01041715
     atom   10 type  1   force =     0.01294343   -0.04174407   -0.01145007
     atom   11 type  1   force =     0.00244431   -0.02013208   -0.05856171
     atom   12 type  1   force =    -0.01404250   -0.01898117    0.00559289
     atom   13 type  2   force =    -0.00967887   -0.01601034   -0.00595732
     atom   14 type  2   force =     0.00176902    0.01109936   -0.01712964
     atom   15 type  2   force =     0.00390238    0.01510439    0.02010858
     atom   16 type  2   force =     0.00608278    0.00871829   -0.00144833
     atom   17 type  2   force =    -0.01448279    0.01920625    0.00221845
     atom   18 type  2   force =    -0.00542648   -0.00228644   -0.00276581
     atom   19 type  2   force =     0.00166167   -0.03241698   -0.00072364
     atom   20 type  2   force =     0.01032236    0.00908778    0.02681731
     atom   21 type  2   force =    -0.02223237   -0.00640333   -0.01246210
     atom   22 type  2   force =    -0.01425086   -0.00686618   -0.00315771
     atom   23 type  2   force =     0.02088727    0.00764746    0.04747663
     atom   24 type  2   force =    -0.00145090    0.00854758    0.00968548
     atom   25 type  2   force =    -0.00186999    0.03220666   -0.01104152
     atom   26 type  2   force =    -0.00876347    0.00124603   -0.00984106
     atom   27 type  2   force =    -0.02124336    0.02029666    0.01455755
     atom   28 type  2   force =    -0.00407881    0.00492463    0.01114648
     atom   29 type  2   force =     0.00395035   -0.00254193    0.02414681
     atom   30 type  2   force =    -0.01031368   -0.00336228    0.00475710
     atom   31 type  2   force =     0.01162220   -0.01365231   -0.01340699
     atom   32 type  2   force =     0.04484177    0.00149728    0.02094725
     atom   33 type  2   force =     0.02506406    0.01380508    0.00150908
     atom   34 type  2   force =     0.00779279   -0.01839642    0.00162119
     atom   35 type  2   force =    -0.00084158   -0.00207392   -0.01251193
     atom   36 type  2   force =    -0.00390589    0.01571858    0.00239652

     Total force =     0.199288     Total SCF correction =     0.001988

     General routines

     Parallel routines

   This run was terminated on:  23: 1:16  23Dec2021

   JOB DONE.