     Program PWSCF v.6.4 starts on  3Sep2021 at  1:52: 3

     R & G space division:  proc/nbgrp/npool/nimage =      40
     Waiting for input...
     Reading input from standard input
Warning: card    &IONS ignored
Warning: card      ION_DYNAMICS = 'BFGS' ignored
Warning: card   / ignored
Warning: card    &CELL ignored
Warning: card      CELL_DYNAMICS = 'BFGS', ignored
Warning: card    / ignored

     Current dimensions of program PWSCF are:
     Max number of different atomic species (ntypx) = 10
     Max number of k-points (npk) =  40000
     Max angular momentum in pseudopotentials (lmaxx) =  3

     bravais-lattice index     =            0
     lattice parameter (alat)  =      12.1133  a.u.
     unit-cell volume          =    4537.7545 (a.u.)^3
     number of atoms/cell      =           24
     number of atomic types    =            2
     number of electrons       =       144.00
     number of Kohn-Sham states=           86
     kinetic-energy cutoff     =      45.0000  Ry
     charge density cutoff     =     360.0000  Ry
     convergence threshold     =      1.0E-06
     mixing beta               =       0.7000
     number of iterations used =            8  local-TF  mixing
     Exchange-correlation      = SLA PW GGX GGC ( 1  4  2  2 0 0)

     celldm(1)=  12.113329  celldm(2)=   0.000000  celldm(3)=   0.000000
     celldm(4)=   0.000000  celldm(5)=   0.000000  celldm(6)=   0.000000

     crystal axes: (cart. coord. in units of alat)
               a(1) = (   1.000000   0.000000   0.000000 )
               a(2) = (   0.493182   0.878517   0.000000 )
               a(3) = (   0.286849   0.403830   2.906031 )

     reciprocal axes: (cart. coord. in units 2 pi/alat)
               b(1) = (  1.000000 -0.561380 -0.020697 )
               b(2) = (  0.000000  1.138282 -0.158179 )
               b(3) = (  0.000000  0.000000  0.344112 )

     PseudoPot. # 1 for Mo read from file:
     ~/pseudo/Mo.pw91-n-van.UPF
     MD5 check sum: Not computed, couldn't open file
     Pseudo is Ultrasoft + core correction, Zval =  6.0
     Generated by new atomic code, or converted to UPF format
     Using radial grid of  965 points,  3 beta functions with:
                l(1) =   1
                l(2) =   2
                l(3) =   2
     Q(r) pseudized with  8 coefficients,  rinner =    1.000   1.000   1.000
                                                       1.200   1.200

     PseudoPot. # 2 for S  read from file:
     ~/pseudo/S.pw91-van_ak.UPF
     MD5 check sum: Not computed, couldn't open file
     Pseudo is Ultrasoft, Zval =  6.0
     Generated by new atomic code, or converted to UPF format
     Using radial grid of  811 points,  6 beta functions with:
                l(1) =   0
                l(2) =   0
                l(3) =   1
                l(4) =   1
                l(5) =   2
                l(6) =   2
     Q(r) pseudized with  8 coefficients,  rinner =    1.100   1.100   1.100
                                                       1.100   1.100

     atomic species   valence    mass     pseudopotential
        Mo             6.00    95.50000     Mo( 1.00)
        S              6.00    32.06500     S ( 1.00)

     No symmetry found

   Cartesian axes

     site n.     atom                  positions (alat units)
         1           Mo  tau(   1) = (   1.1513294   0.3463013   2.2862578  )
         2           Mo  tau(   2) = (   1.4091789   0.7892237   2.2779572  )
         3           Mo  tau(   3) = (   0.8939742   0.7893374   2.2812222  )
         4           Mo  tau(   4) = (   0.6469139   0.3452339   2.2869872  )
         5           Mo  tau(   5) = (   0.6268573   0.9521761   0.6145381  )
         6           Mo  tau(   6) = (   0.3866570   0.4829525   0.6265891  )
         7           Mo  tau(   7) = (   0.8867785   0.4795542   0.6169620  )
         8           Mo  tau(   8) = (   1.1230052   0.9387519   0.5984179  )
         9           S   tau(   9) = (   0.8991368   0.4979281   2.5278545  )
        10           S   tau(  10) = (   1.1555590   0.9282005   2.5254032  )
        11           S   tau(  11) = (   0.6521901   0.9368478   2.5318282  )
        12           S   tau(  12) = (   0.4005569   0.5011082   2.5293646  )
        13           S   tau(  13) = (   1.3878767   0.7769773   0.3765032  )
        14           S   tau(  14) = (   1.1470067   0.3550472   0.3651924  )
        15           S   tau(  15) = (   0.6358422   0.3551216   0.3620293  )
        16           S   tau(  16) = (   0.8673910   0.7758712   0.3728475  )
        17           S   tau(  17) = (   1.3701160   0.7948440   0.8490068  )
        18           S   tau(  18) = (   1.1356722   0.3499659   0.8752955  )
        19           S   tau(  19) = (   0.6393935   0.3316730   0.8650924  )
        20           S   tau(  20) = (   0.8760488   0.7878056   0.8491035  )
        21           S   tau(  21) = (   0.8947216   0.4915465   2.0434831  )
        22           S   tau(  22) = (   1.1512904   0.9339684   2.0406545  )
        23           S   tau(  23) = (   0.6519326   0.9427452   2.0302184  )
        24           S   tau(  24) = (   0.4003089   0.4925674   2.0384723  )

     number of k points=     5  Marzari-Vanderbilt smearing, width (Ry)=  0.0200
                       cart. coord. in units 2pi/alat
        k(    1) = (   0.0000000   0.0000000   0.0000000), wk =   0.2222222
        k(    2) = (   0.0000000   0.3794273  -0.0527262), wk =   0.4444444
        k(    3) = (   0.3333333  -0.1871268  -0.0068991), wk =   0.4444444
        k(    4) = (   0.3333333   0.1923005  -0.0596253), wk =   0.4444444
        k(    5) = (   0.3333333  -0.5665540   0.0458271), wk =   0.4444444

     Initial potential from superposition of free atoms

     starting charge  143.98738, renormalised to  144.00000

     negative rho (up, down):  1.296E-08 0.000E+00
     Starting wfcs are  136 randomized atomic wfcs

     Self-consistent Calculation

     iteration #  1     ecut=    45.00 Ry     beta= 0.70
     Davidson diagonalization with overlap
     ethr =  1.00E-02,  avg # of iterations =  2.0

     total energy              =    -562.76588212 Ry
     Harris-Foulkes estimate   =    -564.53397389 Ry
     estimated scf accuracy    <       4.52517432 Ry

[...]

     negative rho (up, down):  1.183E-06 0.000E+00

[...]

     total energy              =    -563.64769204 Ry
     Harris-Foulkes estimate   =    -563.64769340 Ry
     estimated scf accuracy    <       0.00000742 Ry

     iteration # 16     ecut=    45.00 Ry     beta= 0.70
     Davidson diagonalization with overlap
     ethr =  8.97E-10,  avg # of iterations =  3.0

[...]

     End of self-consistent calculation

          k = 0.0000 0.0000 0.0000 ( 23069 PWs)   bands (ev):

   -10.9758 -10.8629  -9.7809  -9.6539  -9.2961  -9.2872  -9.2022  -9.1936
    -9.1585  -9.1262  -9.0822  -8.9682  -8.9335  -8.8558  -8.8029  -8.7913
    -2.6207  -2.5878  -2.5556  -2.5060  -2.4868  -2.4598  -2.4282  -2.3303
    -1.7223  -1.6193  -1.5951  -1.5704  -1.5329  -1.4910  -0.9758  -0.9683
    -0.8962  -0.8824  -0.8599  -0.8427  -0.1604  -0.1115  -0.0766   0.0008
     0.0068   0.1152   0.3537   0.4157   0.4549   0.5717   0.8646   0.9940
     1.1338   1.3015   1.3926   1.4149   1.5181   1.5323   1.5466   1.6216
     1.6757   1.7131   1.7220   1.9972   2.0519   2.1168   2.1223   2.2264
     2.3305   2.4029   2.4237   2.4984   2.5177   2.5425   2.9889   3.1524
     4.8058   4.9404   5.0278   5.0428   5.1492   5.1644   5.2867   5.4859
     5.5459   5.5809   5.6037   5.6431   5.6644   5.7341

[...]

          k = 0.3333-0.5666 0.0458 ( 23173 PWs)   bands (ev):

   -10.0562 -10.0234  -9.9853  -9.9221  -9.9023  -9.8808  -9.3960  -9.3025
    -9.2441  -9.1884  -9.1754  -9.1535  -9.0166  -8.9220  -8.7486  -8.6985
    -2.1957  -2.1075  -1.8252  -1.8080  -1.7328  -1.6993  -1.6813  -1.6584
    -1.4136  -1.3230  -1.0318  -0.9353  -0.8608  -0.8040  -0.7346  -0.7184
    -0.6540  -0.6182  -0.6007  -0.5344  -0.4894  -0.4746  -0.4342  -0.4200
    -0.4121  -0.3896  -0.1244  -0.0680  -0.0452   0.0582   0.0926   0.1872
     0.2615   0.3238   0.8420   0.9217   1.0088   1.0547   1.0889   1.1873
     1.2470   1.3014   1.8271   1.9967   2.0131   2.0568   2.0809   2.1309
     2.1426   2.2078   2.2923   2.3119   2.3265   2.3439   3.0828   3.1090
     4.2672   4.5797   4.6206   4.7475   4.9023   4.9567   4.9933   5.0150
     5.2900   5.3339   5.3494   5.4244   5.4547   5.4909

     the Fermi energy is     3.2258 ev

!    total energy              =    -563.64769176 Ry
     Harris-Foulkes estimate   =    -563.64769248 Ry
     estimated scf accuracy    <       0.00000079 Ry

     The total energy is the sum of the following terms:

     one-electron contribution =    -756.52546493 Ry
     hartree contribution      =     443.21798032 Ry
     xc contribution           =    -222.68974825 Ry
     ewald contribution        =     -27.66274718 Ry
     smearing contrib. (-TS)   =       0.01228827 Ry

     convergence has been achieved in  16 iterations

     negative rho (up, down):  8.943E-07 0.000E+00

     Forces acting on atoms (cartesian axes, Ry/au):

     atom    1 type  1   force =    -0.00071757    0.02206920   -0.00718688
     atom    2 type  1   force =    -0.02926194   -0.00547792    0.01239173
     atom    3 type  1   force =     0.03355258   -0.00625021    0.00473413
     atom    4 type  1   force =     0.01783960    0.00628453   -0.00047333
     atom    5 type  1   force =     0.00290501   -0.07709476    0.00179314
     atom    6 type  1   force =     0.00662499    0.05111242   -0.02549343
     atom    7 type  1   force =    -0.00758845    0.05437546   -0.00148685
     atom    8 type  1   force =     0.01255837   -0.03781130    0.02994931
     atom    9 type  2   force =    -0.00420137   -0.00468990    0.00506982
     atom   10 type  2   force =    -0.01214461    0.00296933    0.00234442
     atom   11 type  2   force =    -0.00460979   -0.00326424   -0.00291643
     atom   12 type  2   force =     0.00011650   -0.00715370    0.00082874
     atom   13 type  2   force =    -0.01402945    0.01555267   -0.01369176
     atom   14 type  2   force =    -0.01772181   -0.00515856    0.00534508
     atom   15 type  2   force =    -0.00412153   -0.01580111    0.00623799
     atom   16 type  2   force =     0.00993697    0.01483143   -0.01383054
     atom   17 type  2   force =     0.01022562   -0.00513316    0.01525398
     atom   18 type  2   force =    -0.00096401   -0.00282596   -0.00521182
     atom   19 type  2   force =    -0.00391300    0.00966467   -0.00546998
     atom   20 type  2   force =     0.00542710   -0.00221962    0.00719356
     atom   21 type  2   force =     0.00606778    0.00461040   -0.00932528
     atom   22 type  2   force =    -0.00627875   -0.00214054   -0.00982715
     atom   23 type  2   force =    -0.00059046   -0.00921254    0.00579274
     atom   24 type  2   force =     0.00088821    0.00276340   -0.00202115

     Total force =     0.145115     Total SCF correction =     0.002124

     General routines

     Parallel routines

   This run was terminated on:   1:53: 2   3Sep2021

   JOB DONE.