     Program PWSCF v.6.4 starts on 19Nov2021 at 23: 7: 9

     R & G space division:  proc/nbgrp/npool/nimage =      40
     Waiting for input...
     Reading input from standard input
Warning: card    &IONS ignored
Warning: card      ION_DYNAMICS = 'BFGS' ignored
Warning: card   / ignored
Warning: card    &CELL ignored
Warning: card      CELL_DYNAMICS = 'BFGS', ignored
Warning: card    / ignored

     Current dimensions of program PWSCF are:
     Max number of different atomic species (ntypx) = 10
     Max number of k-points (npk) =  40000
     Max angular momentum in pseudopotentials (lmaxx) =  3

     bravais-lattice index     =            0
     lattice parameter (alat)  =      12.1653  a.u.
     unit-cell volume          =    5887.7599 (a.u.)^3
     number of atoms/cell      =           36
     number of atomic types    =            2
     number of electrons       =       216.00
     number of Kohn-Sham states=          130
     kinetic-energy cutoff     =      45.0000  Ry
     charge density cutoff     =     360.0000  Ry
     convergence threshold     =      1.0E-06
     mixing beta               =       0.7000
     number of iterations used =            8  local-TF  mixing
     Exchange-correlation      = SLA PW GGX GGC ( 1  4  2  2 0 0)

     celldm(1)=  12.165322  celldm(2)=   0.000000  celldm(3)=   0.000000
     celldm(4)=   0.000000  celldm(5)=   0.000000  celldm(6)=   0.000000

     crystal axes: (cart. coord. in units of alat)
               a(1) = (   1.000000   0.000000   0.000000 )
               a(2) = (   0.022790   1.705925   0.000000 )
               a(3) = (  -0.021394   0.439156   1.916988 )

     reciprocal axes: (cart. coord. in units 2 pi/alat)
               b(1) = (  1.000000 -0.013360  0.014221 )
               b(2) = (  0.000000  0.586192 -0.134289 )
               b(3) = (  0.000000  0.000000  0.521652 )

     PseudoPot. # 1 for Mo read from file:
     ~/pseudo/Mo.pw91-n-van.UPF
     MD5 check sum: Not computed, couldn't open file
     Pseudo is Ultrasoft + core correction, Zval =  6.0
     Generated by new atomic code, or converted to UPF format
     Using radial grid of  965 points,  3 beta functions with:
                l(1) =   1
                l(2) =   2
                l(3) =   2
     Q(r) pseudized with  8 coefficients,  rinner =    1.000   1.000   1.000
                                                       1.200   1.200

     PseudoPot. # 2 for S  read from file:
     ~/pseudo/S.pw91-van_ak.UPF
     MD5 check sum: Not computed, couldn't open file
     Pseudo is Ultrasoft, Zval =  6.0
     Generated by new atomic code, or converted to UPF format
     Using radial grid of  811 points,  6 beta functions with:
                l(1) =   0
                l(2) =   0
                l(3) =   1
                l(4) =   1
                l(5) =   2
                l(6) =   2
     Q(r) pseudized with  8 coefficients,  rinner =    1.100   1.100   1.100
                                                       1.100   1.100

     atomic species   valence    mass     pseudopotential
        Mo             6.00    95.50000     Mo( 1.00)
        S              6.00    32.06500     S ( 1.00)

     No symmetry found

   Cartesian axes

     site n.     atom                  positions (alat units)
         1           Mo  tau(   1) = (   0.9851657   0.4487469   0.6648718  )
         2           Mo  tau(   2) = (   0.2322013   0.8744426   0.6558880  )
         3           Mo  tau(   3) = (   0.4754582   0.4449933   0.6710123  )
         4           Mo  tau(   4) = (   0.7330877   0.8736750   0.6517573  )
         5           Mo  tau(   5) = (   0.4858993   1.2999404   0.6396914  )
         6           Mo  tau(   6) = (   0.9891721   1.2994375   0.6395782  )
         7           Mo  tau(   7) = (   0.7410685   1.7231807   0.6428915  )
         8           Mo  tau(   8) = (   0.2447981   1.7273833   0.6507064  )
         9           Mo  tau(   9) = (   0.5642993   0.4871210   1.5262258  )
        10           Mo  tau(  10) = (   0.1950841   0.3657804   1.3766320  )
        11           Mo  tau(  11) = (   0.3586131   1.5719504   1.6263564  )
        12           Mo  tau(  12) = (   0.9357702   1.5795649   1.5725335  )
        13           S   tau(  13) = (   0.2335270   0.5856984   0.4149186  )
        14           S   tau(  14) = (   0.9726789   0.1667957   0.4068463  )
        15           S   tau(  15) = (   0.7281249   0.5781539   0.4175797  )
        16           S   tau(  16) = (   0.4704641   0.1697344   0.4070092  )
        17           S   tau(  17) = (   0.1857778   1.6885563   1.3214950  )
        18           S   tau(  18) = (   0.6485443   1.7929753   1.6161730  )
        19           S   tau(  19) = (   0.2294535   0.5897639   0.9474503  )
        20           S   tau(  20) = (   0.9882260   1.8583321   0.8977688  )
        21           S   tau(  21) = (   0.7357902   0.5933694   0.9056785  )
        22           S   tau(  22) = (   0.4977445   1.8537425   0.9035510  )
        23           S   tau(  23) = (   0.1183093   1.4261456   1.8231231  )
        24           S   tau(  24) = (   0.6497647   1.3543902   1.5608967  )
        25           S   tau(  25) = (   0.4809235   1.0088070   0.4005073  )
        26           S   tau(  26) = (   0.9841389   1.0087401   0.4011882  )
        27           S   tau(  27) = (   0.4854186   1.0196716   0.8958669  )
        28           S   tau(  28) = (   0.9800743   1.0209404   0.8955486  )
        29           S   tau(  29) = (   0.7382664   1.4372277   0.8881512  )
        30           S   tau(  30) = (   0.2377265   1.4384480   0.8916598  )
        31           S   tau(  31) = (   0.3891819   0.6226100   1.2268899  )
        32           S   tau(  32) = (   0.9109207   0.5734449   1.4788992  )
        33           S   tau(  33) = (   0.7392447   1.4406858   0.3939757  )
        34           S   tau(  34) = (   0.2386787   1.4482776   0.3936507  )
        35           S   tau(  35) = (   0.3837249   1.9424677   1.7145531  )
        36           S   tau(  36) = (   0.9068564   1.9601171   1.5254976  )

     number of k points=     8  Marzari-Vanderbilt smearing, width (Ry)=  0.0200
                       cart. coord. in units 2pi/alat
        k(    1) = (   0.0000000   0.0000000   0.0000000), wk =   0.1666667
        k(    2) = (   0.0000000   0.0000000  -0.2608258), wk =   0.1666667
        k(    3) = (   0.0000000  -0.2930962   0.0671444), wk =   0.1666667
        k(    4) = (   0.0000000  -0.2930962  -0.1936814), wk =   0.1666667
        k(    5) = (   0.3333333  -0.0044532   0.0047402), wk =   0.3333333
        k(    6) = (   0.3333333  -0.0044532  -0.2560857), wk =   0.3333333
        k(    7) = (   0.3333333  -0.2975494   0.0718846), wk =   0.3333333
        k(    8) = (   0.3333333  -0.2975494  -0.1889413), wk =   0.3333333

     Initial potential from superposition of free atoms

     starting charge  215.98107, renormalised to  216.00000
     Starting wfcs are  204 randomized atomic wfcs

     Self-consistent Calculation

     iteration #  1     ecut=    45.00 Ry     beta= 0.70
     Davidson diagonalization with overlap
     ethr =  1.00E-02,  avg # of iterations =  2.0

     total energy              =    -843.10408036 Ry
     Harris-Foulkes estimate   =    -845.45845305 Ry
     estimated scf accuracy    <       6.08158434 Ry

[...]

     total energy              =    -844.26571596 Ry
     Harris-Foulkes estimate   =    -844.26571728 Ry
     estimated scf accuracy    <       0.00000479 Ry

     iteration # 16     ecut=    45.00 Ry     beta= 0.70
     Davidson diagonalization with overlap
     ethr =  2.22E-09,  avg # of iterations =  2.0

     End of self-consistent calculation

          k = 0.0000 0.0000 0.0000 ( 30009 PWs)   bands (ev):

   -12.0201 -10.3985 -10.2573  -9.4074  -8.7335  -8.6259  -8.2995  -8.2680
    -8.0059  -7.8945  -7.8393  -7.7603  -7.7265  -7.7118  -7.6819  -7.5854
    -7.5319  -7.5140  -7.4970  -7.4502  -7.4127  -7.0276  -6.7277  -5.8128
    -2.3274  -1.7925  -1.5432  -1.2484  -1.1741  -1.1009  -0.9073  -0.7713
    -0.6013  -0.5445  -0.4783  -0.4039  -0.3647  -0.3528  -0.2843  -0.2402
    -0.2232  -0.1131   0.1287   0.3722   0.3954   0.4199   0.5215   0.6302
     0.7474   0.8053   0.8295   0.9049   0.9591   1.0281   1.0849   1.1943
     1.3460   1.3510   1.3829   1.4399   1.4912   1.5245   1.6054   1.6439
     1.6754   1.7153   1.7357   1.9083   1.9855   2.0410   2.0814   2.1111
     2.1756   2.3911   2.4884   2.5843   2.6283   2.6808   2.7882   2.7957
     2.8632   2.9870   3.0193   3.0967   3.1629   3.2612   3.2834   3.4046
     3.4549   3.4856   3.5795   3.7007   3.7606   3.8039   3.8262   3.8746
     3.9348   4.0754   4.0940   4.1540   4.2246   4.3818   4.5882   4.7397
     4.8511   4.9435   5.1412   5.3741   5.5388   5.7547   5.7974   6.1571
     6.1921   6.3271   6.4679   6.5318   6.5925   6.6152   6.6554   6.6590
     6.6804   6.7367   6.7497   6.7996   6.9941   7.1063   7.1166   7.1237
     7.1352   7.1753

[...]

          k = 0.3333-0.2975-0.1889 ( 30030 PWs)   bands (ev):

   -11.9582 -10.4652 -10.2548  -9.0563  -8.9048  -8.4084  -8.3488  -8.3220
    -8.1515  -8.0393  -7.8853  -7.8660  -7.8262  -7.7283  -7.6452  -7.6115
    -7.5622  -7.5295  -7.4556  -7.4130  -7.3887  -7.0719  -6.7143  -5.6610
    -2.5012  -1.6825  -1.2959  -0.9842  -0.7759  -0.6966  -0.6611  -0.5984
    -0.5830  -0.5265  -0.4971  -0.4794  -0.4412  -0.4237  -0.3032  -0.0925
    -0.0498   0.0044   0.2685   0.4177   0.5124   0.5504   0.6180   0.6721
     0.7111   0.7435   0.8007   0.9095   0.9372   1.0526   1.0874   1.1587
     1.1733   1.2205   1.3125   1.3587   1.4243   1.4522   1.5239   1.5895
     1.6521   1.7908   1.8334   1.8743   1.9387   1.9490   2.0631   2.1275
     2.2063   2.2987   2.3549   2.4001   2.4873   2.5371   2.5808   2.6348
     2.7251   2.7770   2.8839   2.9151   2.9904   3.0412   3.0790   3.1630
     3.1855   3.3197   3.4414   3.5930   3.6304   3.7413   3.8754   3.9186
     3.9490   4.0218   4.1267   4.1824   4.2197   4.2762   4.5103   4.7132
     4.7935   5.1010   5.2051   5.4927   5.5551   5.7841   5.9248   6.1186
     6.1961   6.3360   6.4493   6.5187   6.5557   6.5735   6.5991   6.6257
     6.6675   6.7029   6.7682   6.7925   6.8836   6.9132   6.9263   6.9818
     7.0181   7.0499

     the Fermi energy is     5.5029 ev

!    total energy              =    -844.26571603 Ry
     Harris-Foulkes estimate   =    -844.26571649 Ry
     estimated scf accuracy    <       0.00000051 Ry

     The total energy is the sum of the following terms:

     one-electron contribution =    -525.52148491 Ry
     hartree contribution      =     372.36464609 Ry
     xc contribution           =    -334.71652497 Ry
     ewald contribution        =    -356.39094795 Ry
     smearing contrib. (-TS)   =      -0.00140430 Ry

     convergence has been achieved in  16 iterations

     Forces acting on atoms (cartesian axes, Ry/au):

     atom    1 type  1   force =    -0.02445158   -0.01158914   -0.02848424
     atom    2 type  1   force =    -0.00257019   -0.02214638    0.00784571
     atom    3 type  1   force =    -0.00261008    0.00874675   -0.00998505
     atom    4 type  1   force =    -0.00413628   -0.00455938   -0.00320729
     atom    5 type  1   force =     0.00499765   -0.00129702    0.01122428
     atom    6 type  1   force =    -0.00410857    0.00554534    0.01442210
     atom    7 type  1   force =     0.00640354    0.00438285    0.01953277
     atom    8 type  1   force =    -0.01289176   -0.01076040    0.00329500
     atom    9 type  1   force =     0.00719461   -0.04929335   -0.00142634
     atom   10 type  1   force =     0.03889495   -0.03210591    0.00440090
     atom   11 type  1   force =     0.05553735    0.02326413   -0.07949252
     atom   12 type  1   force =    -0.03016904   -0.02948059   -0.04793119
     atom   13 type  2   force =    -0.00161214    0.00027527    0.01791817
     atom   14 type  2   force =     0.00338896    0.00813062    0.00419200
     atom   15 type  2   force =     0.00288695    0.00526895    0.00682356
     atom   16 type  2   force =    -0.00083349    0.00359533    0.00358957
     atom   17 type  2   force =     0.02112310   -0.02371343   -0.01039621
     atom   18 type  2   force =    -0.05698535   -0.08114766    0.03002526
     atom   19 type  2   force =    -0.03899620   -0.00930102   -0.16512082
     atom   20 type  2   force =     0.01000120    0.00746757   -0.00529842
     atom   21 type  2   force =    -0.00519862   -0.00243611   -0.00155910
     atom   22 type  2   force =    -0.00429118    0.01247931   -0.00622608
     atom   23 type  2   force =    -0.01978222   -0.04244454    0.10681119
     atom   24 type  2   force =    -0.00691063   -0.03799576   -0.01506483
     atom   25 type  2   force =     0.00250765   -0.00154802    0.00686146
     atom   26 type  2   force =     0.00151119   -0.00174248    0.00813367
     atom   27 type  2   force =    -0.00214225    0.00707275   -0.00511325
     atom   28 type  2   force =     0.00553270    0.00234514   -0.00070085
     atom   29 type  2   force =     0.00127937   -0.00229283   -0.00788523
     atom   30 type  2   force =     0.00396592   -0.00483957   -0.01324446
     atom   31 type  2   force =     0.08876891    0.02963503    0.13037483
     atom   32 type  2   force =     0.04658942    0.17098627   -0.01884390
     atom   33 type  2   force =    -0.00258535   -0.00021389   -0.00229278
     atom   34 type  2   force =     0.00157263   -0.00450408    0.00786804
     atom   35 type  2   force =    -0.14699318    0.08480135    0.05104692
     atom   36 type  2   force =     0.06511200   -0.00058509   -0.01209288

     Total force =     0.416509     Total SCF correction =     0.001655

     General routines

     Parallel routines

   This run was terminated on:  23:10: 3  19Nov2021

   JOB DONE.