     Program PWSCF v.6.4 starts on 24Dec2021 at  0: 8:36

     R & G space division:  proc/nbgrp/npool/nimage =      40
     Waiting for input...
     Reading input from standard input
Warning: card    &IONS ignored
Warning: card      ION_DYNAMICS = 'BFGS' ignored
Warning: card   / ignored
Warning: card    &CELL ignored
Warning: card      CELL_DYNAMICS = 'BFGS', ignored
Warning: card    / ignored

     Current dimensions of program PWSCF are:
     Max number of different atomic species (ntypx) = 10
     Max number of k-points (npk) =  40000
     Max angular momentum in pseudopotentials (lmaxx) =  3

     bravais-lattice index     =            0
     lattice parameter (alat)  =      12.2375  a.u.
     unit-cell volume          =    3445.4833 (a.u.)^3
     number of atoms/cell      =           24
     number of atomic types    =            2
     number of electrons       =       144.00
     number of Kohn-Sham states=           86
     kinetic-energy cutoff     =      45.0000  Ry
     charge density cutoff     =     360.0000  Ry
     convergence threshold     =      1.0E-06
     mixing beta               =       0.7000
     number of iterations used =            8  local-TF  mixing
     Exchange-correlation      = SLA PW GGX GGC ( 1  4  2  2 0 0)

     celldm(1)=  12.237454  celldm(2)=   0.000000  celldm(3)=   0.000000
     celldm(4)=   0.000000  celldm(5)=   0.000000  celldm(6)=   0.000000

     crystal axes: (cart. coord. in units of alat)
               a(1) = (   1.000000   0.000000   0.000000 )
               a(2) = (  -0.009935   1.055910   0.000000 )
               a(3) = (  -0.410106  -0.457812   1.780533 )

     reciprocal axes: (cart. coord. in units 2 pi/alat)
               b(1) = (  1.000000  0.009409  0.232747 )
               b(2) = (  0.000000  0.947050  0.243506 )
               b(3) = (  0.000000  0.000000  0.561630 )

     PseudoPot. # 1 for Mo read from file:
     ~/pseudo/Mo.pw91-n-van.UPF
     MD5 check sum: Not computed, couldn't open file
     Pseudo is Ultrasoft + core correction, Zval =  6.0
     Generated by new atomic code, or converted to UPF format
     Using radial grid of  965 points,  3 beta functions with:
                l(1) =   1
                l(2) =   2
                l(3) =   2
     Q(r) pseudized with  8 coefficients,  rinner =    1.000   1.000   1.000
                                                       1.200   1.200

     PseudoPot. # 2 for S  read from file:
     ~/pseudo/S.pw91-van_ak.UPF
     MD5 check sum: Not computed, couldn't open file
     Pseudo is Ultrasoft, Zval =  6.0
     Generated by new atomic code, or converted to UPF format
     Using radial grid of  811 points,  6 beta functions with:
                l(1) =   0
                l(2) =   0
                l(3) =   1
                l(4) =   1
                l(5) =   2
                l(6) =   2
     Q(r) pseudized with  8 coefficients,  rinner =    1.100   1.100   1.100
                                                       1.100   1.100

     atomic species   valence    mass     pseudopotential
        Mo             6.00    95.50000     Mo( 1.00)
        S              6.00    32.06500     S ( 1.00)

     No symmetry found

   Cartesian axes

     site n.     atom                  positions (alat units)
         1           Mo  tau(   1) = (   0.7574836   0.2492966   0.2017842  )
         2           Mo  tau(   2) = (   0.5086812   0.2676964   0.5937105  )
         3           Mo  tau(   3) = (  -0.3105270   0.3984253   1.4657038  )
         4           Mo  tau(   4) = (   0.6019645   0.0101354   1.6787726  )
         5           Mo  tau(   5) = (   0.7467284   0.2882310   1.0245291  )
         6           Mo  tau(   6) = (   0.2518438   0.2481061   0.2031124  )
         7           Mo  tau(   7) = (   0.0065238   0.2653676   0.5957714  )
         8           Mo  tau(   8) = (   0.2492650   0.2869614   1.0193997  )
         9           S   tau(   9) = (  -0.0028631   0.0242773   1.1485164  )
        10           S   tau(  10) = (   0.7530917   0.5162166   0.7317021  )
        11           S   tau(  11) = (   0.4953740   0.5352855   1.1708708  )
        12           S   tau(  12) = (   0.2553178   0.5151604   0.7257490  )
        13           S   tau(  13) = (   0.5091231   0.0005530   0.3182354  )
        14           S   tau(  14) = (   0.0015297  -0.0012554   0.3232717  )
        15           S   tau(  15) = (  -0.0046034   0.5010186   1.2004399  )
        16           S   tau(  16) = (   0.7545506   0.0249036   0.7483383  )
        17           S   tau(  17) = (   0.4156020   0.3196681   1.6793598  )
        18           S   tau(  18) = (  -0.1983976  -0.3432892   1.6392687  )
        19           S   tau(  19) = (   0.5002571   0.0675507   1.2056663  )
        20           S   tau(  20) = (   0.2541102   0.0285739   0.7554005  )
        21           S   tau(  21) = (   0.3201201  -0.2202402   1.6213012  )
        22           S   tau(  22) = (   0.5091695   0.5020854   0.2927130  )
        23           S   tau(  23) = (  -0.0718523   0.1421498   1.5775727  )
        24           S   tau(  24) = (   0.0103134   0.5195322   0.2817405  )

     number of k points=    10  Marzari-Vanderbilt smearing, width (Ry)=  0.0200
                       cart. coord. in units 2pi/alat
        k(    1) = (   0.0000000   0.0000000   0.0000000), wk =   0.1111111
        k(    2) = (   0.0000000   0.0000000  -0.2808148), wk =   0.1111111
        k(    3) = (   0.0000000   0.3156835   0.0811688), wk =   0.2222222
        k(    4) = (   0.0000000   0.3156835  -0.1996461), wk =   0.2222222
        k(    5) = (   0.3333333   0.0031362   0.0775824), wk =   0.2222222
        k(    6) = (   0.3333333   0.0031362  -0.2032325), wk =   0.2222222
        k(    7) = (   0.3333333   0.3188197   0.1587512), wk =   0.2222222
        k(    8) = (   0.3333333   0.3188197  -0.1220637), wk =   0.2222222
        k(    9) = (   0.3333333  -0.3125472  -0.0035864), wk =   0.2222222
        k(   10) = (   0.3333333  -0.3125472  -0.2844012), wk =   0.2222222

     Initial potential from superposition of free atoms

     starting charge  143.98738, renormalised to  144.00000
     Starting wfcs are  136 randomized atomic wfcs

     Self-consistent Calculation

     iteration #  1     ecut=    45.00 Ry     beta= 0.70
     Davidson diagonalization with overlap
     ethr =  1.00E-02,  avg # of iterations =  2.0

     total energy              =    -562.08911387 Ry
     Harris-Foulkes estimate   =    -564.10228048 Ry
     estimated scf accuracy    <       5.26726791 Ry

[...]

     iteration #  6     ecut=    45.00 Ry     beta= 0.70
     Davidson diagonalization with overlap
     c_bands:  1 eigenvalues not converged
     ethr =  9.57E-06,  avg # of iterations =  8.5

[...]

     total energy              =    -563.14880263 Ry
     Harris-Foulkes estimate   =    -563.14880274 Ry
     estimated scf accuracy    <       0.00000105 Ry

     iteration # 13     ecut=    45.00 Ry     beta= 0.70
     Davidson diagonalization with overlap
     ethr =  7.26E-10,  avg # of iterations =  1.0

     End of self-consistent calculation

          k = 0.0000 0.0000 0.0000 ( 17545 PWs)   bands (ev):

    -7.9176  -7.2915  -6.9673  -6.7730  -6.5794  -6.4206  -6.3902  -6.3597
    -6.2208  -6.0816  -6.0415  -6.0000  -5.9723  -5.7997  -5.7248  -5.3440
     0.2782   0.4346   0.4964   0.5928   0.9346   1.0481   1.1420   1.2547
     1.2729   1.3665   1.4082   1.6222   1.7742   1.8527   1.9246   2.1788
     2.2307   2.3962   2.4496   2.5438   2.6837   2.7405   2.7890   2.9040
     2.9440   3.0627   3.1193   3.2011   3.3074   3.4012   3.4425   3.5357
     3.5583   3.7022   3.9009   4.0062   4.0993   4.2242   4.3254   4.3699
     4.4858   4.6012   4.7339   4.8767   4.9287   5.0709   5.1194   5.2023
     5.2680   5.4055   5.4723   5.6468   5.7195   5.9753   6.0583   6.2875
     6.5034   6.7563   6.7950   7.1868   7.3157   7.5792   7.6201   7.8830
     7.9751   8.0996   8.1091   8.1997   8.2142   8.3329

[...]

          k = 0.3333-0.3125-0.2844 ( 17566 PWs)   bands (ev):

    -7.5660  -7.1818  -6.9257  -6.8341  -6.5786  -6.5095  -6.4831  -6.3485
    -6.3198  -6.2353  -6.1597  -6.0701  -5.9354  -5.8994  -5.7656  -5.4088
     0.7590   0.8463   0.9134   0.9737   1.0793   1.1859   1.3618   1.4343
     1.4525   1.5514   1.7047   1.7842   1.8320   1.9938   2.0745   2.1848
     2.2296   2.3374   2.4077   2.4695   2.5599   2.6131   2.6899   2.8028
     2.8362   2.9088   2.9990   3.1003   3.1787   3.2476   3.2875   3.3872
     3.5270   3.6467   3.6792   3.8496   3.8755   3.9336   4.0890   4.1750
     4.3118   4.3839   4.4916   4.6066   4.6272   4.8585   5.0278   5.0988
     5.1945   5.3149   5.4632   5.5376   5.6870   5.9508   6.1095   6.2569
     6.5383   6.7044   6.9549   7.0665   7.1369   7.4887   7.5984   7.8282
     7.9351   7.9909   8.1060   8.1792   8.2734   8.3887

     the Fermi energy is     6.3869 ev

!    total energy              =    -563.14880235 Ry
     Harris-Foulkes estimate   =    -563.14880267 Ry
     estimated scf accuracy    <       0.00000036 Ry

     The total energy is the sum of the following terms:

     one-electron contribution =     -30.86469616 Ry
     hartree contribution      =      95.96446781 Ry
     xc contribution           =    -222.15508615 Ry
     ewald contribution        =    -406.09567205 Ry
     smearing contrib. (-TS)   =       0.00218420 Ry

     convergence has been achieved in  13 iterations

     Forces acting on atoms (cartesian axes, Ry/au):

     atom    1 type  1   force =     0.01592411    0.00036919   -0.06565062
     atom    2 type  1   force =    -0.00926384   -0.02109798    0.01939443
     atom    3 type  1   force =     0.00746195   -0.02286970    0.01273596
     atom    4 type  1   force =    -0.00835123   -0.00076833    0.01283566
     atom    5 type  1   force =     0.01975805   -0.04234948   -0.00825098
     atom    6 type  1   force =    -0.01224035   -0.02278424   -0.04724252
     atom    7 type  1   force =    -0.01008801   -0.00411008    0.01886838
     atom    8 type  1   force =    -0.02419591   -0.01729142    0.06287005
     atom    9 type  2   force =     0.00855680    0.03604874    0.00711632
     atom   10 type  2   force =     0.01280349    0.00120382   -0.01125237
     atom   11 type  2   force =     0.00367939    0.01524007   -0.00161079
     atom   12 type  2   force =    -0.00133585    0.00461416   -0.00250297
     atom   13 type  2   force =    -0.01141459   -0.00209607    0.00944100
     atom   14 type  2   force =     0.00750919    0.00353804    0.00931302
     atom   15 type  2   force =     0.00330263    0.00244797   -0.01331368
     atom   16 type  2   force =     0.00035352    0.02026038    0.01049282
     atom   17 type  2   force =    -0.01743031    0.00863804   -0.00162438
     atom   18 type  2   force =     0.01281908   -0.02028441   -0.00686555
     atom   19 type  2   force =     0.01689849    0.00863668    0.00745045
     atom   20 type  2   force =     0.00762175    0.00450773   -0.02042125
     atom   21 type  2   force =    -0.00223422    0.01080012    0.03015462
     atom   22 type  2   force =    -0.00847399    0.01192235    0.01918434
     atom   23 type  2   force =    -0.00848609    0.01640840   -0.03133874
     atom   24 type  2   force =    -0.00317403    0.00901605   -0.00978321

     Total force =     0.158231     Total SCF correction =     0.001377

     General routines

     Parallel routines

   This run was terminated on:   0: 9:39  24Dec2021

   JOB DONE.