     Program PWSCF v.6.4 starts on  3Dec2021 at 18: 8:10

     R & G space division:  proc/nbgrp/npool/nimage =      40
     Waiting for input...
     Reading input from standard input
Warning: card    &IONS ignored
Warning: card      ION_DYNAMICS = 'BFGS' ignored
Warning: card   / ignored
Warning: card    &CELL ignored
Warning: card      CELL_DYNAMICS = 'BFGS', ignored
Warning: card    / ignored

     Current dimensions of program PWSCF are:
     Max number of different atomic species (ntypx) = 10
     Max number of k-points (npk) =  40000
     Max angular momentum in pseudopotentials (lmaxx) =  3

     bravais-lattice index     =            0
     lattice parameter (alat)  =      11.5706  a.u.
     unit-cell volume          =   20303.5389 (a.u.)^3
     number of atoms/cell      =           36
     number of atomic types    =            2
     number of electrons       =       216.00
     number of Kohn-Sham states=          130
     kinetic-energy cutoff     =      45.0000  Ry
     charge density cutoff     =     360.0000  Ry
     convergence threshold     =      1.0E-06
     mixing beta               =       0.7000
     number of iterations used =            8  local-TF  mixing
     Exchange-correlation      = SLA PW GGX GGC ( 1  4  2  2 0 0)

     celldm(1)=  11.570602  celldm(2)=   0.000000  celldm(3)=   0.000000
     celldm(4)=   0.000000  celldm(5)=   0.000000  celldm(6)=   0.000000

     crystal axes: (cart. coord. in units of alat)
               a(1) = (   1.000000   0.000000   0.000000 )
               a(2) = (  -0.477662   1.963566   0.000000 )
               a(3) = (   0.047358   0.201119   6.675110 )

     reciprocal axes: (cart. coord. in units 2 pi/alat)
               b(1) = (  1.000000  0.243262 -0.014424 )
               b(2) = (  0.000000  0.509278 -0.015344 )
               b(3) = (  0.000000  0.000000  0.149810 )

     PseudoPot. # 1 for Mo read from file:
     ~/pseudo/Mo.pw91-n-van.UPF
     MD5 check sum: Not computed, couldn't open file
     Pseudo is Ultrasoft + core correction, Zval =  6.0
     Generated by new atomic code, or converted to UPF format
     Using radial grid of  965 points,  3 beta functions with:
                l(1) =   1
                l(2) =   2
                l(3) =   2
     Q(r) pseudized with  8 coefficients,  rinner =    1.000   1.000   1.000
                                                       1.200   1.200

     PseudoPot. # 2 for S  read from file:
     ~/pseudo/S.pw91-van_ak.UPF
     MD5 check sum: Not computed, couldn't open file
     Pseudo is Ultrasoft, Zval =  6.0
     Generated by new atomic code, or converted to UPF format
     Using radial grid of  811 points,  6 beta functions with:
                l(1) =   0
                l(2) =   0
                l(3) =   1
                l(4) =   1
                l(5) =   2
                l(6) =   2
     Q(r) pseudized with  8 coefficients,  rinner =    1.100   1.100   1.100
                                                       1.100   1.100

     atomic species   valence    mass     pseudopotential
        Mo             6.00    95.50000     Mo( 1.00)
        S              6.00    32.06500     S ( 1.00)

     No symmetry found

   Cartesian axes

     site n.     atom                  positions (alat units)
         1           Mo  tau(   1) = (   0.3652873   1.2494986   5.1702492  )
         2           Mo  tau(   2) = (   0.3662158   0.8186409   4.8409088  )
         3           Mo  tau(   3) = (  -0.1345006   1.2510859   5.1707767  )
         4           Mo  tau(   4) = (   0.8663396   0.8185611   4.8409802  )
         5           Mo  tau(   5) = (   0.6049258   0.3917313   4.7314071  )
         6           Mo  tau(   6) = (   0.1050692   0.3915361   4.7313539  )
         7           Mo  tau(   7) = (   0.3538005   1.7427085   4.9137271  )
         8           Mo  tau(   8) = (  -0.1462906   1.7433917   4.9135056  )
         9           Mo  tau(   9) = (   0.3475292   1.7576654   5.4705931  )
        10           Mo  tau(  10) = (  -0.1524942   1.7566994   5.4692414  )
        11           Mo  tau(  11) = (  -0.0790449   0.7731685   1.7400788  )
        12           Mo  tau(  12) = (   0.4209882   0.7737321   1.7427447  )
        13           S   tau(  13) = (   0.6233010   1.0749812   5.4227021  )
        14           S   tau(  14) = (   0.6047196   1.5809315   5.1869766  )
        15           S   tau(  15) = (   0.1232928   1.0728040   5.4209651  )
        16           S   tau(  16) = (   0.1051869   1.5811162   5.1884981  )
        17           S   tau(  17) = (   0.6729485   0.9068359   1.9882361  )
        18           S   tau(  18) = (   0.1705946   0.5260239   1.8735603  )
        19           S   tau(  19) = (   0.6166518   1.1488270   4.8739151  )
        20           S   tau(  20) = (   0.6000492   1.6340237   4.6412886  )
        21           S   tau(  21) = (   0.1159090   1.1490417   4.8739109  )
        22           S   tau(  22) = (   0.1003807   1.6314710   4.6425493  )
        23           S   tau(  23) = (   0.6689931   0.6417441   1.4936745  )
        24           S   tau(  24) = (   0.1713616   1.0216428   1.6107784  )
        25           S   tau(  25) = (   0.6154670   0.6130046   5.0705072  )
        26           S   tau(  26) = (   0.1155769   0.6127036   5.0702921  )
        27           S   tau(  27) = (   0.6164426   0.7345154   4.5385906  )
        28           S   tau(  28) = (   0.1164422   0.7345500   4.5383752  )
        29           S   tau(  29) = (   0.8544992   0.2778054   4.4431696  )
        30           S   tau(  30) = (   0.3545908   0.2759501   4.4441289  )
        31           S   tau(  31) = (   0.0959168   2.0599858   5.4844466  )
        32           S   tau(  32) = (   0.5940621   1.6277094   5.7452603  )
        33           S   tau(  33) = (   0.3751762   2.1142915   4.9447012  )
        34           S   tau(  34) = (   0.3523556   0.1512944   4.9467447  )
        35           S   tau(  35) = (   0.0937176   1.6192614   5.7420154  )
        36           S   tau(  36) = (   0.5964714   2.0606123   5.4687271  )

     number of k points=     4  Marzari-Vanderbilt smearing, width (Ry)=  0.0200
                       cart. coord. in units 2pi/alat
        k(    1) = (   0.0000000   0.0000000   0.0000000), wk =   0.3333333
        k(    2) = (   0.0000000  -0.2546388   0.0076722), wk =   0.3333333
        k(    3) = (   0.3333333   0.0810875  -0.0048081), wk =   0.6666667
        k(    4) = (   0.3333333  -0.1735513   0.0028641), wk =   0.6666667

     Initial potential from superposition of free atoms

     starting charge  215.98107, renormalised to  216.00000

     negative rho (up, down):  3.147E-03 0.000E+00
     Starting wfcs are  204 randomized atomic wfcs

     Self-consistent Calculation

     iteration #  1     ecut=    45.00 Ry     beta= 0.70
     Davidson diagonalization with overlap
     ethr =  1.00E-02,  avg # of iterations =  2.8

     negative rho (up, down):  1.710E-03 0.000E+00

     total energy              =    -842.57597069 Ry
     Harris-Foulkes estimate   =    -845.77897228 Ry
     estimated scf accuracy    <       9.66277615 Ry

[...]

     iteration # 10     ecut=    45.00 Ry     beta= 0.70
     Davidson diagonalization with overlap
     c_bands:  1 eigenvalues not converged
     ethr =  1.38E-06,  avg # of iterations = 17.5

[...]

     total energy              =    -844.26765666 Ry
     Harris-Foulkes estimate   =    -844.26765780 Ry
     estimated scf accuracy    <       0.00000130 Ry

     iteration # 19     ecut=    45.00 Ry     beta= 0.70
     Davidson diagonalization with overlap
     ethr =  6.03E-10,  avg # of iterations =  1.5

[...]

     End of self-consistent calculation

          k = 0.0000 0.0000 0.0000 (103521 PWs)   bands (ev):

   -17.8346 -16.9847 -16.6741 -16.4894 -16.0120 -15.8724 -15.7301 -15.5384
   -15.4028 -15.3739 -15.3094 -15.2177 -15.1496 -15.0970 -14.9789 -14.8515
   -14.8491 -14.7662 -14.7280 -14.5325 -14.3506 -14.2773 -14.1518 -14.1199
   -10.1540  -9.3587  -9.0740  -8.9333  -8.7646  -8.6148  -8.3154  -8.2760
    -8.2195  -8.1367  -8.0427  -7.7551  -7.7354  -7.4352  -7.4326  -7.4279
    -7.3048  -7.2957  -7.2658  -7.2540  -7.1244  -7.0127  -6.9791  -6.8456
    -6.5774  -6.5703  -6.4485  -6.4004  -6.3987  -6.3226  -6.3035  -6.2827
    -6.1552  -6.1043  -6.0382  -6.0000  -5.9830  -5.9254  -5.8866  -5.8771
    -5.7341  -5.7306  -5.6966  -5.6471  -5.5252  -5.4303  -5.3736  -5.3428
    -5.2500  -5.1402  -5.0835  -4.9886  -4.9415  -4.7389  -4.6808  -4.6390
    -4.5662  -4.4494  -4.4345  -4.4162  -4.4132  -4.3767  -4.3117  -4.2326
    -4.0549  -4.0354  -3.9813  -3.7971  -3.7640  -3.7482  -3.7406  -3.7092
    -3.6854  -3.6437  -3.4846  -3.3580  -3.3478  -3.0868  -3.0662  -2.9086
    -2.7839  -2.7813  -2.7788  -2.6847  -2.6427  -2.5658  -2.3616  -2.2769
    -2.2220  -2.1344  -2.1234  -2.1039  -1.9168  -1.7862  -1.4724  -1.3856
    -1.1109  -1.0786  -1.0706  -1.0679  -0.8996  -0.7865  -0.6756  -0.6318
    -0.6139  -0.5555

[...]

          k = 0.3333-0.1736 0.0029 (103448 PWs)   bands (ev):

   -17.5727 -16.9978 -16.7045 -16.2624 -16.0515 -15.8340 -15.7364 -15.6869
   -15.4422 -15.2912 -15.2854 -15.2260 -15.1873 -14.9647 -14.8885 -14.8444
   -14.8426 -14.7930 -14.7794 -14.6924 -14.6161 -14.5367 -14.3784 -14.2976
    -9.3509  -9.0794  -8.8078  -8.6564  -8.5231  -8.2298  -8.2120  -8.0806
    -7.9471  -7.9219  -7.7890  -7.6786  -7.6563  -7.4380  -7.3325  -7.1583
    -7.0825  -6.9564  -6.9431  -6.9344  -6.8787  -6.7948  -6.6923  -6.6882
    -6.5986  -6.5649  -6.5402  -6.4267  -6.3666  -6.3320  -6.2701  -6.2256
    -6.1882  -6.1852  -6.0237  -6.0007  -5.9460  -5.8970  -5.7982  -5.7581
    -5.7516  -5.7329  -5.7182  -5.7086  -5.6932  -5.6551  -5.6025  -5.5929
    -5.5774  -5.5324  -5.5128  -5.4431  -5.3107  -5.2218  -4.9961  -4.9246
    -4.9200  -4.9078  -4.8293  -4.7462  -4.7335  -4.7116  -4.6381  -4.5297
    -4.4890  -4.3918  -4.3219  -4.2925  -4.0981  -3.9266  -3.7753  -3.7670
    -3.6867  -3.5347  -3.3950  -3.3337  -3.2064  -3.1243  -3.0221  -2.8667
    -2.7769  -2.7024  -2.6524  -2.4395  -2.4242  -2.3484  -2.2742  -2.2377
    -2.0383  -1.9637  -1.8579  -1.7646  -1.7552  -1.5628  -1.5176  -1.4113
    -1.2600  -1.1871  -1.1036  -1.0504  -0.9426  -0.8892  -0.8853  -0.8282
    -0.8171  -0.7586

     the Fermi energy is    -2.5298 ev

!    total energy              =    -844.26765371 Ry
     Harris-Foulkes estimate   =    -844.26765672 Ry
     estimated scf accuracy    <       0.00000094 Ry

     The total energy is the sum of the following terms:

     one-electron contribution =  -10145.94609523 Ry
     hartree contribution      =    5122.34751960 Ry
     xc contribution           =    -332.88728583 Ry
     ewald contribution        =    4512.22263651 Ry
     smearing contrib. (-TS)   =      -0.00442877 Ry

     convergence has been achieved in  19 iterations

     negative rho (up, down):  4.412E-03 0.000E+00

     Forces acting on atoms (cartesian axes, Ry/au):

     atom    1 type  1   force =    -0.00043671   -0.03330712    0.04184297
     atom    2 type  1   force =    -0.00192951    0.01162930    0.00748261
     atom    3 type  1   force =    -0.00168740   -0.03615391    0.03989378
     atom    4 type  1   force =    -0.00214640    0.01180817    0.00648635
     atom    5 type  1   force =     0.00184816   -0.08030089   -0.03655364
     atom    6 type  1   force =     0.00212446   -0.07902457   -0.03661075
     atom    7 type  1   force =    -0.00354838   -0.03347399   -0.01454665
     atom    8 type  1   force =    -0.00012357   -0.03634933   -0.01398215
     atom    9 type  1   force =     0.00054579    0.01579837    0.03918090
     atom   10 type  1   force =     0.00050831    0.01825349    0.04246427
     atom   11 type  1   force =    -0.00047598    0.00120268    0.00017456
     atom   12 type  1   force =    -0.00019064    0.00185897   -0.00113778
     atom   13 type  2   force =    -0.00474595    0.02350637   -0.03192886
     atom   14 type  2   force =     0.00023131   -0.00122011   -0.00847461
     atom   15 type  2   force =    -0.00474564    0.02373505   -0.03081723
     atom   16 type  2   force =    -0.00038553    0.00057046   -0.01110862
     atom   17 type  2   force =    -0.00125765    0.00536396    0.01224385
     atom   18 type  2   force =    -0.00018227   -0.01228384    0.00679327
     atom   19 type  2   force =     0.00012900   -0.00428396   -0.01974042
     atom   20 type  2   force =     0.00785631    0.00971001    0.02208965
     atom   21 type  2   force =    -0.00023326   -0.00467603   -0.02020884
     atom   22 type  2   force =     0.00629300    0.01050327    0.02069250
     atom   23 type  2   force =     0.00111243   -0.00637154   -0.01190179
     atom   24 type  2   force =     0.00014810    0.01130487   -0.00665424
     atom   25 type  2   force =    -0.00144988    0.01545454   -0.01517691
     atom   26 type  2   force =    -0.00175171    0.01576949   -0.01492818
     atom   27 type  2   force =    -0.00347676    0.02261952    0.02184768
     atom   28 type  2   force =    -0.00342015    0.02208839    0.02236734
     atom   29 type  2   force =     0.00287515    0.02150014    0.04310286
     atom   30 type  2   force =     0.00286345    0.02217259    0.04282441
     atom   31 type  2   force =     0.00441057   -0.02277792   -0.01214201
     atom   32 type  2   force =    -0.00226507   -0.00105811   -0.02698023
     atom   33 type  2   force =    -0.00034057    0.05370678   -0.01198388
     atom   34 type  2   force =     0.00167442    0.05414763   -0.01264654
     atom   35 type  2   force =    -0.00263230    0.00000040   -0.02431813
     atom   36 type  2   force =     0.00480488   -0.02142313   -0.00764555

     Total force =     0.225214     Total SCF correction =     0.002035

     General routines

     Parallel routines

   This run was terminated on:  18:16:54   3Dec2021

   JOB DONE.