     Program PWSCF v.6.4 starts on 10Nov2021 at 18:14: 5

     R & G space division:  proc/nbgrp/npool/nimage =      40
     Waiting for input...
     Reading input from standard input
Warning: card    &IONS ignored
Warning: card      ION_DYNAMICS = 'BFGS' ignored
Warning: card   / ignored
Warning: card    &CELL ignored
Warning: card      CELL_DYNAMICS = 'BFGS', ignored
Warning: card    / ignored

     Current dimensions of program PWSCF are:
     Max number of different atomic species (ntypx) = 10
     Max number of k-points (npk) =  40000
     Max angular momentum in pseudopotentials (lmaxx) =  3

     bravais-lattice index     =            0
     lattice parameter (alat)  =       6.1879  a.u.
     unit-cell volume          =    1183.0120 (a.u.)^3
     number of atoms/cell      =            6
     number of atomic types    =            2
     number of electrons       =        36.00
     number of Kohn-Sham states=           22
     kinetic-energy cutoff     =      45.0000  Ry
     charge density cutoff     =     360.0000  Ry
     convergence threshold     =      1.0E-06
     mixing beta               =       0.7000
     number of iterations used =            8  local-TF  mixing
     Exchange-correlation      = SLA PW GGX GGC ( 1  4  2  2 0 0)

     celldm(1)=   6.187949  celldm(2)=   0.000000  celldm(3)=   0.000000
     celldm(4)=   0.000000  celldm(5)=   0.000000  celldm(6)=   0.000000

     crystal axes: (cart. coord. in units of alat)
               a(1) = (   1.000000   0.000000   0.000000 )
               a(2) = (  -0.516936   0.850266   0.000000 )
               a(3) = (   0.529583  -0.469926   5.872111 )

     reciprocal axes: (cart. coord. in units 2 pi/alat)
               b(1) = (  1.000000  0.607970 -0.041532 )
               b(2) = (  0.000000  1.176103  0.094120 )
               b(3) = (  0.000000  0.000000  0.170297 )

     PseudoPot. # 1 for Mo read from file:
     ~/pseudo/Mo.pw91-n-van.UPF
     MD5 check sum: Not computed, couldn't open file
     Pseudo is Ultrasoft + core correction, Zval =  6.0
     Generated by new atomic code, or converted to UPF format
     Using radial grid of  965 points,  3 beta functions with:
                l(1) =   1
                l(2) =   2
                l(3) =   2
     Q(r) pseudized with  8 coefficients,  rinner =    1.000   1.000   1.000
                                                       1.200   1.200

     PseudoPot. # 2 for S  read from file:
     ~/pseudo/S.pw91-van_ak.UPF
     MD5 check sum: Not computed, couldn't open file
     Pseudo is Ultrasoft, Zval =  6.0
     Generated by new atomic code, or converted to UPF format
     Using radial grid of  811 points,  6 beta functions with:
                l(1) =   0
                l(2) =   0
                l(3) =   1
                l(4) =   1
                l(5) =   2
                l(6) =   2
     Q(r) pseudized with  8 coefficients,  rinner =    1.100   1.100   1.100
                                                       1.100   1.100

     atomic species   valence    mass     pseudopotential
        Mo             6.00    95.50000     Mo( 1.00)
        S              6.00    32.06500     S ( 1.00)

     No symmetry found

   Cartesian axes

     site n.     atom                  positions (alat units)
         1           Mo  tau(   1) = (   1.0252970  -0.1018427   4.7177976  )
         2           Mo  tau(   2) = (  -0.0125386   0.4817826   1.1544357  )
         3           S   tau(   3) = (   0.5299323   0.1776248   4.2384595  )
         4           S   tau(   4) = (   0.4972635   0.1968978   0.6758167  )
         5           S   tau(   5) = (   0.5137831   0.1826085   5.1964237  )
         6           S   tau(   6) = (   0.4839322   0.2026746   1.6338293  )

     number of k points=    20  Marzari-Vanderbilt smearing, width (Ry)=  0.0200
                       cart. coord. in units 2pi/alat
        k(    1) = (   0.0000000   0.0000000   0.0000000), wk =   0.0555556
        k(    2) = (   0.0000000   0.1960172   0.0156866), wk =   0.1111111
        k(    3) = (   0.0000000   0.3920343   0.0313733), wk =   0.1111111
        k(    4) = (   0.0000000  -0.5880515  -0.0470599), wk =   0.0555556
        k(    5) = (   0.1666667   0.1013283  -0.0069220), wk =   0.1111111
        k(    6) = (   0.1666667   0.2973455   0.0087646), wk =   0.1111111
        k(    7) = (   0.1666667   0.4933626   0.0244512), wk =   0.1111111
        k(    8) = (   0.1666667  -0.4867231  -0.0539819), wk =   0.1111111
        k(    9) = (   0.1666667  -0.2907060  -0.0382953), wk =   0.1111111
        k(   10) = (   0.1666667  -0.0946888  -0.0226087), wk =   0.1111111
        k(   11) = (   0.3333333   0.2026566  -0.0138441), wk =   0.1111111
        k(   12) = (   0.3333333   0.3986738   0.0018425), wk =   0.1111111
        k(   13) = (   0.3333333   0.5946909   0.0175292), wk =   0.1111111
        k(   14) = (   0.3333333  -0.3853948  -0.0609040), wk =   0.1111111
        k(   15) = (   0.3333333  -0.1893777  -0.0452174), wk =   0.1111111
        k(   16) = (   0.3333333   0.0066395  -0.0295307), wk =   0.1111111
        k(   17) = (  -0.5000000  -0.3039849   0.0207661), wk =   0.0555556
        k(   18) = (  -0.5000000  -0.1079678   0.0364528), wk =   0.1111111
        k(   19) = (  -0.5000000   0.0880494   0.0521394), wk =   0.1111111
        k(   20) = (  -0.5000000  -0.8920364  -0.0262938), wk =   0.0555556

     Initial potential from superposition of free atoms

     starting charge   35.99685, renormalised to   36.00000

     negative rho (up, down):  6.387E-06 0.000E+00
     Starting wfcs are   34 randomized atomic wfcs

     Self-consistent Calculation

     iteration #  1     ecut=    45.00 Ry     beta= 0.70
     Davidson diagonalization with overlap
     ethr =  1.00E-02,  avg # of iterations =  2.0

     negative rho (up, down):  3.078E-08 0.000E+00

     total energy              =    -140.69035062 Ry
     Harris-Foulkes estimate   =    -141.14662156 Ry
     estimated scf accuracy    <       1.16842314 Ry

[...]

     total energy              =    -140.92028108 Ry
     Harris-Foulkes estimate   =    -140.92028603 Ry
     estimated scf accuracy    <       0.00002317 Ry

     iteration # 12     ecut=    45.00 Ry     beta= 0.70
     Davidson diagonalization with overlap
     ethr =  6.44E-08,  avg # of iterations =  3.0

[...]

     End of self-consistent calculation

          k = 0.0000 0.0000 0.0000 (  6101 PWs)   bands (ev):

   -11.2366 -11.2292 -10.0275 -10.0144  -2.7433  -2.6748  -0.0789  -0.0766
     0.1877   0.1881   0.9554   1.0582   1.1019   1.2275   1.2486   1.2652
     2.6815   2.8418   5.2539   5.2606   5.3731   5.3780

[...]

          k = 0.3333 0.0066-0.0295 (  6034 PWs)   bands (ev):

[...]

          k =-0.5000-0.3040 0.0208 (  6010 PWs)   bands (ev):

[...]

          k =-0.5000-0.8920-0.0263 (  6006 PWs)   bands (ev):

    -9.6347  -9.6305  -9.3368  -9.3322  -2.8832  -2.8722  -1.8656  -1.8591
    -1.2950  -1.2572  -0.2517  -0.2492   0.8477   0.8703   1.8216   1.8239
     1.9820   1.9964   4.6164   4.6174   5.0838   5.1009

     the Fermi energy is     2.8058 ev

!    total energy              =    -140.92028491 Ry
     Harris-Foulkes estimate   =    -140.92028502 Ry
     estimated scf accuracy    <       0.00000025 Ry

     The total energy is the sum of the following terms:

     one-electron contribution =    -260.82111455 Ry
     hartree contribution      =     146.16175887 Ry
     xc contribution           =     -55.63986873 Ry
     ewald contribution        =      29.37561418 Ry
     smearing contrib. (-TS)   =       0.00332532 Ry

     convergence has been achieved in  12 iterations

     negative rho (up, down):  2.079E-05 0.000E+00

     Forces acting on atoms (cartesian axes, Ry/au):

     atom    1 type  1   force =     0.00102308    0.00073959   -0.00091629
     atom    2 type  1   force =    -0.00176948   -0.00094178    0.00090897
     atom    3 type  2   force =    -0.00939399    0.00247152    0.00057126
     atom    4 type  2   force =    -0.00721238    0.00369892   -0.00160883
     atom    5 type  2   force =     0.00927881   -0.00306147    0.00182794
     atom    6 type  2   force =     0.00807396   -0.00290677   -0.00078305

     Total force =     0.018529     Total SCF correction =     0.001444

     General routines

     Parallel routines

   This run was terminated on:  18:14:19  10Nov2021

   JOB DONE.