     Program PWSCF v.6.4 starts on 17Nov2021 at 10:55: 0

     R & G space division:  proc/nbgrp/npool/nimage =      40
     Waiting for input...
     Reading input from standard input
Warning: card    &IONS ignored
Warning: card      ION_DYNAMICS = 'BFGS' ignored
Warning: card   / ignored
Warning: card    &CELL ignored
Warning: card      CELL_DYNAMICS = 'BFGS', ignored
Warning: card    / ignored

     Current dimensions of program PWSCF are:
     Max number of different atomic species (ntypx) = 10
     Max number of k-points (npk) =  40000
     Max angular momentum in pseudopotentials (lmaxx) =  3

     bravais-lattice index     =            0
     lattice parameter (alat)  =      12.1083  a.u.
     unit-cell volume          =    4093.8831 (a.u.)^3
     number of atoms/cell      =           18
     number of atomic types    =            2
     number of electrons       =       108.00
     number of Kohn-Sham states=           65
     kinetic-energy cutoff     =      45.0000  Ry
     charge density cutoff     =     360.0000  Ry
     convergence threshold     =      1.0E-06
     mixing beta               =       0.7000
     number of iterations used =            8  local-TF  mixing
     Exchange-correlation      = SLA PW GGX GGC ( 1  4  2  2 0 0)

     celldm(1)=  12.108311  celldm(2)=   0.000000  celldm(3)=   0.000000
     celldm(4)=   0.000000  celldm(5)=   0.000000  celldm(6)=   0.000000

     crystal axes: (cart. coord. in units of alat)
               a(1) = (   1.000000   0.000000   0.000000 )
               a(2) = (  -0.469183   0.873076   0.000000 )
               a(3) = (  -0.391812  -0.349384   2.641392 )

     reciprocal axes: (cart. coord. in units 2 pi/alat)
               b(1) = (  1.000000  0.537391  0.219418 )
               b(2) = (  0.000000  1.145376  0.151502 )
               b(3) = (  0.000000  0.000000  0.378588 )

     PseudoPot. # 1 for Mo read from file:
     ~/pseudo/Mo.pw91-n-van.UPF
     MD5 check sum: Not computed, couldn't open file
     Pseudo is Ultrasoft + core correction, Zval =  6.0
     Generated by new atomic code, or converted to UPF format
     Using radial grid of  965 points,  3 beta functions with:
                l(1) =   1
                l(2) =   2
                l(3) =   2
     Q(r) pseudized with  8 coefficients,  rinner =    1.000   1.000   1.000
                                                       1.200   1.200

     PseudoPot. # 2 for S  read from file:
     ~/pseudo/S.pw91-van_ak.UPF
     MD5 check sum: Not computed, couldn't open file
     Pseudo is Ultrasoft, Zval =  6.0
     Generated by new atomic code, or converted to UPF format
     Using radial grid of  811 points,  6 beta functions with:
                l(1) =   0
                l(2) =   0
                l(3) =   1
                l(4) =   1
                l(5) =   2
                l(6) =   2
     Q(r) pseudized with  8 coefficients,  rinner =    1.100   1.100   1.100
                                                       1.100   1.100

     atomic species   valence    mass     pseudopotential
        Mo             6.00    95.50000     Mo( 1.00)
        S              6.00    32.06500     S ( 1.00)

     No symmetry found

   Cartesian axes

     site n.     atom                  positions (alat units)
         1           Mo  tau(   1) = (   0.0930357   0.4112833   0.9341792  )
         2           Mo  tau(   2) = (   0.3276327  -0.0252306   0.9342605  )
         3           Mo  tau(   3) = (  -0.1723239  -0.0251935   0.9343841  )
         4           Mo  tau(   4) = (  -0.4069235   0.4112830   0.9342800  )
         5           Mo  tau(   5) = (   0.3281427   0.5250629   2.0419016  )
         6           Mo  tau(   6) = (   0.0659718   0.0926862   2.0458520  )
         7           S   tau(   7) = (   0.1053980   0.7018833   0.6875998  )
         8           S   tau(   8) = (   0.3398813   0.2651789   0.6874146  )
         9           S   tau(   9) = (  -0.1601638   0.2651303   0.6875815  )
        10           S   tau(  10) = (  -0.3947931   0.7017548   0.6873960  )
        11           S   tau(  11) = (   0.3227411   0.2396697   1.8056557  )
        12           S   tau(  12) = (   0.0665991  -0.2128247   1.8342841  )
        13           S   tau(  13) = (   0.1052499   0.7015553   1.1808584  )
        14           S   tau(  14) = (   0.3397866   0.2652128   1.1805409  )
        15           S   tau(  15) = (  -0.1600257   0.2652463   1.1809857  )
        16           S   tau(  16) = (  -0.3946723   0.7016155   1.1805668  )
        17           S   tau(  17) = (   0.2486428   0.2728388   2.3147957  )
        18           S   tau(  18) = (   0.0177832  -0.1766941   2.2906919  )

     number of k points=     5  Marzari-Vanderbilt smearing, width (Ry)=  0.0200
                       cart. coord. in units 2pi/alat
        k(    1) = (   0.0000000   0.0000000   0.0000000), wk =   0.2222222
        k(    2) = (   0.0000000   0.3817920   0.0505007), wk =   0.4444444
        k(    3) = (   0.3333333   0.1791305   0.0731392), wk =   0.4444444
        k(    4) = (   0.3333333   0.5609225   0.1236399), wk =   0.4444444
        k(    5) = (   0.3333333  -0.2026615   0.0226385), wk =   0.4444444

     Initial potential from superposition of free atoms

     starting charge  107.99054, renormalised to  108.00000
     Starting wfcs are  102 randomized atomic wfcs

     Self-consistent Calculation

     iteration #  1     ecut=    45.00 Ry     beta= 0.70
     Davidson diagonalization with overlap
     ethr =  1.00E-02,  avg # of iterations =  2.0

     total energy              =    -421.47137440 Ry
     Harris-Foulkes estimate   =    -423.08555388 Ry
     estimated scf accuracy    <       4.27539982 Ry

[...]

     iteration #  8     ecut=    45.00 Ry     beta= 0.70
     Davidson diagonalization with overlap
     c_bands:  1 eigenvalues not converged
     ethr =  2.94E-06,  avg # of iterations =  8.2

[...]

     negative rho (up, down):  4.925E-08 0.000E+00

[...]

     iteration # 18     ecut=    45.00 Ry     beta= 0.70
     Davidson diagonalization with overlap
     c_bands:  1 eigenvalues not converged
     ethr =  1.30E-06,  avg # of iterations = 10.4

[...]

     negative rho (up, down):  1.273E-08 0.000E+00

[...]

     total energy              =    -422.28694888 Ry
     Harris-Foulkes estimate   =    -422.28695081 Ry
     estimated scf accuracy    <       0.00001265 Ry

     iteration # 29     ecut=    45.00 Ry     beta= 0.70
     Davidson diagonalization with overlap
     ethr =  3.83E-09,  avg # of iterations =  1.4

     End of self-consistent calculation

          k = 0.0000 0.0000 0.0000 ( 20857 PWs)   bands (ev):

   -12.2702 -11.0853 -11.0606 -10.5898 -10.5487 -10.4606 -10.3368 -10.2887
   -10.1770 -10.0857 -10.0122  -9.9250  -3.9270  -3.9124  -3.8608  -3.7525
    -2.9987  -2.9529  -2.9303  -2.8163  -2.6353  -2.2873  -2.2736  -2.2506
    -1.9286  -1.6061  -1.5560  -1.3193  -1.3122  -1.2197  -1.1940  -1.0772
    -1.0323  -0.6689  -0.4038  -0.2441  -0.1806  -0.1375  -0.0476  -0.0119
     0.1514   0.2880   0.3801   0.4733   0.5710   0.8303   0.9329   0.9840
     1.0390   1.1833   1.3215   1.6174   1.7221   1.7966   2.0755   2.5000
     2.7570   3.0122   3.2229   3.6054   3.6819   3.7087   3.7578   4.2450
     4.2967

[...]

          k = 0.3333-0.2027 0.0226 ( 20882 PWs)   bands (ev):

   -11.8906 -11.0573 -11.0043 -10.8893 -10.6078 -10.5875 -10.4439 -10.3114
   -10.2872 -10.0825 -10.0152  -9.9282  -3.4158  -3.4032  -3.3588  -3.3407
    -2.9870  -2.9705  -2.8306  -2.6537  -2.3191  -2.0836  -2.0621  -2.0422
    -1.9274  -1.5499  -1.4640  -1.3689  -1.3312  -1.2939  -1.2696  -1.2659
    -1.0758  -1.0136  -0.6271  -0.6097  -0.5750  -0.4854  -0.4274  -0.1300
    -0.0447  -0.0291   0.1587   0.2129   0.2805   0.4285   0.7269   0.8365
     1.2855   1.3005   1.3547   1.4333   1.6477   1.6970   2.0028   2.4794
     2.5938   3.0656   3.2630   3.6144   3.6888   3.7029   3.7090   3.9650
     4.0059

     the Fermi energy is     1.8117 ev

!    total energy              =    -422.28694951 Ry
     Harris-Foulkes estimate   =    -422.28694982 Ry
     estimated scf accuracy    <       0.00000049 Ry

     The total energy is the sum of the following terms:

     one-electron contribution =    -662.78679673 Ry
     hartree contribution      =     374.98478807 Ry
     xc contribution           =    -166.39959877 Ry
     ewald contribution        =      31.90171091 Ry
     smearing contrib. (-TS)   =       0.01294702 Ry

     convergence has been achieved in  29 iterations

     Forces acting on atoms (cartesian axes, Ry/au):

     atom    1 type  1   force =     0.00002906   -0.00005730    0.00016851
     atom    2 type  1   force =     0.00002952   -0.00006973   -0.00022757
     atom    3 type  1   force =     0.00003800   -0.00012579    0.00014518
     atom    4 type  1   force =    -0.00006560   -0.00013059   -0.00017279
     atom    5 type  1   force =     0.00977559   -0.01272138    0.02128263
     atom    6 type  1   force =     0.02008674   -0.00353769   -0.00729867
     atom    7 type  2   force =     0.00003659   -0.00025320    0.00068197
     atom    8 type  2   force =    -0.00012888   -0.00003167    0.00113146
     atom    9 type  2   force =     0.00000979   -0.00009385    0.00057083
     atom   10 type  2   force =    -0.00010490   -0.00002175    0.00124698
     atom   11 type  2   force =    -0.02015052   -0.00370559    0.03865348
     atom   12 type  2   force =     0.00322614    0.01243003   -0.00900455
     atom   13 type  2   force =    -0.00008554    0.00023944   -0.00115245
     atom   14 type  2   force =     0.00030645   -0.00014479   -0.00070013
     atom   15 type  2   force =    -0.00027846   -0.00003944   -0.00135434
     atom   16 type  2   force =     0.00013902   -0.00003453   -0.00043027
     atom   17 type  2   force =     0.00320420    0.01096142   -0.04200993
     atom   18 type  2   force =    -0.01606720   -0.00266358   -0.00153035

     Total force =     0.074232     Total SCF correction =     0.001578

     General routines

     Parallel routines

   This run was terminated on:  10:56:11  17Nov2021

   JOB DONE.