     Program PWSCF v.6.4 starts on  8Sep2021 at 12: 4:39

     R & G space division:  proc/nbgrp/npool/nimage =      40
     Waiting for input...
     Reading input from standard input
Warning: card    &IONS ignored
Warning: card      ION_DYNAMICS = 'BFGS' ignored
Warning: card   / ignored
Warning: card    &CELL ignored
Warning: card      CELL_DYNAMICS = 'BFGS', ignored
Warning: card    / ignored

     Current dimensions of program PWSCF are:
     Max number of different atomic species (ntypx) = 10
     Max number of k-points (npk) =  40000
     Max angular momentum in pseudopotentials (lmaxx) =  3

     bravais-lattice index     =            0
     lattice parameter (alat)  =      12.7068  a.u.
     unit-cell volume          =    5133.2162 (a.u.)^3
     number of atoms/cell      =           36
     number of atomic types    =            2
     number of electrons       =       216.00
     number of Kohn-Sham states=          130
     kinetic-energy cutoff     =      45.0000  Ry
     charge density cutoff     =     360.0000  Ry
     convergence threshold     =      1.0E-06
     mixing beta               =       0.7000
     number of iterations used =            8  local-TF  mixing
     Exchange-correlation      = SLA PW GGX GGC ( 1  4  2  2 0 0)

     celldm(1)=  12.706807  celldm(2)=   0.000000  celldm(3)=   0.000000
     celldm(4)=   0.000000  celldm(5)=   0.000000  celldm(6)=   0.000000

     crystal axes: (cart. coord. in units of alat)
               a(1) = (   0.999438  -0.028969   0.016864 )
               a(2) = (  -0.509333   0.857546   0.019847 )
               a(3) = (  -0.518507  -0.702349   2.937400 )

     reciprocal axes: (cart. coord. in units 2 pi/alat)
               b(1) = (  1.012364  0.593865  0.320698 )
               b(2) = (  0.029277  1.176875  0.286565 )
               b(3) = ( -0.006010 -0.011361  0.336660 )

     PseudoPot. # 1 for Mo read from file:
     ~/pseudo/Mo.pw91-n-van.UPF
     MD5 check sum: Not computed, couldn't open file
     Pseudo is Ultrasoft + core correction, Zval =  6.0
     Generated by new atomic code, or converted to UPF format
     Using radial grid of  965 points,  3 beta functions with:
                l(1) =   1
                l(2) =   2
                l(3) =   2
     Q(r) pseudized with  8 coefficients,  rinner =    1.000   1.000   1.000
                                                       1.200   1.200

     PseudoPot. # 2 for S  read from file:
     ~/pseudo/S.pw91-van_ak.UPF
     MD5 check sum: Not computed, couldn't open file
     Pseudo is Ultrasoft, Zval =  6.0
     Generated by new atomic code, or converted to UPF format
     Using radial grid of  811 points,  6 beta functions with:
                l(1) =   0
                l(2) =   0
                l(3) =   1
                l(4) =   1
                l(5) =   2
                l(6) =   2
     Q(r) pseudized with  8 coefficients,  rinner =    1.100   1.100   1.100
                                                       1.100   1.100

     atomic species   valence    mass     pseudopotential
        Mo             6.00    95.50000     Mo( 1.00)
        S              6.00    32.06500     S ( 1.00)

     No symmetry found

   Cartesian axes

     site n.     atom                  positions (alat units)
         1           Mo  tau(   1) = (   0.2048264   0.0131150   0.9826546  )
         2           Mo  tau(   2) = (  -0.0645975   0.4676211   0.9764488  )
         3           Mo  tau(   3) = (   0.6243695   0.0584847   1.0297723  )
         4           Mo  tau(   4) = (   0.3835775   0.3989447   1.1442500  )
         5           Mo  tau(   5) = (  -0.3289773  -0.3161507   1.9359746  )
         6           Mo  tau(   6) = (  -0.5652822   0.0459939   1.9214925  )
         7           Mo  tau(   7) = (   0.1727352  -0.3106725   1.9499753  )
         8           Mo  tau(   8) = (  -0.0830617   0.0152426   1.9191471  )
         9           Mo  tau(   9) = (  -0.6169174  -0.7511811   2.8309527  )
        10           Mo  tau(  10) = (  -0.9455605  -0.2713437   3.0779049  )
        11           Mo  tau(  11) = (  -0.2104775  -0.7632690   3.0749437  )
        12           Mo  tau(  12) = (  -0.3477632  -0.3539724   2.8777226  )
        13           S   tau(  13) = (  -0.1296783   0.2246036   0.1334185  )
        14           S   tau(  14) = (  -0.3785688   0.6331034   0.4150770  )
        15           S   tau(  15) = (   0.2920283   0.2376962   0.3328831  )
        16           S   tau(  16) = (   0.1170843   0.6351349   0.1667098  )
        17           S   tau(  17) = (  -0.0929547   0.1140370   0.7743386  )
        18           S   tau(  18) = (  -0.3845326   0.4177551   0.8374281  )
        19           S   tau(  19) = (   0.4425974  -0.0937523   0.7384616  )
        20           S   tau(  20) = (   0.2383227   0.3585861   0.8164603  )
        21           S   tau(  21) = (  -0.0884470  -0.0954512   1.1730477  )
        22           S   tau(  22) = (  -0.3897472   0.2902519   1.3322255  )
        23           S   tau(  23) = (   0.4129592  -0.1544120   1.2322087  )
        24           S   tau(  24) = (   0.0729013   0.2766993   1.2462558  )
        25           S   tau(  25) = (  -0.0710847  -0.4773356   1.7241214  )
        26           S   tau(  26) = (  -0.3288599  -0.0589589   1.6779876  )
        27           S   tau(  27) = (   0.4109250  -0.5031834   1.7422120  )
        28           S   tau(  28) = (   0.1657795  -0.0666767   1.6844597  )
        29           S   tau(  29) = (  -0.0748059  -0.2339979   2.1834572  )
        30           S   tau(  30) = (  -0.3270957   0.2119966   2.1421226  )
        31           S   tau(  31) = (   0.4343217  -0.2315070   2.1933239  )
        32           S   tau(  32) = (   0.1697583   0.1866553   2.1423434  )
        33           S   tau(  33) = (  -0.5052024  -0.5319256   2.5901278  )
        34           S   tau(  34) = (  -0.8323501  -0.0851509   2.8053537  )
        35           S   tau(  35) = (  -0.0628899  -0.5500479   2.8323535  )
        36           S   tau(  36) = (  -0.3204229  -0.0998626   2.6286196  )

     number of k points=     5  Marzari-Vanderbilt smearing, width (Ry)=  0.0200
                       cart. coord. in units 2pi/alat
        k(    1) = (   0.0000000   0.0000000   0.0000000), wk =   0.2222222
        k(    2) = (   0.0097589   0.3922917   0.0955217), wk =   0.4444444
        k(    3) = (   0.3374548   0.1979549   0.1068993), wk =   0.4444444
        k(    4) = (   0.3472136   0.5902465   0.2024210), wk =   0.4444444
        k(    5) = (   0.3276959  -0.1943368   0.0113775), wk =   0.4444444

     Initial potential from superposition of free atoms

     starting charge  215.98107, renormalised to  216.00000
     Starting wfcs are  204 randomized atomic wfcs

     Self-consistent Calculation

     iteration #  1     ecut=    45.00 Ry     beta= 0.70
     Davidson diagonalization with overlap
     ethr =  1.00E-02,  avg # of iterations =  2.0

     total energy              =    -842.88711458 Ry
     Harris-Foulkes estimate   =    -845.98853247 Ry
     estimated scf accuracy    <       9.31727931 Ry

[...]

     iteration #  6     ecut=    45.00 Ry     beta= 0.70
     Davidson diagonalization with overlap
     c_bands:  1 eigenvalues not converged
     c_bands:  1 eigenvalues not converged
     ethr =  2.73E-05,  avg # of iterations = 13.6

[...]

     iteration #  7     ecut=    45.00 Ry     beta= 0.70
     Davidson diagonalization with overlap
     c_bands:  1 eigenvalues not converged
     ethr =  5.15E-06,  avg # of iterations = 13.8

[...]

     total energy              =    -844.48533773 Ry
     Harris-Foulkes estimate   =    -844.48533799 Ry
     estimated scf accuracy    <       0.00000168 Ry

     iteration # 15     ecut=    45.00 Ry     beta= 0.70
     Davidson diagonalization with overlap
     ethr =  7.76E-10,  avg # of iterations =  3.6

     End of self-consistent calculation

          k = 0.0000 0.0000 0.0000 ( 26191 PWs)   bands (ev):

    -8.3004  -7.5207  -7.4769  -7.2843  -6.5924  -6.5131  -6.4825  -6.4344
    -6.3893  -6.2848  -6.2642  -6.1624  -6.1323  -6.0835  -6.0376  -5.9886
    -5.8537  -5.7610  -5.6529  -5.6471  -5.6198  -5.5128  -5.3843  -5.3034
    -0.0249   0.3586   0.5277   0.5939   0.6388   0.6845   0.6892   0.6959
     0.7918   1.0489   1.1272   1.1443   1.2944   1.4018   1.5745   1.5936
     1.7058   1.8268   1.9671   2.0280   2.1020   2.1302   2.1613   2.1900
     2.3801   2.3825   2.4416   2.5366   2.6040   2.6240   2.6573   2.7148
     2.7499   2.8590   2.8671   2.9021   3.0648   3.1355   3.2356   3.2650
     3.2961   3.3296   3.4256   3.5549   3.6052   3.6570   3.6737   3.7579
     3.8254   3.8280   3.8542   3.9438   3.9762   4.0502   4.1185   4.1563
     4.2239   4.3776   4.4257   4.5502   4.6608   4.6951   4.7665   4.7975
     4.8277   4.8777   4.9247   4.9662   5.0285   5.0524   5.1748   5.5613
     5.6365   5.6911   5.7412   5.8205   5.8956   5.9169   5.9905   6.0883
     6.1003   6.1999   6.4057   6.4819   6.6299   6.6798   6.7236   7.0378
     7.0756   7.1959   7.2573   7.3585   7.4555   7.6275   7.6579   7.7018
     7.7540   7.7885   7.8466   7.9080   7.9720   8.1771   8.2249   8.2931
     8.3338   8.3602

[...]

          k = 0.3277-0.1943 0.0114 ( 26132 PWs)   bands (ev):

    -8.0126  -7.3789  -7.2726  -7.1239  -6.8639  -6.7275  -6.6942  -6.4450
    -6.3994  -6.3701  -6.3174  -6.3045  -6.1621  -6.1147  -6.0568  -5.9909
    -5.8518  -5.7721  -5.7083  -5.6490  -5.5463  -5.5202  -5.4033  -5.3471
     0.2230   0.4993   0.7193   0.7741   0.9251   0.9578   1.0218   1.0359
     1.0650   1.1340   1.2364   1.2777   1.4500   1.4834   1.5378   1.5922
     1.7065   1.8157   1.8671   1.9371   1.9962   2.1235   2.1474   2.2006
     2.2395   2.2957   2.3379   2.4290   2.4915   2.5862   2.6397   2.6710
     2.7113   2.8349   2.8860   2.9332   3.0381   3.0728   3.1160   3.2058
     3.2590   3.2814   3.3720   3.4066   3.5067   3.5323   3.5855   3.7115
     3.7923   3.8485   3.8944   3.9135   3.9679   4.0071   4.0901   4.1703
     4.1989   4.2308   4.2725   4.3534   4.4485   4.4836   4.6713   4.7352
     4.7737   4.9760   5.0102   5.0776   5.1823   5.2729   5.3114   5.3941
     5.4605   5.5358   5.6399   5.6790   5.7462   5.8664   5.8956   5.9420
     6.0411   6.1499   6.3094   6.4151   6.6845   6.6971   6.8194   6.8545
     7.0229   7.1177   7.1767   7.2545   7.3205   7.4447   7.4912   7.5949
     7.6199   7.7949   7.8675   7.9498   8.1058   8.1550   8.1801   8.3034
     8.4317   8.5576

     the Fermi energy is     6.4855 ev

!    total energy              =    -844.48533755 Ry
     Harris-Foulkes estimate   =    -844.48533810 Ry
     estimated scf accuracy    <       0.00000062 Ry

     The total energy is the sum of the following terms:

     one-electron contribution =     -72.16415063 Ry
     hartree contribution      =     157.72477587 Ry
     xc contribution           =    -333.31469816 Ry
     ewald contribution        =    -596.74157182 Ry
     smearing contrib. (-TS)   =       0.01030718 Ry

     convergence has been achieved in  15 iterations

     Forces acting on atoms (cartesian axes, Ry/au):

     atom    1 type  1   force =    -0.01113170    0.03045448    0.00230883
     atom    2 type  1   force =    -0.02768114   -0.00588608   -0.01131303
     atom    3 type  1   force =     0.03710175    0.01234492   -0.02030137
     atom    4 type  1   force =     0.00464707    0.00614611   -0.00708162
     atom    5 type  1   force =    -0.00134241    0.03283454   -0.01335406
     atom    6 type  1   force =    -0.02338301   -0.01307564   -0.01626965
     atom    7 type  1   force =     0.02112411   -0.01861531   -0.01113022
     atom    8 type  1   force =     0.00319916    0.03051909    0.04480352
     atom    9 type  1   force =    -0.00071918   -0.02300879    0.02652766
     atom   10 type  1   force =    -0.00024753   -0.02193123   -0.00759813
     atom   11 type  1   force =    -0.01691781   -0.03463694    0.00093466
     atom   12 type  1   force =    -0.02295521   -0.01195113    0.03395033
     atom   13 type  2   force =     0.00221046    0.00557148   -0.01056033
     atom   14 type  2   force =     0.00433432   -0.00236069    0.02116428
     atom   15 type  2   force =    -0.00454152    0.01844475   -0.03963733
     atom   16 type  2   force =     0.00359506    0.02669544   -0.01581737
     atom   17 type  2   force =     0.00413627    0.00334384    0.01644744
     atom   18 type  2   force =     0.01403327   -0.01163837    0.01609981
     atom   19 type  2   force =     0.00758507    0.00070015    0.01197309
     atom   20 type  2   force =    -0.01796430   -0.02430468    0.00021874
     atom   21 type  2   force =    -0.02031517   -0.00088138    0.01450393
     atom   22 type  2   force =     0.00088598   -0.01778461   -0.01873247
     atom   23 type  2   force =    -0.01196434    0.01398212   -0.01201133
     atom   24 type  2   force =     0.02727886   -0.00980312    0.00891956
     atom   25 type  2   force =     0.00116126   -0.02701790    0.00824660
     atom   26 type  2   force =    -0.01178471   -0.00150219   -0.02772079
     atom   27 type  2   force =     0.02337993   -0.00385154   -0.01140895
     atom   28 type  2   force =     0.02771418    0.00164549   -0.00254322
     atom   29 type  2   force =    -0.01544291    0.01382275    0.02167716
     atom   30 type  2   force =     0.00046917   -0.00562124   -0.00629021
     atom   31 type  2   force =    -0.02027798   -0.01105003    0.02312698
     atom   32 type  2   force =    -0.00887408    0.00247540   -0.00060767
     atom   33 type  2   force =    -0.00289153    0.01172724    0.01358958
     atom   34 type  2   force =     0.00372120    0.01020976   -0.01555233
     atom   35 type  2   force =     0.02532269    0.03356860   -0.02657207
     atom   36 type  2   force =     0.00653474   -0.00956528    0.01000997

     Total force =     0.179311     Total SCF correction =     0.001996

     General routines

     Parallel routines

   This run was terminated on:  12: 6: 7   8Sep2021

   JOB DONE.