     Program PWSCF v.6.4 starts on  8Sep2021 at 11:47: 3

     R & G space division:  proc/nbgrp/npool/nimage =      40
     Waiting for input...
     Reading input from standard input
Warning: card    &IONS ignored
Warning: card      ION_DYNAMICS = 'BFGS' ignored
Warning: card   / ignored
Warning: card    &CELL ignored
Warning: card      CELL_DYNAMICS = 'BFGS', ignored
Warning: card    / ignored

     Current dimensions of program PWSCF are:
     Max number of different atomic species (ntypx) = 10
     Max number of k-points (npk) =  40000
     Max angular momentum in pseudopotentials (lmaxx) =  3

     bravais-lattice index     =            0
     lattice parameter (alat)  =      12.5278  a.u.
     unit-cell volume          =    3512.6801 (a.u.)^3
     number of atoms/cell      =           24
     number of atomic types    =            2
     number of electrons       =       144.00
     number of Kohn-Sham states=           86
     kinetic-energy cutoff     =      45.0000  Ry
     charge density cutoff     =     360.0000  Ry
     convergence threshold     =      1.0E-06
     mixing beta               =       0.7000
     number of iterations used =            8  local-TF  mixing
     Exchange-correlation      = SLA PW GGX GGC ( 1  4  2  2 0 0)

     celldm(1)=  12.527847  celldm(2)=   0.000000  celldm(3)=   0.000000
     celldm(4)=   0.000000  celldm(5)=   0.000000  celldm(6)=   0.000000

     crystal axes: (cart. coord. in units of alat)
               a(1) = (   0.999692   0.024397   0.004485 )
               a(2) = (  -0.240209   0.425619  -0.003566 )
               a(3) = (   0.104986   1.342235   4.134465 )

     reciprocal axes: (cart. coord. in units 2 pi/alat)
               b(1) = (  0.987668  0.555693 -0.205483 )
               b(2) = ( -0.053092  2.313273 -0.749645 )
               b(3) = ( -0.001117  0.001392  0.241446 )

     PseudoPot. # 1 for Mo read from file:
     ~/pseudo/Mo.pw91-n-van.UPF
     MD5 check sum: Not computed, couldn't open file
     Pseudo is Ultrasoft + core correction, Zval =  6.0
     Generated by new atomic code, or converted to UPF format
     Using radial grid of  965 points,  3 beta functions with:
                l(1) =   1
                l(2) =   2
                l(3) =   2
     Q(r) pseudized with  8 coefficients,  rinner =    1.000   1.000   1.000
                                                       1.200   1.200

     PseudoPot. # 2 for S  read from file:
     ~/pseudo/S.pw91-van_ak.UPF
     MD5 check sum: Not computed, couldn't open file
     Pseudo is Ultrasoft, Zval =  6.0
     Generated by new atomic code, or converted to UPF format
     Using radial grid of  811 points,  6 beta functions with:
                l(1) =   0
                l(2) =   0
                l(3) =   1
                l(4) =   1
                l(5) =   2
                l(6) =   2
     Q(r) pseudized with  8 coefficients,  rinner =    1.100   1.100   1.100
                                                       1.100   1.100

     atomic species   valence    mass     pseudopotential
        Mo             6.00    95.50000     Mo( 1.00)
        S              6.00    32.06500     S ( 1.00)

      2 Sym. Ops., with inversion, found

   Cartesian axes

     site n.     atom                  positions (alat units)
         1           Mo  tau(   1) = (   0.0764170   0.6334211   1.5294744  )
         2           Mo  tau(   2) = (   0.0577014   1.2656308   3.6142570  )
         3           Mo  tau(   3) = (   0.5050601   0.6066896   1.5490612  )
         4           Mo  tau(   4) = (   0.6287707   1.3167725   3.5991351  )
         5           Mo  tau(   5) = (   0.0472845   0.0766044   0.5202083  )
         6           Mo  tau(   6) = (   0.0285689   0.7088140   2.6049908  )
         7           Mo  tau(   7) = (   0.4759075   0.0498600   0.5398149  )
         8           Mo  tau(   8) = (   0.5996182   0.7599429   2.5898888  )
         9           S   tau(   9) = (   0.2949820   0.7688210   1.7969116  )
        10           S   tau(  10) = (   0.3402456   1.4278839   3.8014126  )
        11           S   tau(  11) = (   0.7875981   0.7689666   1.7362177  )
        12           S   tau(  12) = (   0.8473001   1.4521297   3.8666120  )
        13           S   tau(  13) = (   0.0171695   0.3401219   0.2687719  )
        14           S   tau(  14) = (   0.0768715   1.0232850   2.3991662  )
        15           S   tau(  15) = (   0.5242240   0.3643677   0.3339714  )
        16           S   tau(  16) = (   0.5694876   1.0234307   2.3384724  )
        17           S   tau(  17) = (   0.0303765   0.6416948   0.7820235  )
        18           S   tau(  18) = (   0.0703313   1.3141990   2.7994613  )
        19           S   tau(  19) = (   0.5176482   0.6552562   0.7342561  )
        20           S   tau(  20) = (   0.5827318   1.3250373   2.8516831  )
        21           S   tau(  21) = (   0.2817378   0.4672143   1.2837008  )
        22           S   tau(  22) = (   0.3468214   1.1369955   3.4011279  )
        23           S   tau(  23) = (   0.7941383   0.4780526   1.3359226  )
        24           S   tau(  24) = (   0.8340931   1.1505569   3.3533605  )

     number of k points=    10  Marzari-Vanderbilt smearing, width (Ry)=  0.0200
                       cart. coord. in units 2pi/alat
        k(    1) = (   0.0000000   0.0000000   0.0000000), wk =   0.1111111
        k(    2) = (  -0.0088487   0.3855456  -0.1249409), wk =   0.2222222
        k(    3) = (  -0.0176974   0.7710911  -0.2498818), wk =   0.2222222
        k(    4) = (   0.0265460  -1.1566367   0.3748227), wk =   0.1111111
        k(    5) = (   0.3292227   0.1852310  -0.0684943), wk =   0.2222222
        k(    6) = (   0.3203740   0.5707765  -0.1934352), wk =   0.2222222
        k(    7) = (   0.3115253   0.9563221  -0.3183761), wk =   0.2222222
        k(    8) = (   0.3557687  -0.9714057   0.3063284), wk =   0.2222222
        k(    9) = (   0.3469200  -0.5858601   0.1813875), wk =   0.2222222
        k(   10) = (   0.3380714  -0.2003146   0.0564466), wk =   0.2222222

     Initial potential from superposition of free atoms

     starting charge  143.98738, renormalised to  144.00000
     Starting wfcs are  136 randomized atomic wfcs

     Self-consistent Calculation

     iteration #  1     ecut=    45.00 Ry     beta= 0.70
     Davidson diagonalization with overlap
     ethr =  1.00E-02,  avg # of iterations =  2.0

     total energy              =    -562.32948448 Ry
     Harris-Foulkes estimate   =    -564.30356465 Ry
     estimated scf accuracy    <       5.14240948 Ry

[...]

     total energy              =    -563.35371454 Ry
     Harris-Foulkes estimate   =    -563.35371506 Ry
     estimated scf accuracy    <       0.00000223 Ry

     iteration # 14     ecut=    45.00 Ry     beta= 0.70
     Davidson diagonalization with overlap
     ethr =  1.55E-09,  avg # of iterations =  2.9

     End of self-consistent calculation

          k = 0.0000 0.0000 0.0000 ( 17993 PWs)   bands (ev):

    -8.0803  -8.0622  -8.0359  -8.0153  -7.1071  -7.0828  -7.0329  -7.0121
    -6.4220  -6.4106  -6.4002  -6.3913  -6.3185  -6.3163  -6.2909  -6.2876
     0.0493   0.0538   0.0919   0.0978   0.4394   0.5551   0.6576   0.8165
     1.3893   1.4126   1.4565   1.4930   1.5544   1.5958   1.7494   1.7604
     2.4568   2.4570   2.4686   2.4690   2.5611   2.5613   2.5654   2.5666
     2.8848   2.8894   2.9241   2.9300   3.3905   3.4898   3.5349   3.6069
     3.8406   4.0723   4.1897   4.3807   4.6660   4.6908   4.7314   4.7522
     4.7688   4.7727   4.8035   4.8455   5.3776   5.4541   5.5090   5.5369
     5.5753   5.6518   5.7126   5.7249   5.7530   5.7722   5.8059   5.8407
     6.1306   6.1554   6.1558   6.1875   6.3632   6.3645   6.3703   6.3827
     7.5735   7.5815   7.5830   7.5887   7.7845   7.7917

          k =-0.0088 0.3855-0.1249 ( 17934 PWs)   bands (ev):

[...]

          k =-0.0177 0.7711-0.2499 ( 17892 PWs)   bands (ev):

[...]

          k = 0.3381-0.2003 0.0564 ( 17935 PWs)   bands (ev):

    -7.7065  -7.6941  -7.6599  -7.6453  -6.9805  -6.9656  -6.9115  -6.8996
    -6.4467  -6.4416  -6.4253  -6.4222  -6.2540  -6.2478  -6.2394  -6.2342
     0.5341   0.5482   0.6031   0.6113   0.9023   0.9057   1.0344   1.0703
     1.1310   1.1329   1.2360   1.3121   1.6486   1.7167   1.7869   1.8192
     2.2494   2.2514   2.3287   2.3625   2.4844   2.5339   2.5993   2.6163
     2.7233   2.7240   2.7541   2.7550   3.1680   3.1695   3.1957   3.1965
     3.4445   3.5072   3.5293   3.5904   3.8251   3.8442   3.8560   3.8705
     4.5218   4.5449   4.5879   4.5943   4.8274   4.9273   5.0083   5.2376
     5.2422   5.2463   5.2673   5.2715   5.4682   5.6098   5.7294   5.7570
     6.1971   6.2468   6.2805   6.3346   6.8639   6.8809   6.9013   6.9146
     7.7404   7.7643   7.7820   7.8110   8.0213   8.0362

     the Fermi energy is     5.8719 ev

!    total energy              =    -563.35371485 Ry
     Harris-Foulkes estimate   =    -563.35371488 Ry
     estimated scf accuracy    <       0.00000004 Ry

     The total energy is the sum of the following terms:

     one-electron contribution =     -82.26748699 Ry
     hartree contribution      =     120.18231341 Ry
     xc contribution           =    -222.36032870 Ry
     ewald contribution        =    -378.91946058 Ry
     smearing contrib. (-TS)   =       0.01124800 Ry

     convergence has been achieved in  14 iterations

     Forces acting on atoms (cartesian axes, Ry/au):

     atom    1 type  1   force =     0.01811880    0.01018344   -0.00264103
     atom    2 type  1   force =    -0.02302047   -0.02214152   -0.00986726
     atom    3 type  1   force =    -0.02405643   -0.02258531   -0.00978389
     atom    4 type  1   force =     0.01798723    0.01020435   -0.00242635
     atom    5 type  1   force =     0.02302047    0.02214152    0.00986726
     atom    6 type  1   force =    -0.01811880   -0.01018344    0.00264103
     atom    7 type  1   force =    -0.01798723   -0.01020435    0.00242635
     atom    8 type  1   force =     0.02405643    0.02258531    0.00978389
     atom    9 type  2   force =    -0.00560339   -0.00670224    0.00937935
     atom   10 type  2   force =    -0.00258966    0.00723242    0.01411444
     atom   11 type  2   force =    -0.00186764    0.00678864    0.01416563
     atom   12 type  2   force =    -0.00528312   -0.00658735    0.00947874
     atom   13 type  2   force =     0.00528312    0.00658735   -0.00947874
     atom   14 type  2   force =     0.00186764   -0.00678864   -0.01416563
     atom   15 type  2   force =     0.00258966   -0.00723242   -0.01411444
     atom   16 type  2   force =     0.00560339    0.00670224   -0.00937935
     atom   17 type  2   force =    -0.01299779   -0.00229805    0.01475072
     atom   18 type  2   force =     0.00005984   -0.01099449   -0.00484627
     atom   19 type  2   force =    -0.00051233   -0.01074075   -0.00504527
     atom   20 type  2   force =    -0.01309130   -0.00224253    0.01448942
     atom   21 type  2   force =     0.01309130    0.00224253   -0.01448942
     atom   22 type  2   force =     0.00051233    0.01074075    0.00504527
     atom   23 type  2   force =    -0.00005984    0.01099449    0.00484627
     atom   24 type  2   force =     0.01299779    0.00229805   -0.01475072

     Total force =     0.100719     Total SCF correction =     0.000504

     General routines

     Parallel routines

   This run was terminated on:  11:48:15   8Sep2021

   JOB DONE.