     Program PWSCF v.6.4 starts on 23Dec2021 at 23: 4: 5

     R & G space division:  proc/nbgrp/npool/nimage =      40
     Waiting for input...
     Reading input from standard input
Warning: card    &IONS ignored
Warning: card      ION_DYNAMICS = 'BFGS' ignored
Warning: card   / ignored
Warning: card    &CELL ignored
Warning: card      CELL_DYNAMICS = 'BFGS', ignored
Warning: card    / ignored

     Current dimensions of program PWSCF are:
     Max number of different atomic species (ntypx) = 10
     Max number of k-points (npk) =  40000
     Max angular momentum in pseudopotentials (lmaxx) =  3

     bravais-lattice index     =            0
     lattice parameter (alat)  =      12.7884  a.u.
     unit-cell volume          =    4796.5267 (a.u.)^3
     number of atoms/cell      =           36
     number of atomic types    =            2
     number of electrons       =       216.00
     number of Kohn-Sham states=          130
     kinetic-energy cutoff     =      45.0000  Ry
     charge density cutoff     =     360.0000  Ry
     convergence threshold     =      1.0E-06
     mixing beta               =       0.7000
     number of iterations used =            8  local-TF  mixing
     Exchange-correlation      = SLA PW GGX GGC ( 1  4  2  2 0 0)

     celldm(1)=  12.788419  celldm(2)=   0.000000  celldm(3)=   0.000000
     celldm(4)=   0.000000  celldm(5)=   0.000000  celldm(6)=   0.000000

     crystal axes: (cart. coord. in units of alat)
               a(1) = (   1.000000   0.000000   0.000000 )
               a(2) = (   0.424918   1.345038   0.000000 )
               a(3) = (  -0.039690   0.130058   1.705068 )

     reciprocal axes: (cart. coord. in units 2 pi/alat)
               b(1) = (  1.000000 -0.315915  0.047375 )
               b(2) = (  0.000000  0.743473 -0.056710 )
               b(3) = (  0.000000  0.000000  0.586487 )

     PseudoPot. # 1 for Mo read from file:
     ~/pseudo/Mo.pw91-n-van.UPF
     MD5 check sum: Not computed, couldn't open file
     Pseudo is Ultrasoft + core correction, Zval =  6.0
     Generated by new atomic code, or converted to UPF format
     Using radial grid of  965 points,  3 beta functions with:
                l(1) =   1
                l(2) =   2
                l(3) =   2
     Q(r) pseudized with  8 coefficients,  rinner =    1.000   1.000   1.000
                                                       1.200   1.200

     PseudoPot. # 2 for S  read from file:
     ~/pseudo/S.pw91-van_ak.UPF
     MD5 check sum: Not computed, couldn't open file
     Pseudo is Ultrasoft, Zval =  6.0
     Generated by new atomic code, or converted to UPF format
     Using radial grid of  811 points,  6 beta functions with:
                l(1) =   0
                l(2) =   0
                l(3) =   1
                l(4) =   1
                l(5) =   2
                l(6) =   2
     Q(r) pseudized with  8 coefficients,  rinner =    1.100   1.100   1.100
                                                       1.100   1.100

     atomic species   valence    mass     pseudopotential
        Mo             6.00    95.50000     Mo( 1.00)
        S              6.00    32.06500     S ( 1.00)

     No symmetry found

   Cartesian axes

     site n.     atom                  positions (alat units)
         1           Mo  tau(   1) = (   1.1284161   0.6012364   1.0321062  )
         2           Mo  tau(   2) = (   0.3323462   0.2397599   1.5349590  )
         3           Mo  tau(   3) = (   1.1069668   0.6096187   0.2051739  )
         4           Mo  tau(   4) = (   1.1174791   1.0767779   0.4590495  )
         5           Mo  tau(   5) = (   0.3490526   0.6281674   0.6386605  )
         6           Mo  tau(   6) = (   1.2530641   1.0467760   0.8681980  )
         7           Mo  tau(   7) = (   0.6183566   0.6137318   0.1938445  )
         8           Mo  tau(   8) = (   0.5707978   0.6512892   1.0550960  )
         9           Mo  tau(   9) = (   0.6872789   1.1918873   1.3589993  )
        10           Mo  tau(  10) = (   0.8198527   0.7128104   1.4911722  )
        11           Mo  tau(  11) = (   0.9274969   1.0968755   0.0273603  )
        12           Mo  tau(  12) = (   0.6517589   0.0834212   0.7101246  )
        13           S   tau(  13) = (   0.1650592   0.3604287   0.7792872  )
        14           S   tau(  14) = (   0.6252511   0.4317774   0.7703083  )
        15           S   tau(  15) = (   1.0779380   0.9390432   1.6152660  )
        16           S   tau(  16) = (   0.0884407   0.5227031   1.6267794  )
        17           S   tau(  17) = (   0.3660429   0.4013369   1.2054945  )
        18           S   tau(  18) = (   0.5798404   0.4919891   1.6400205  )
        19           S   tau(  19) = (   0.8607054   0.8524146   0.3160365  )
        20           S   tau(  20) = (   0.8337602   1.2835955   0.5337094  )
        21           S   tau(  21) = (   0.9929420   1.2610522   0.9812630  )
        22           S   tau(  22) = (   1.0382523   0.7951022   0.7446343  )
        23           S   tau(  23) = (   1.1991778   1.2557688   0.1673001  )
        24           S   tau(  24) = (   0.3092126   0.8637849   1.1807934  )
        25           S   tau(  25) = (   0.3684549   0.4088715   0.3546973  )
        26           S   tau(  26) = (   0.3619119   0.8324965   0.3351371  )
        27           S   tau(  27) = (   0.4459738   1.4256455   1.4577977  )
        28           S   tau(  28) = (   1.3695781   1.2819922   0.6177661  )
        29           S   tau(  29) = (   0.6931009   1.3247359   0.1489214  )
        30           S   tau(  30) = (   0.5961189   0.9769527   1.6137875  )
        31           S   tau(  31) = (   0.5672131   0.8804131   0.7752595  )
        32           S   tau(  32) = (   0.4943373   1.2756268   1.0719421  )
        33           S   tau(  33) = (   0.8510268   0.4889953   1.2099730  )
        34           S   tau(  34) = (   0.8012226   0.8985094   1.1873251  )
        35           S   tau(  35) = (   0.8551068   0.4047839   0.3571717  )
        36           S   tau(  36) = (   0.9852731   1.3424379   1.4135703  )

     number of k points=     8  Marzari-Vanderbilt smearing, width (Ry)=  0.0200
                       cart. coord. in units 2pi/alat
        k(    1) = (   0.0000000   0.0000000   0.0000000), wk =   0.1666667
        k(    2) = (   0.0000000   0.0000000  -0.2932435), wk =   0.1666667
        k(    3) = (   0.0000000  -0.3717367   0.0283551), wk =   0.1666667
        k(    4) = (   0.0000000  -0.3717367  -0.2648884), wk =   0.1666667
        k(    5) = (   0.3333333  -0.1053051   0.0157916), wk =   0.3333333
        k(    6) = (   0.3333333  -0.1053051  -0.2774519), wk =   0.3333333
        k(    7) = (   0.3333333  -0.4770418   0.0441467), wk =   0.3333333
        k(    8) = (   0.3333333  -0.4770418  -0.2490968), wk =   0.3333333

     Initial potential from superposition of free atoms

     starting charge  215.98107, renormalised to  216.00000
     Starting wfcs are  204 randomized atomic wfcs

     Self-consistent Calculation

     iteration #  1     ecut=    45.00 Ry     beta= 0.70
     Davidson diagonalization with overlap
     ethr =  1.00E-02,  avg # of iterations =  2.0

     total energy              =    -842.50978875 Ry
     Harris-Foulkes estimate   =    -845.78049650 Ry
     estimated scf accuracy    <       8.73218017 Ry

[...]

     total energy              =    -844.24527624 Ry
     Harris-Foulkes estimate   =    -844.24527659 Ry
     estimated scf accuracy    <       0.00000266 Ry

     iteration # 13     ecut=    45.00 Ry     beta= 0.70
     Davidson diagonalization with overlap
     ethr =  1.23E-09,  avg # of iterations =  1.4

     End of self-consistent calculation

          k = 0.0000 0.0000 0.0000 ( 24461 PWs)   bands (ev):

    -7.1911  -6.6812  -6.4708  -6.1464  -6.0420  -5.9031  -5.8278  -5.7872
    -5.6595  -5.6411  -5.5159  -5.4807  -5.4163  -5.3666  -5.2997  -5.1970
    -5.1656  -5.0682  -4.9199  -4.8511  -4.7452  -4.6893  -4.5714  -4.2967
     0.9864   1.2553   1.3931   1.4947   1.5565   1.7311   1.8563   1.8677
     1.9205   1.9653   2.0903   2.1136   2.1734   2.1967   2.3303   2.3320
     2.3854   2.5157   2.5421   2.5821   2.6603   2.7256   2.8263   2.9202
     2.9506   2.9612   3.0168   3.1411   3.2512   3.2985   3.3841   3.4571
     3.5325   3.6069   3.6526   3.7247   3.7675   3.7773   3.9100   3.9212
     4.0201   4.1034   4.1389   4.2193   4.2789   4.3318   4.4085   4.4744
     4.5295   4.5423   4.5592   4.6724   4.7295   4.8805   4.9093   4.9982
     5.0726   5.1409   5.2885   5.4009   5.4258   5.5034   5.6525   5.6911
     5.7441   5.7970   5.9696   6.1368   6.1815   6.2650   6.2787   6.4415
     6.5469   6.6494   6.6840   6.7380   6.8076   6.9030   7.0530   7.1340
     7.1839   7.2634   7.3595   7.4499   7.4638   7.6740   7.7790   7.8564
     7.9417   8.0264   8.0369   8.1289   8.1911   8.2926   8.3162   8.3977
     8.4186   8.5575   8.6401   8.6908   8.7492   8.8517   8.9373   9.1095
     9.2701   9.3170

[...]

          k = 0.3333-0.4770-0.2491 ( 24432 PWs)   bands (ev):

    -6.8905  -6.7644  -6.4120  -6.2170  -6.0608  -5.9909  -5.9526  -5.8278
    -5.7149  -5.6311  -5.5652  -5.4484  -5.3874  -5.3246  -5.2837  -5.2283
    -5.1175  -5.0692  -4.9667  -4.8261  -4.8196  -4.6763  -4.6269  -4.2860
     1.2119   1.3812   1.4872   1.6206   1.7104   1.7413   1.8013   1.8364
     1.9393   2.0173   2.1131   2.1702   2.2536   2.3042   2.3146   2.3917
     2.4557   2.5057   2.6161   2.6429   2.7026   2.7554   2.8325   2.9440
     2.9816   3.0419   3.1963   3.2200   3.2539   3.3494   3.4085   3.4683
     3.5217   3.5475   3.5754   3.6749   3.7174   3.8118   3.8526   3.8927
     3.9875   4.0948   4.1571   4.2106   4.2196   4.3042   4.3476   4.3998
     4.4612   4.4984   4.5963   4.6417   4.6997   4.7459   4.8205   4.8726
     4.9610   5.0463   5.1436   5.2233   5.3077   5.4130   5.4768   5.5667
     5.6848   5.7684   5.8741   5.9318   6.0555   6.2246   6.2920   6.3378
     6.4390   6.5071   6.6265   6.7211   6.8069   6.9759   7.0192   7.1805
     7.2109   7.2990   7.3656   7.4592   7.5179   7.6596   7.7060   7.7595
     7.8096   7.8798   8.0209   8.1319   8.1943   8.2575   8.3570   8.4474
     8.4879   8.5578   8.6708   8.7541   8.7927   8.9437   9.0178   9.1852
     9.2206   9.2961

     the Fermi energy is     7.4978 ev

!    total energy              =    -844.24527596 Ry
     Harris-Foulkes estimate   =    -844.24527643 Ry
     estimated scf accuracy    <       0.00000061 Ry

     The total energy is the sum of the following terms:

     one-electron contribution =      49.83598073 Ry
     hartree contribution      =     103.50635899 Ry
     xc contribution           =    -333.68032525 Ry
     ewald contribution        =    -663.90821310 Ry
     smearing contrib. (-TS)   =       0.00092267 Ry

     convergence has been achieved in  13 iterations

     Forces acting on atoms (cartesian axes, Ry/au):

     atom    1 type  1   force =    -0.00143658    0.02318864   -0.00457132
     atom    2 type  1   force =    -0.06847965   -0.03666158    0.00152994
     atom    3 type  1   force =     0.01760754   -0.03920541    0.00061956
     atom    4 type  1   force =    -0.01027847    0.05276593    0.01026698
     atom    5 type  1   force =    -0.00206882    0.03834767   -0.01368765
     atom    6 type  1   force =     0.03593432    0.04657193   -0.02351329
     atom    7 type  1   force =     0.00728464   -0.02121326    0.00110306
     atom    8 type  1   force =     0.03275100   -0.00925324    0.00876840
     atom    9 type  1   force =    -0.05064391    0.00369645   -0.02634634
     atom   10 type  1   force =     0.02388000   -0.02093534    0.00106381
     atom   11 type  1   force =    -0.01259446    0.02620012    0.03855505
     atom   12 type  1   force =     0.00076039   -0.03858416   -0.00218986
     atom   13 type  2   force =    -0.01363292   -0.00622393    0.01808560
     atom   14 type  2   force =    -0.00173111    0.00357406    0.00278702
     atom   15 type  2   force =     0.00095194    0.00694590    0.00141816
     atom   16 type  2   force =    -0.00229020   -0.00373835    0.00581085
     atom   17 type  2   force =    -0.00267033   -0.00704499    0.00896361
     atom   18 type  2   force =    -0.01324417    0.00524805    0.00431544
     atom   19 type  2   force =    -0.00004451    0.02335479   -0.01417894
     atom   20 type  2   force =     0.00715944   -0.01120506   -0.01946970
     atom   21 type  2   force =    -0.00607905    0.00798668    0.03317319
     atom   22 type  2   force =    -0.00182085    0.00844784   -0.02709859
     atom   23 type  2   force =     0.00198692    0.00203963    0.00140223
     atom   24 type  2   force =    -0.00330571   -0.00494171    0.00689092
     atom   25 type  2   force =    -0.00025743   -0.02950248   -0.00834555
     atom   26 type  2   force =     0.00924593    0.00107131   -0.00152665
     atom   27 type  2   force =     0.03453861    0.01772466   -0.01187329
     atom   28 type  2   force =     0.00388265   -0.03158577   -0.00566004
     atom   29 type  2   force =     0.00835255   -0.00968689    0.00543110
     atom   30 type  2   force =    -0.02032238    0.01429768    0.00645522
     atom   31 type  2   force =     0.00282203   -0.00341135   -0.00170440
     atom   32 type  2   force =    -0.00596401   -0.00061335    0.00218682
     atom   33 type  2   force =    -0.01257829   -0.06156125    0.01786653
     atom   34 type  2   force =    -0.00080541    0.02077275   -0.01739665
     atom   35 type  2   force =    -0.00262843    0.00837205   -0.00210804
     atom   36 type  2   force =     0.04571871    0.02476196    0.00297683

     Total force =     0.209376     Total SCF correction =     0.001596

     General routines

     Parallel routines

   This run was terminated on:  23: 6: 2  23Dec2021

   JOB DONE.