     Program PWSCF v.6.4 starts on  8Sep2021 at 11:58: 0

     R & G space division:  proc/nbgrp/npool/nimage =      40
     Waiting for input...
     Reading input from standard input
Warning: card    &IONS ignored
Warning: card      ION_DYNAMICS = 'BFGS' ignored
Warning: card   / ignored
Warning: card    &CELL ignored
Warning: card      CELL_DYNAMICS = 'BFGS', ignored
Warning: card    / ignored

     Current dimensions of program PWSCF are:
     Max number of different atomic species (ntypx) = 10
     Max number of k-points (npk) =  40000
     Max angular momentum in pseudopotentials (lmaxx) =  3

     bravais-lattice index     =            0
     lattice parameter (alat)  =      12.4787  a.u.
     unit-cell volume          =    3516.8147 (a.u.)^3
     number of atoms/cell      =           24
     number of atomic types    =            2
     number of electrons       =       144.00
     number of Kohn-Sham states=           86
     kinetic-energy cutoff     =      45.0000  Ry
     charge density cutoff     =     360.0000  Ry
     convergence threshold     =      1.0E-06
     mixing beta               =       0.7000
     number of iterations used =            8  local-TF  mixing
     Exchange-correlation      = SLA PW GGX GGC ( 1  4  2  2 0 0)

     celldm(1)=  12.478718  celldm(2)=   0.000000  celldm(3)=   0.000000
     celldm(4)=   0.000000  celldm(5)=   0.000000  celldm(6)=   0.000000

     crystal axes: (cart. coord. in units of alat)
               a(1) = (   0.999811   0.018690  -0.005267 )
               a(2) = (  -0.241383   0.418719  -0.000084 )
               a(3) = (  -0.269401  -0.157775   4.278948 )

     reciprocal axes: (cart. coord. in units 2 pi/alat)
               b(1) = (  0.989959  0.570708  0.083371 )
               b(2) = ( -0.043729  2.363042  0.084378 )
               b(3) = (  0.001218  0.000749  0.233807 )

     PseudoPot. # 1 for Mo read from file:
     ~/pseudo/Mo.pw91-n-van.UPF
     MD5 check sum: Not computed, couldn't open file
     Pseudo is Ultrasoft + core correction, Zval =  6.0
     Generated by new atomic code, or converted to UPF format
     Using radial grid of  965 points,  3 beta functions with:
                l(1) =   1
                l(2) =   2
                l(3) =   2
     Q(r) pseudized with  8 coefficients,  rinner =    1.000   1.000   1.000
                                                       1.200   1.200

     PseudoPot. # 2 for S  read from file:
     ~/pseudo/S.pw91-van_ak.UPF
     MD5 check sum: Not computed, couldn't open file
     Pseudo is Ultrasoft, Zval =  6.0
     Generated by new atomic code, or converted to UPF format
     Using radial grid of  811 points,  6 beta functions with:
                l(1) =   0
                l(2) =   0
                l(3) =   1
                l(4) =   1
                l(5) =   2
                l(6) =   2
     Q(r) pseudized with  8 coefficients,  rinner =    1.100   1.100   1.100
                                                       1.100   1.100

     atomic species   valence    mass     pseudopotential
        Mo             6.00    95.50000     Mo( 1.00)
        S              6.00    32.06500     S ( 1.00)

     No symmetry found

   Cartesian axes

     site n.     atom                  positions (alat units)
         1           Mo  tau(   1) = (   0.0894848   0.1364951   1.5566965  )
         2           Mo  tau(   2) = (  -0.3270183  -0.0152465   3.8101337  )
         3           Mo  tau(   3) = (   0.5122296   0.1016635   1.5793337  )
         4           Mo  tau(   4) = (   0.2514088   0.0385935   3.7826679  )
         5           Mo  tau(   5) = (  -0.0954901  -0.1999824   0.5429067  )
         6           Mo  tau(   6) = (  -0.2093420  -0.2327303   2.6467871  )
         7           Mo  tau(   7) = (   0.4802418  -0.1472386   0.5196427  )
         8           Mo  tau(   8) = (   0.2134803  -0.2673719   2.6679727  )
         9           S   tau(   9) = (   0.3034193   0.2604769   1.8352165  )
        10           S   tau(  10) = (  -0.0399058   0.1501314   3.9985982  )
        11           S   tau(  11) = (   0.7990928   0.2670055   1.7671979  )
        12           S   tau(  12) = (   0.4639981   0.1622912   4.0610063  )
        13           S   tau(  13) = (  -0.0462717   0.1073128   0.3275061  )
        14           S   tau(  14) = (  -0.2432711   0.0267345   2.3906289  )
        15           S   tau(  15) = (   0.4443118   0.1108760   0.2629445  )
        16           S   tau(  16) = (   0.2620473   0.0389434   2.4513153  )
        17           S   tau(  17) = (  -0.0517209   0.3830921   0.7349877  )
        18           S   tau(  18) = (  -0.2352591   0.3106876   2.9237765  )
        19           S   tau(  19) = (   0.4574534   0.3978329   0.7939962  )
        20           S   tau(  20) = (   0.2595283   0.3170227   2.8579947  )
        21           S   tau(  21) = (   0.2983943  -0.0221793   1.3009678  )
        22           S   tau(  22) = (  -0.0355965  -0.1263271   3.5942915  )
        23           S   tau(  23) = (   0.8022621  -0.0100147   1.3636142  )
        24           S   tau(  24) = (   0.4600207  -0.1201324   3.5264602  )

     number of k points=     8  Marzari-Vanderbilt smearing, width (Ry)=  0.0200
                       cart. coord. in units 2pi/alat
        k(    1) = (   0.0000000   0.0000000   0.0000000), wk =   0.1333333
        k(    2) = (  -0.0087459   0.4726084   0.0168755), wk =   0.2666667
        k(    3) = (  -0.0174918   0.9452168   0.0337510), wk =   0.2666667
        k(    4) = (   0.3299864   0.1902361   0.0277902), wk =   0.2666667
        k(    5) = (   0.3212405   0.6628445   0.0446658), wk =   0.2666667
        k(    6) = (   0.3124946   1.1354529   0.0615413), wk =   0.2666667
        k(    7) = (   0.3474782  -0.7549807  -0.0059608), wk =   0.2666667
        k(    8) = (   0.3387323  -0.2823723   0.0109147), wk =   0.2666667

     Initial potential from superposition of free atoms

     starting charge  143.98738, renormalised to  144.00000
     Starting wfcs are  136 randomized atomic wfcs

     Self-consistent Calculation

     iteration #  1     ecut=    45.00 Ry     beta= 0.70
     Davidson diagonalization with overlap
     ethr =  1.00E-02,  avg # of iterations =  2.0

     total energy              =    -562.37731726 Ry
     Harris-Foulkes estimate   =    -564.27341777 Ry
     estimated scf accuracy    <       4.97103844 Ry

[...]

     total energy              =    -563.38466219 Ry
     Harris-Foulkes estimate   =    -563.38466337 Ry
     estimated scf accuracy    <       0.00000410 Ry

     iteration # 17     ecut=    45.00 Ry     beta= 0.70
     Davidson diagonalization with overlap
     ethr =  2.85E-09,  avg # of iterations =  3.1

     End of self-consistent calculation

          k = 0.0000 0.0000 0.0000 ( 18057 PWs)   bands (ev):

    -8.1784  -8.1065  -8.0950  -8.0613  -7.2015  -7.1280  -7.1188  -7.0879
    -6.4929  -6.4328  -6.4134  -6.3890  -6.3878  -6.3586  -6.3548  -6.3111
    -0.0618   0.0167   0.0296   0.0531   0.3900   0.5774   0.6236   0.7596
     1.2916   1.3471   1.3643   1.4137   1.4503   1.5138   1.5313   1.5711
     2.6037   2.6666   2.6681   2.6719   2.6909   2.7260   2.7294   2.7666
     2.9636   3.0357   3.0577   3.1014   3.2830   3.3747   3.4445   3.5028
     3.6894   3.9632   4.0220   4.2030   4.5751   4.6307   4.6530   4.7505
     4.8347   4.9340   4.9351   4.9637   5.1557   5.3559   5.3786   5.4585
     5.5380   5.5517   5.5937   5.6408   5.7857   5.7981   5.8007   5.8324
     6.2787   6.3619   6.3635   6.3835   6.3908   6.5046   6.5146   6.5269
     7.7152   7.8147   7.8284   7.8360   7.8483   7.9037

          k =-0.0087 0.4726 0.0169 ( 17950 PWs)   bands (ev):

[...]

          k =-0.0175 0.9452 0.0338 ( 17869 PWs)   bands (ev):

[...]

          k = 0.3387-0.2824 0.0109 ( 17951 PWs)   bands (ev):

    -7.7036  -7.6324  -7.6210  -7.5871  -7.0135  -6.9430  -6.9351  -6.9051
    -6.4274  -6.3807  -6.3708  -6.3301  -6.2689  -6.1972  -6.1928  -6.1673
     0.5037   0.5751   0.5810   0.6192   0.7949   0.8984   0.9698   0.9809
     1.1760   1.2559   1.3107   1.3890   1.5255   1.6024   1.6464   1.6708
     2.1889   2.2527   2.3075   2.3189   2.4673   2.5810   2.6273   2.6427
     2.6809   2.6920   2.7227   2.7271   3.1047   3.1650   3.1725   3.2081
     3.3198   3.3935   3.4172   3.4575   3.5306   3.5978   3.6103   3.6304
     4.3186   4.3887   4.4276   4.4506   4.8548   4.9611   5.0226   5.0465
     5.0771   5.1146   5.1504   5.2125   5.3111   5.4031   5.5072   5.5541
     6.2264   6.2730   6.2928   6.3520   6.9600   7.0308   7.0534   7.0860
     7.9866   8.0344   8.0736   8.1107   8.2074   8.2298

     the Fermi energy is     5.8122 ev

!    total energy              =    -563.38466246 Ry
     Harris-Foulkes estimate   =    -563.38466304 Ry
     estimated scf accuracy    <       0.00000063 Ry

     The total energy is the sum of the following terms:

     one-electron contribution =    -120.65267237 Ry
     hartree contribution      =     139.31758558 Ry
     xc contribution           =    -222.48484579 Ry
     ewald contribution        =    -359.57790288 Ry
     smearing contrib. (-TS)   =       0.01317300 Ry

     convergence has been achieved in  17 iterations

     Forces acting on atoms (cartesian axes, Ry/au):

     atom    1 type  1   force =     0.00277216    0.00149930    0.00070224
     atom    2 type  1   force =     0.00211682    0.00144363    0.00145254
     atom    3 type  1   force =    -0.00182554   -0.00082737    0.00118475
     atom    4 type  1   force =    -0.00211633   -0.00118096   -0.00071127
     atom    5 type  1   force =    -0.00551020   -0.00293987    0.00066571
     atom    6 type  1   force =     0.00247048    0.00114101   -0.00096537
     atom    7 type  1   force =     0.00452607    0.00267688   -0.00157016
     atom    8 type  1   force =    -0.00159290   -0.00117934   -0.00152657
     atom    9 type  2   force =    -0.00106225   -0.00049974   -0.00266378
     atom   10 type  2   force =     0.00129786    0.00079799   -0.00045459
     atom   11 type  2   force =     0.00096061    0.00067678    0.00238419
     atom   12 type  2   force =     0.00119999    0.00034301   -0.00329754
     atom   13 type  2   force =    -0.00317418   -0.00194398    0.00060096
     atom   14 type  2   force =     0.00201175    0.00108573    0.00147899
     atom   15 type  2   force =     0.00378042    0.00264580    0.00160857
     atom   16 type  2   force =     0.00031464    0.00034698    0.00054559
     atom   17 type  2   force =     0.00258854    0.00149238   -0.00137635
     atom   18 type  2   force =    -0.00147516   -0.00132899   -0.00058887
     atom   19 type  2   force =    -0.00412621   -0.00214983   -0.00116197
     atom   20 type  2   force =    -0.00106337   -0.00012009   -0.00008364
     atom   21 type  2   force =     0.00030058    0.00036569    0.00314737
     atom   22 type  2   force =    -0.00205627   -0.00168485   -0.00113977
     atom   23 type  2   force =    -0.00004683   -0.00032586   -0.00083452
     atom   24 type  2   force =    -0.00029067   -0.00033429    0.00260352

     Total force =     0.016035     Total SCF correction =     0.001876
     SCF correction compared to forces is large: reduce conv_thr to get better values

     General routines

     Parallel routines

   This run was terminated on:  11:59: 5   8Sep2021

   JOB DONE.