     Program PWSCF v.6.4 starts on  3Dec2021 at 17:51: 6

     R & G space division:  proc/nbgrp/npool/nimage =      40
     Waiting for input...
     Reading input from standard input
Warning: card    &IONS ignored
Warning: card      ION_DYNAMICS = 'BFGS' ignored
Warning: card   / ignored
Warning: card    &CELL ignored
Warning: card      CELL_DYNAMICS = 'BFGS', ignored
Warning: card    / ignored

     Current dimensions of program PWSCF are:
     Max number of different atomic species (ntypx) = 10
     Max number of k-points (npk) =  40000
     Max angular momentum in pseudopotentials (lmaxx) =  3

     bravais-lattice index     =            0
     lattice parameter (alat)  =      11.8301  a.u.
     unit-cell volume          =   13924.7332 (a.u.)^3
     number of atoms/cell      =           36
     number of atomic types    =            2
     number of electrons       =       216.00
     number of Kohn-Sham states=          130
     kinetic-energy cutoff     =      45.0000  Ry
     charge density cutoff     =     360.0000  Ry
     convergence threshold     =      1.0E-06
     mixing beta               =       0.7000
     number of iterations used =            8  local-TF  mixing
     Exchange-correlation      = SLA PW GGX GGC ( 1  4  2  2 0 0)

     celldm(1)=  11.830118  celldm(2)=   0.000000  celldm(3)=   0.000000
     celldm(4)=   0.000000  celldm(5)=   0.000000  celldm(6)=   0.000000

     crystal axes: (cart. coord. in units of alat)
               a(1) = (   1.000000   0.000000   0.000000 )
               a(2) = (  -0.488707   1.893625   0.000000 )
               a(3) = (  -0.215598  -1.001567   4.441460 )

     reciprocal axes: (cart. coord. in units 2 pi/alat)
               b(1) = (  1.000000  0.258080  0.106740 )
               b(2) = (  0.000000  0.528088  0.119086 )
               b(3) = (  0.000000  0.000000  0.225151 )

     PseudoPot. # 1 for Mo read from file:
     ~/pseudo/Mo.pw91-n-van.UPF
     MD5 check sum: Not computed, couldn't open file
     Pseudo is Ultrasoft + core correction, Zval =  6.0
     Generated by new atomic code, or converted to UPF format
     Using radial grid of  965 points,  3 beta functions with:
                l(1) =   1
                l(2) =   2
                l(3) =   2
     Q(r) pseudized with  8 coefficients,  rinner =    1.000   1.000   1.000
                                                       1.200   1.200

     PseudoPot. # 2 for S  read from file:
     ~/pseudo/S.pw91-van_ak.UPF
     MD5 check sum: Not computed, couldn't open file
     Pseudo is Ultrasoft, Zval =  6.0
     Generated by new atomic code, or converted to UPF format
     Using radial grid of  811 points,  6 beta functions with:
                l(1) =   0
                l(2) =   0
                l(3) =   1
                l(4) =   1
                l(5) =   2
                l(6) =   2
     Q(r) pseudized with  8 coefficients,  rinner =    1.100   1.100   1.100
                                                       1.100   1.100

     atomic species   valence    mass     pseudopotential
        Mo             6.00    95.50000     Mo( 1.00)
        S              6.00    32.06500     S ( 1.00)

     No symmetry found

   Cartesian axes

     site n.     atom                  positions (alat units)
         1           Mo  tau(   1) = (  -0.0381063   0.7793366   1.2353927  )
         2           Mo  tau(   2) = (  -0.2740215   1.2121321   1.1060892  )
         3           Mo  tau(   3) = (   0.4775419   0.7928441   1.2064350  )
         4           Mo  tau(   4) = (   0.2028974   1.2395469   1.0973776  )
         5           Mo  tau(   5) = (  -0.0334054  -0.0695608   1.3198256  )
         6           Mo  tau(   6) = (   0.4657936  -0.0727328   1.3200477  )
         7           Mo  tau(   7) = (   0.2169721   0.3367074   1.2753410  )
         8           Mo  tau(   8) = (   0.7167524   0.3382453   1.2751742  )
         9           Mo  tau(   9) = (   0.0010887   0.9364110   0.6397269  )
        10           Mo  tau(  10) = (   0.4549147   0.8890781   0.6880104  )
        11           Mo  tau(  11) = (   0.1518700   0.3026461   3.3439416  )
        12           Mo  tau(  12) = (  -0.3470444   0.3023147   3.3436646  )
        13           S   tau(  13) = (   0.1981178   0.9122048   0.9713719  )
        14           S   tau(  14) = (   0.4661945   0.4667040   1.0025890  )
        15           S   tau(  15) = (  -0.2594874   0.8988983   0.9390189  )
        16           S   tau(  16) = (  -0.0329423   0.4638426   1.0103875  )
        17           S   tau(  17) = (  -0.0977969   0.0910862   3.5121778  )
        18           S   tau(  18) = (   0.4017173   0.1337855   3.1337842  )
        19           S   tau(  19) = (   0.2231331   1.0112733   1.4214420  )
        20           S   tau(  20) = (   0.4668157   0.5384829   1.4997620  )
        21           S   tau(  21) = (  -0.2820845   1.0086572   1.4345025  )
        22           S   tau(  22) = (  -0.0328087   0.5176023   1.5208573  )
        23           S   tau(  23) = (  -0.0973329   0.5125230   3.1736143  )
        24           S   tau(  24) = (   0.4029338   0.4724242   3.5527009  )
        25           S   tau(  25) = (  -0.0466922   1.3078270   0.7994714  )
        26           S   tau(  26) = (   0.4478778   1.2888744   0.7442944  )
        27           S   tau(  27) = (  -0.0382125   1.4374228   1.3245791  )
        28           S   tau(  28) = (  -0.5302733   1.4460375   1.2689168  )
        29           S   tau(  29) = (   0.2170317   0.0628207   1.5769260  )
        30           S   tau(  30) = (   0.7152185   0.0646330   1.5763344  )
        31           S   tau(  31) = (   0.7289419   0.6488783   0.5063915  )
        32           S   tau(  32) = (   0.2776197   1.1777877   0.4743062  )
        33           S   tau(  33) = (   0.2175492   0.0029023   1.0456254  )
        34           S   tau(  34) = (   0.7157648   0.0047722   1.0469436  )
        35           S   tau(  35) = (  -0.2999320   0.9598705   0.3789918  )
        36           S   tau(  36) = (   0.2283313   0.6689334   0.4922085  )

     number of k points=     4  Marzari-Vanderbilt smearing, width (Ry)=  0.0200
                       cart. coord. in units 2pi/alat
        k(    1) = (   0.0000000   0.0000000   0.0000000), wk =   0.3333333
        k(    2) = (   0.0000000  -0.2640439  -0.0595429), wk =   0.3333333
        k(    3) = (   0.3333333   0.0860267   0.0355801), wk =   0.6666667
        k(    4) = (   0.3333333  -0.1780171  -0.0239629), wk =   0.6666667

     Initial potential from superposition of free atoms

     starting charge  215.98107, renormalised to  216.00000

     negative rho (up, down):  1.234E-03 0.000E+00
     Starting wfcs are  204 randomized atomic wfcs

     Self-consistent Calculation

     iteration #  1     ecut=    45.00 Ry     beta= 0.70
     Davidson diagonalization with overlap
     ethr =  1.00E-02,  avg # of iterations =  2.5

     negative rho (up, down):  4.737E-05 0.000E+00

     total energy              =    -843.18987711 Ry
     Harris-Foulkes estimate   =    -845.53335364 Ry
     estimated scf accuracy    <       6.70027932 Ry

[...]

     iteration #  8     ecut=    45.00 Ry     beta= 0.70
     Davidson diagonalization with overlap
     c_bands:  1 eigenvalues not converged
     ethr =  1.13E-05,  avg # of iterations = 15.2

[...]

     total energy              =    -844.36010428 Ry
     Harris-Foulkes estimate   =    -844.36011020 Ry
     estimated scf accuracy    <       0.00000125 Ry

     iteration # 20     ecut=    45.00 Ry     beta= 0.70
     Davidson diagonalization with overlap
     ethr =  5.79E-10,  avg # of iterations =  2.5

[...]

     End of self-consistent calculation

          k = 0.0000 0.0000 0.0000 ( 71053 PWs)   bands (ev):

   -17.0016 -16.3982 -16.1866 -15.4327 -15.1160 -14.6755 -14.4809 -14.2196
   -13.9904 -13.8694 -13.8275 -13.7289 -13.7248 -13.6570 -13.6415 -13.5238
   -13.4804 -13.4407 -13.4326 -13.1334 -13.1282 -13.0394 -12.7134 -12.4337
    -8.6054  -8.1897  -7.7688  -7.6846  -7.3287  -6.9433  -6.8563  -6.8254
    -6.7335  -6.6945  -6.5933  -6.4889  -6.3868  -6.2540  -6.2189  -6.1739
    -6.0324  -5.9270  -5.8496  -5.7420  -5.7265  -5.6274  -5.6014  -5.4783
    -5.4118  -5.3775  -5.3017  -5.1736  -5.0916  -4.9358  -4.8999  -4.7057
    -4.6695  -4.6252  -4.6153  -4.6143  -4.6028  -4.4788  -4.4292  -4.3588
    -4.2466  -4.2174  -4.1873  -4.1613  -4.1307  -4.1044  -4.0933  -3.9108
    -3.7746  -3.7215  -3.6553  -3.6297  -3.5332  -3.4841  -3.4646  -3.4237
    -3.3242  -3.3075  -3.2614  -3.1632  -3.0728  -3.0015  -2.9261  -2.8745
    -2.6897  -2.6800  -2.6327  -2.5937  -2.4469  -2.3696  -2.3095  -2.2172
    -2.1139  -2.1125  -2.0822  -2.0526  -1.7745  -1.7422  -1.2224  -1.0633
    -1.0553  -0.9819  -0.8619  -0.8274  -0.7367  -0.6316  -0.5805  -0.5326
    -0.2524  -0.1587   0.1072   0.1756   0.1995   0.2865   0.3915   0.5270
     0.6066   0.6085   0.6323   0.6894   0.8758   0.9098   0.9849   0.9937
     1.0750   1.1228

[...]

          k = 0.3333-0.1780-0.0240 ( 70974 PWs)   bands (ev):

   -16.8295 -16.4357 -16.1551 -15.6335 -14.8675 -14.5078 -14.2466 -14.1906
   -14.0683 -14.0211 -13.9117 -13.8175 -13.7782 -13.7463 -13.7264 -13.6094
   -13.5478 -13.4940 -13.4404 -13.2048 -13.1274 -13.1225 -12.6917 -12.4630
    -8.1669  -7.9387  -7.6801  -7.5204  -7.3313  -6.8449  -6.7491  -6.5729
    -6.5051  -6.4448  -6.3732  -6.2257  -6.1867  -6.0980  -6.0517  -5.9285
    -5.8855  -5.8464  -5.7701  -5.7083  -5.6173  -5.5721  -5.5212  -5.3438
    -5.2833  -5.2730  -5.1912  -5.1023  -5.0598  -5.0059  -4.8096  -4.7776
    -4.7329  -4.6580  -4.6446  -4.6095  -4.5380  -4.5208  -4.5197  -4.4685
    -4.4562  -4.3613  -4.3434  -4.3009  -4.2445  -4.1247  -4.1123  -4.0039
    -4.0006  -3.9944  -3.9362  -3.8302  -3.8085  -3.7121  -3.6105  -3.5664
    -3.5074  -3.4555  -3.3792  -3.2266  -3.2107  -3.1921  -3.1828  -3.1624
    -2.9887  -2.9790  -2.9129  -2.7955  -2.7295  -2.6145  -2.4844  -2.4248
    -2.2983  -2.2510  -2.0387  -1.8761  -1.6798  -1.5653  -1.1723  -1.0452
    -0.9465  -0.9256  -0.8343  -0.8221  -0.6697  -0.5143  -0.4479  -0.3073
    -0.2176  -0.1412  -0.0700  -0.0091   0.1405   0.2463   0.3005   0.3632
     0.4933   0.5557   0.6083   0.6775   0.7189   0.8534   0.9028   0.9062
     0.9298   0.9438

     the Fermi energy is    -0.7240 ev

!    total energy              =    -844.36010461 Ry
     Harris-Foulkes estimate   =    -844.36010438 Ry
     estimated scf accuracy    <       0.00000040 Ry

     The total energy is the sum of the following terms:

     one-electron contribution =   -5489.93154618 Ry
     hartree contribution      =    2806.03797959 Ry
     xc contribution           =    -334.13021407 Ry
     ewald contribution        =    2173.66944167 Ry
     smearing contrib. (-TS)   =      -0.00576562 Ry

     convergence has been achieved in  20 iterations

     negative rho (up, down):  1.989E-03 0.000E+00

     Forces acting on atoms (cartesian axes, Ry/au):

     atom    1 type  1   force =     0.01259135    0.01463543    0.03335543
     atom    2 type  1   force =    -0.02921097    0.09251636    0.07148508
     atom    3 type  1   force =    -0.02190293    0.02321543    0.03888465
     atom    4 type  1   force =     0.04095585    0.11599117    0.00862450
     atom    5 type  1   force =    -0.00233522   -0.06424882    0.01668095
     atom    6 type  1   force =    -0.00045775   -0.06974724    0.02393028
     atom    7 type  1   force =    -0.00052365    0.02262513    0.01337009
     atom    8 type  1   force =     0.00434976    0.01192894    0.01505514
     atom    9 type  1   force =    -0.02224084   -0.02578572   -0.06158547
     atom   10 type  1   force =     0.01154095    0.06469814   -0.08767052
     atom   11 type  1   force =    -0.00023910   -0.00050495   -0.00060810
     atom   12 type  1   force =    -0.00104484   -0.00001064   -0.00285706
     atom   13 type  2   force =    -0.01696103   -0.12894205   -0.03508947
     atom   14 type  2   force =     0.00239942   -0.03523352    0.00649377
     atom   15 type  2   force =     0.03220341   -0.07880614   -0.02343233
     atom   16 type  2   force =    -0.00081917   -0.02148755   -0.00050903
     atom   17 type  2   force =     0.00066551   -0.01437324    0.01285978
     atom   18 type  2   force =     0.00121505   -0.01206536   -0.01441818
     atom   19 type  2   force =    -0.00237150   -0.02822852    0.00137119
     atom   20 type  2   force =     0.00199822   -0.01274375   -0.00156336
     atom   21 type  2   force =    -0.00456323   -0.03979956   -0.00128683
     atom   22 type  2   force =     0.00015825   -0.00653020   -0.01693395
     atom   23 type  2   force =    -0.00053927    0.01417765   -0.01089071
     atom   24 type  2   force =    -0.00074453    0.01223943    0.01619536
     atom   25 type  2   force =    -0.00656427    0.01836406    0.03521431
     atom   26 type  2   force =     0.01278284    0.01129605    0.06481995
     atom   27 type  2   force =    -0.00179002    0.01730516   -0.02186484
     atom   28 type  2   force =     0.00948391    0.02706848   -0.00603815
     atom   29 type  2   force =     0.00227952    0.02867652   -0.01551432
     atom   30 type  2   force =    -0.00147347    0.02786480   -0.01629866
     atom   31 type  2   force =     0.00691042    0.04403049   -0.01335038
     atom   32 type  2   force =    -0.03400687   -0.03745832   -0.02558642
     atom   33 type  2   force =    -0.00010185    0.03538430   -0.00753129
     atom   34 type  2   force =    -0.00148647    0.04021388   -0.00933133
     atom   35 type  2   force =     0.02608394   -0.03645729    0.00852622
     atom   36 type  2   force =    -0.01624139   -0.00980854    0.00549368

     Total force =     0.338281     Total SCF correction =     0.000897

     General routines

     Parallel routines

   This run was terminated on:  17:56: 7   3Dec2021

   JOB DONE.