     Program PWSCF v.6.4 starts on 10Nov2021 at 18: 9: 3

     R & G space division:  proc/nbgrp/npool/nimage =      40
     Waiting for input...
     Reading input from standard input
Warning: card    &IONS ignored
Warning: card      ION_DYNAMICS = 'BFGS' ignored
Warning: card   / ignored
Warning: card    &CELL ignored
Warning: card      CELL_DYNAMICS = 'BFGS', ignored
Warning: card    / ignored

     Current dimensions of program PWSCF are:
     Max number of different atomic species (ntypx) = 10
     Max number of k-points (npk) =  40000
     Max angular momentum in pseudopotentials (lmaxx) =  3

     bravais-lattice index     =            0
     lattice parameter (alat)  =       6.0845  a.u.
     unit-cell volume          =     881.4096 (a.u.)^3
     number of atoms/cell      =            6
     number of atomic types    =            2
     number of electrons       =        36.00
     number of Kohn-Sham states=           22
     kinetic-energy cutoff     =      45.0000  Ry
     charge density cutoff     =     360.0000  Ry
     convergence threshold     =      1.0E-06
     mixing beta               =       0.7000
     number of iterations used =            8  local-TF  mixing
     Exchange-correlation      = SLA PW GGX GGC ( 1  4  2  2 0 0)

     celldm(1)=   6.084521  celldm(2)=   0.000000  celldm(3)=   0.000000
     celldm(4)=   0.000000  celldm(5)=   0.000000  celldm(6)=   0.000000

     crystal axes: (cart. coord. in units of alat)
               a(1) = (   1.000000   0.000000   0.000000 )
               a(2) = (  -0.498175   0.863710   0.000000 )
               a(3) = (   0.066452  -0.132336   4.530339 )

     reciprocal axes: (cart. coord. in units 2 pi/alat)
               b(1) = (  1.000000  0.576785  0.002180 )
               b(2) = (  0.000000  1.157796  0.033820 )
               b(3) = (  0.000000  0.000000  0.220734 )

     PseudoPot. # 1 for Mo read from file:
     ~/pseudo/Mo.pw91-n-van.UPF
     MD5 check sum: Not computed, couldn't open file
     Pseudo is Ultrasoft + core correction, Zval =  6.0
     Generated by new atomic code, or converted to UPF format
     Using radial grid of  965 points,  3 beta functions with:
                l(1) =   1
                l(2) =   2
                l(3) =   2
     Q(r) pseudized with  8 coefficients,  rinner =    1.000   1.000   1.000
                                                       1.200   1.200

     PseudoPot. # 2 for S  read from file:
     ~/pseudo/S.pw91-van_ak.UPF
     MD5 check sum: Not computed, couldn't open file
     Pseudo is Ultrasoft, Zval =  6.0
     Generated by new atomic code, or converted to UPF format
     Using radial grid of  811 points,  6 beta functions with:
                l(1) =   0
                l(2) =   0
                l(3) =   1
                l(4) =   1
                l(5) =   2
                l(6) =   2
     Q(r) pseudized with  8 coefficients,  rinner =    1.100   1.100   1.100
                                                       1.100   1.100

     atomic species   valence    mass     pseudopotential
        Mo             6.00    95.50000     Mo( 1.00)
        S              6.00    32.06500     S ( 1.00)

     No symmetry found

   Cartesian axes

     site n.     atom                  positions (alat units)
         1           Mo  tau(   1) = (   0.6885621   0.6982746   3.3940955  )
         2           Mo  tau(   2) = (  -0.1201907   0.0330798   1.1361569  )
         3           S   tau(   3) = (   0.1902215   0.4050976   3.8836989  )
         4           S   tau(   4) = (   0.3786577   0.3234485   0.6463912  )
         5           S   tau(   5) = (   0.3783241   0.3207026   1.6258107  )
         6           S   tau(   6) = (   0.1889206   0.4136029   2.9045589  )

     number of k points=    20  Marzari-Vanderbilt smearing, width (Ry)=  0.0200
                       cart. coord. in units 2pi/alat
        k(    1) = (   0.0000000   0.0000000   0.0000000), wk =   0.0555556
        k(    2) = (   0.0000000   0.1929660   0.0056367), wk =   0.1111111
        k(    3) = (   0.0000000   0.3859320   0.0112735), wk =   0.1111111
        k(    4) = (   0.0000000  -0.5788980  -0.0169102), wk =   0.0555556
        k(    5) = (   0.1666667   0.0961309   0.0003634), wk =   0.1111111
        k(    6) = (   0.1666667   0.2890969   0.0060002), wk =   0.1111111
        k(    7) = (   0.1666667   0.4820629   0.0116369), wk =   0.1111111
        k(    8) = (   0.1666667  -0.4827671  -0.0165468), wk =   0.1111111
        k(    9) = (   0.1666667  -0.2898011  -0.0109101), wk =   0.1111111
        k(   10) = (   0.1666667  -0.0968351  -0.0052733), wk =   0.1111111
        k(   11) = (   0.3333333   0.1922618   0.0007268), wk =   0.1111111
        k(   12) = (   0.3333333   0.3852278   0.0063636), wk =   0.1111111
        k(   13) = (   0.3333333   0.5781938   0.0120003), wk =   0.1111111
        k(   14) = (   0.3333333  -0.3866362  -0.0161834), wk =   0.1111111
        k(   15) = (   0.3333333  -0.1936702  -0.0105467), wk =   0.1111111
        k(   16) = (   0.3333333  -0.0007042  -0.0049099), wk =   0.1111111
        k(   17) = (  -0.5000000  -0.2883927  -0.0010902), wk =   0.0555556
        k(   18) = (  -0.5000000  -0.0954267   0.0045465), wk =   0.1111111
        k(   19) = (  -0.5000000   0.0975393   0.0101833), wk =   0.1111111
        k(   20) = (  -0.5000000  -0.8672908  -0.0180005), wk =   0.0555556

     Initial potential from superposition of free atoms

     starting charge   35.99685, renormalised to   36.00000
     Starting wfcs are   34 randomized atomic wfcs

     Self-consistent Calculation

     iteration #  1     ecut=    45.00 Ry     beta= 0.70
     Davidson diagonalization with overlap
     ethr =  1.00E-02,  avg # of iterations =  2.0

     total energy              =    -140.70464861 Ry
     Harris-Foulkes estimate   =    -141.14187734 Ry
     estimated scf accuracy    <       1.11679221 Ry

[...]

     total energy              =    -140.92372031 Ry
     Harris-Foulkes estimate   =    -140.92372057 Ry
     estimated scf accuracy    <       0.00000186 Ry

     iteration # 11     ecut=    45.00 Ry     beta= 0.70
     Davidson diagonalization with overlap
     ethr =  3.89E-09,  avg # of iterations =  1.0

     End of self-consistent calculation

          k = 0.0000 0.0000 0.0000 (  4541 PWs)   bands (ev):

    -8.3536  -8.3260  -7.1608  -7.1122   0.0762   0.2897   3.0481   3.0514
     3.0843   3.0886   3.6495   4.1540   4.1580   4.2124   4.2193   4.3528
     5.4380   5.8708   8.3369   8.3383   8.3985   8.4089

[...]

          k = 0.3333-0.0007-0.0049 (  4507 PWs)   bands (ev):

[...]

          k =-0.5000-0.2884-0.0011 (  4466 PWs)   bands (ev):

[...]

          k =-0.5000-0.8673-0.0180 (  4454 PWs)   bands (ev):

    -6.6116  -6.5975  -6.3311  -6.3160   0.0192   0.0552   0.9544   0.9869
     1.5949   1.7148   2.5346   2.5408   3.8165   3.8466   4.7018   4.7193
     5.0106   5.0455   7.6886   7.6943   8.1786   8.2411

     the Fermi energy is     5.7999 ev

!    total energy              =    -140.92371968 Ry
     Harris-Foulkes estimate   =    -140.92372036 Ry
     estimated scf accuracy    <       0.00000073 Ry

     The total energy is the sum of the following terms:

     one-electron contribution =     -32.21543039 Ry
     hartree contribution      =      35.78579023 Ry
     xc contribution           =     -55.70067603 Ry
     ewald contribution        =     -88.79639860 Ry
     smearing contrib. (-TS)   =       0.00299511 Ry

     convergence has been achieved in  11 iterations

     Forces acting on atoms (cartesian axes, Ry/au):

     atom    1 type  1   force =     0.00348067   -0.00325834    0.00007582
     atom    2 type  1   force =    -0.00431237    0.00334190   -0.00025830
     atom    3 type  2   force =    -0.00192945    0.00684670    0.00205526
     atom    4 type  2   force =     0.00144917   -0.00368480   -0.00156532
     atom    5 type  2   force =     0.00195539   -0.00011686    0.00173595
     atom    6 type  2   force =    -0.00064342   -0.00312861   -0.00204341

     Total force =     0.012114     Total SCF correction =     0.001931
     SCF correction compared to forces is large: reduce conv_thr to get better values

     General routines

     Parallel routines

   This run was terminated on:  18: 9:14  10Nov2021

   JOB DONE.