     Program PWSCF v.6.4 starts on  3Dec2021 at 20:42:34

     R & G space division:  proc/nbgrp/npool/nimage =      40
     Waiting for input...
     Reading input from standard input
Warning: card    &IONS ignored
Warning: card      ION_DYNAMICS = 'BFGS' ignored
Warning: card   / ignored
Warning: card    &CELL ignored
Warning: card      CELL_DYNAMICS = 'BFGS', ignored
Warning: card    / ignored

     Current dimensions of program PWSCF are:
     Max number of different atomic species (ntypx) = 10
     Max number of k-points (npk) =  40000
     Max angular momentum in pseudopotentials (lmaxx) =  3

     bravais-lattice index     =            0
     lattice parameter (alat)  =      11.7062  a.u.
     unit-cell volume          =   11319.3226 (a.u.)^3
     number of atoms/cell      =           36
     number of atomic types    =            2
     number of electrons       =       216.00
     number of Kohn-Sham states=          130
     kinetic-energy cutoff     =      45.0000  Ry
     charge density cutoff     =     360.0000  Ry
     convergence threshold     =      1.0E-06
     mixing beta               =       0.7000
     number of iterations used =            8  local-TF  mixing
     Exchange-correlation      = SLA PW GGX GGC ( 1  4  2  2 0 0)

     celldm(1)=  11.706195  celldm(2)=   0.000000  celldm(3)=   0.000000
     celldm(4)=   0.000000  celldm(5)=   0.000000  celldm(6)=   0.000000

     crystal axes: (cart. coord. in units of alat)
               a(1) = (   1.000000   0.000000   0.000000 )
               a(2) = (   0.003470   1.914814   0.000000 )
               a(3) = (  -0.028116  -0.184376   3.685077 )

     reciprocal axes: (cart. coord. in units 2 pi/alat)
               b(1) = (  1.000000 -0.001812  0.007539 )
               b(2) = (  0.000000  0.522244  0.026129 )
               b(3) = (  0.000000  0.000000  0.271365 )

     PseudoPot. # 1 for Mo read from file:
     ~/pseudo/Mo.pw91-n-van.UPF
     MD5 check sum: Not computed, couldn't open file
     Pseudo is Ultrasoft + core correction, Zval =  6.0
     Generated by new atomic code, or converted to UPF format
     Using radial grid of  965 points,  3 beta functions with:
                l(1) =   1
                l(2) =   2
                l(3) =   2
     Q(r) pseudized with  8 coefficients,  rinner =    1.000   1.000   1.000
                                                       1.200   1.200

     PseudoPot. # 2 for S  read from file:
     ~/pseudo/S.pw91-van_ak.UPF
     MD5 check sum: Not computed, couldn't open file
     Pseudo is Ultrasoft, Zval =  6.0
     Generated by new atomic code, or converted to UPF format
     Using radial grid of  811 points,  6 beta functions with:
                l(1) =   0
                l(2) =   0
                l(3) =   1
                l(4) =   1
                l(5) =   2
                l(6) =   2
     Q(r) pseudized with  8 coefficients,  rinner =    1.100   1.100   1.100
                                                       1.100   1.100

     atomic species   valence    mass     pseudopotential
        Mo             6.00    95.50000     Mo( 1.00)
        S              6.00    32.06500     S ( 1.00)

     No symmetry found

   Cartesian axes

     site n.     atom                  positions (alat units)
         1           Mo  tau(   1) = (   0.3923581   0.8523874   1.3153198  )
         2           Mo  tau(   2) = (   0.6438146   1.2835223   1.1952999  )
         3           Mo  tau(   3) = (   0.8929199   0.8525223   1.3155983  )
         4           Mo  tau(   4) = (   0.1436834   1.2839577   1.1964142  )
         5           Mo  tau(   5) = (   0.8977133   1.7162994   1.0904891  )
         6           Mo  tau(   6) = (   0.3977097   1.7164465   1.0904357  )
         7           Mo  tau(   7) = (   0.8969020   0.3350286   1.2086692  )
         8           Mo  tau(   8) = (   0.3969775   0.3349399   1.2085691  )
         9           Mo  tau(   9) = (   0.8447831   1.6474688   3.4621932  )
        10           Mo  tau(  10) = (   0.3465719   1.6501337   3.4613406  )
        11           Mo  tau(  11) = (   0.4984939   1.2361623   2.7191215  )
        12           Mo  tau(  12) = (   0.0011007   1.2348818   2.7164417  )
        13           S   tau(  13) = (   0.6408709   0.9209331   1.0226710  )
        14           S   tau(  14) = (   0.1597678   0.4031256   0.9289900  )
        15           S   tau(  15) = (   0.1406690   0.9226801   1.0232198  )
        16           S   tau(  16) = (   0.6599350   0.3946852   0.9268220  )
        17           S   tau(  17) = (   0.2508995   1.0461017   2.9210871  )
        18           S   tau(  18) = (   0.7496368   1.4434923   2.8915684  )
        19           S   tau(  19) = (   0.6402837   1.0698656   1.5300694  )
        20           S   tau(  20) = (   0.1482231   0.5545797   1.4425528  )
        21           S   tau(  21) = (   0.1405329   1.0700620   1.5312064  )
        22           S   tau(  22) = (   0.6481385   0.5538918   1.4409303  )
        23           S   tau(  23) = (   0.2492671   1.4345002   2.5212012  )
        24           S   tau(  24) = (   0.7478871   1.0354547   2.5250086  )
        25           S   tau(  25) = (   0.8949688   1.3648682   0.9091212  )
        26           S   tau(  26) = (   0.3938319   1.3649162   0.9092834  )
        27           S   tau(  27) = (   0.8935163   1.4936003   1.4101436  )
        28           S   tau(  28) = (   0.3940892   1.4936128   1.4099271  )
        29           S   tau(  29) = (   0.1445493   0.0327698   1.3082258  )
        30           S   tau(  30) = (   0.6445677   0.0313198   1.3084837  )
        31           S   tau(  31) = (   0.5956028   1.4725768   3.6789327  )
        32           S   tau(  32) = (   0.0896531  -0.0340014   3.6125424  )
        33           S   tau(  33) = (   0.1496564   1.8253376   0.8243886  )
        34           S   tau(  34) = (   0.6461838  -0.0954937   0.8227241  )
        35           S   tau(  35) = (   0.5919497  -0.0940884   3.2462722  )
        36           S   tau(  36) = (   0.1027346   1.4234232   3.3084079  )

     number of k points=     4  Marzari-Vanderbilt smearing, width (Ry)=  0.0200
                       cart. coord. in units 2pi/alat
        k(    1) = (   0.0000000   0.0000000   0.0000000), wk =   0.3333333
        k(    2) = (   0.0000000  -0.2611220  -0.0130647), wk =   0.3333333
        k(    3) = (   0.3333333  -0.0006040   0.0025130), wk =   0.6666667
        k(    4) = (   0.3333333  -0.2617260  -0.0105517), wk =   0.6666667

     Initial potential from superposition of free atoms

     starting charge  215.98107, renormalised to  216.00000

     negative rho (up, down):  2.504E-04 0.000E+00
     Starting wfcs are  204 randomized atomic wfcs

     Self-consistent Calculation

     iteration #  1     ecut=    45.00 Ry     beta= 0.70
     Davidson diagonalization with overlap
     ethr =  1.00E-02,  avg # of iterations =  2.5

     negative rho (up, down):  2.780E-06 0.000E+00

     total energy              =    -843.12994838 Ry
     Harris-Foulkes estimate   =    -845.97983910 Ry
     estimated scf accuracy    <       7.63604261 Ry

[...]

     total energy              =    -844.58055304 Ry
     Harris-Foulkes estimate   =    -844.58055365 Ry
     estimated scf accuracy    <       0.00000148 Ry

     iteration # 18     ecut=    45.00 Ry     beta= 0.70
     Davidson diagonalization with overlap
     ethr =  6.84E-10,  avg # of iterations =  3.2

[...]

     End of self-consistent calculation

          k = 0.0000 0.0000 0.0000 ( 57717 PWs)   bands (ev):

   -14.6399 -14.0392 -13.9968 -13.4170 -13.1961 -13.0705 -13.0275 -12.9672
   -12.9509 -12.8810 -12.8365 -12.7709 -12.7373 -12.5747 -12.5527 -12.4973
   -12.4393 -12.3890 -12.2911 -12.2830 -12.2447 -12.2237 -12.2000 -11.7862
    -6.5499  -6.4528  -6.2471  -6.0383  -5.9677  -5.7350  -5.6498  -5.6410
    -5.4237  -5.2647  -5.2502  -5.0566  -4.9755  -4.9509  -4.9339  -4.8823
    -4.8232  -4.6824  -4.6157  -4.5458  -4.3180  -4.2866  -4.1955  -4.0953
    -3.9695  -3.9298  -3.9209  -3.9047  -3.8212  -3.8042  -3.7207  -3.6301
    -3.5932  -3.5581  -3.5560  -3.3912  -3.3513  -3.3427  -3.3047  -3.2575
    -3.2163  -3.2093  -3.1912  -3.1760  -3.1372  -2.9347  -2.8599  -2.8113
    -2.6548  -2.6364  -2.6221  -2.6177  -2.5550  -2.5440  -2.4790  -2.3632
    -2.2595  -2.1859  -2.1338  -2.1053  -2.0450  -2.0360  -2.0287  -1.8162
    -1.7408  -1.7139  -1.6292  -1.5117  -1.3606  -1.3540  -1.3128  -1.3013
    -1.2620  -1.2503  -0.8626  -0.8344  -0.8279  -0.5903  -0.5184  -0.3500
    -0.3066  -0.2496  -0.2145  -0.1347  -0.0527   0.0095   0.0248   0.2733
     0.5190   0.7104   0.7796   1.2392   1.2849   1.3462   1.3948   1.4858
     1.5630   1.6274   1.6684   1.6841   1.8234   1.8366   1.8787   1.9747
     1.9759   1.9856

[...]

          k = 0.3333-0.2617-0.0106 ( 57679 PWs)   bands (ev):

   -14.2043 -14.1347 -13.5120 -13.4464 -13.4058 -13.2444 -13.1304 -13.0929
   -12.9092 -12.8824 -12.8621 -12.7698 -12.6741 -12.6737 -12.6159 -12.5060
   -12.3956 -12.3925 -12.3468 -12.3372 -12.3149 -12.2836 -12.2600 -11.9785
    -5.9479  -5.8751  -5.8117  -5.8076  -5.6557  -5.6173  -5.4804  -5.4630
    -5.2465  -5.1899  -5.1289  -4.9347  -4.8794  -4.7264  -4.6067  -4.5804
    -4.4546  -4.3430  -4.3199  -4.2262  -4.1813  -4.1627  -4.0552  -4.0213
    -3.9787  -3.9311  -3.8343  -3.8084  -3.7614  -3.7489  -3.7326  -3.7293
    -3.6497  -3.6296  -3.6033  -3.5757  -3.5010  -3.4897  -3.4659  -3.4379
    -3.4052  -3.3911  -3.3692  -3.3166  -3.2606  -3.2265  -3.1630  -3.1104
    -3.0535  -3.0134  -2.9746  -2.8854  -2.8498  -2.7898  -2.6337  -2.6249
    -2.6181  -2.5093  -2.4820  -2.3889  -2.3456  -2.2934  -2.2438  -2.1584
    -2.1185  -2.0084  -1.9837  -1.8485  -1.7623  -1.7494  -1.5982  -1.5725
    -1.0898  -1.0343  -1.0099  -0.8543  -0.6750  -0.2714  -0.2620  -0.2443
    -0.1727  -0.1614  -0.1512  -0.0384   0.2043   0.2792   0.5514   0.6641
     0.7228   0.7312   0.9880   1.1468   1.3990   1.4358   1.4522   1.4826
     1.5239   1.5809   1.5979   1.6021   1.6448   1.6755   1.6828   1.6937
     1.7007   1.8543

     the Fermi energy is     0.0175 ev

!    total energy              =    -844.58055058 Ry
     Harris-Foulkes estimate   =    -844.58055316 Ry
     estimated scf accuracy    <       0.00000035 Ry

     The total energy is the sum of the following terms:

     one-electron contribution =   -2484.10162732 Ry
     hartree contribution      =    1311.70144968 Ry
     xc contribution           =    -333.14659422 Ry
     ewald contribution        =     660.96327888 Ry
     smearing contrib. (-TS)   =       0.00294240 Ry

     convergence has been achieved in  18 iterations

     negative rho (up, down):  5.418E-04 0.000E+00

     Forces acting on atoms (cartesian axes, Ry/au):

     atom    1 type  1   force =    -0.00219776   -0.01577850    0.00790261
     atom    2 type  1   force =     0.00192369   -0.00682990    0.01615899
     atom    3 type  1   force =    -0.00173307   -0.01662023    0.00750340
     atom    4 type  1   force =     0.00217933   -0.00706293    0.01415272
     atom    5 type  1   force =     0.00169686    0.02370791   -0.02240088
     atom    6 type  1   force =    -0.00048179    0.02379542   -0.02192828
     atom    7 type  1   force =     0.00969398    0.01429216    0.00019519
     atom    8 type  1   force =     0.01102582    0.01394554    0.00046330
     atom    9 type  1   force =     0.00036162   -0.00510741   -0.00172201
     atom   10 type  1   force =     0.01220017    0.00666512    0.02090101
     atom   11 type  1   force =    -0.00985057    0.00259260   -0.02256759
     atom   12 type  1   force =     0.00341148    0.00272965   -0.00777049
     atom   13 type  2   force =     0.00356365   -0.00137661    0.00404815
     atom   14 type  2   force =    -0.01676026   -0.00357421   -0.01134765
     atom   15 type  2   force =     0.00362803   -0.00320276    0.00323089
     atom   16 type  2   force =    -0.01695526   -0.00185757   -0.01038505
     atom   17 type  2   force =    -0.00056130   -0.00940282    0.00332759
     atom   18 type  2   force =     0.00174941    0.00678046    0.01649607
     atom   19 type  2   force =     0.00422170   -0.01770876   -0.00803045
     atom   20 type  2   force =    -0.00015203    0.01192372    0.00374998
     atom   21 type  2   force =     0.00399031   -0.01841470   -0.00829555
     atom   22 type  2   force =    -0.00003811    0.01070978    0.00323444
     atom   23 type  2   force =     0.00235182   -0.00718911   -0.00078802
     atom   24 type  2   force =     0.00148677   -0.00310284    0.00080412
     atom   25 type  2   force =    -0.00073347    0.00648714   -0.00396211
     atom   26 type  2   force =     0.00053452    0.00635673   -0.00438940
     atom   27 type  2   force =     0.00089615   -0.00308087    0.00700480
     atom   28 type  2   force =     0.00133103   -0.00303243    0.00735240
     atom   29 type  2   force =     0.00548713   -0.00519520    0.02720251
     atom   30 type  2   force =     0.00512355   -0.00452988    0.02550504
     atom   31 type  2   force =    -0.00239556    0.00626920    0.00373165
     atom   32 type  2   force =     0.00221821    0.00075634    0.01066358
     atom   33 type  2   force =    -0.00755416   -0.00357973   -0.01836545
     atom   34 type  2   force =    -0.00721052    0.00188750   -0.01908726
     atom   35 type  2   force =    -0.00099983    0.00914581   -0.01079008
     atom   36 type  2   force =    -0.01145154   -0.01139866   -0.01179812

     Total force =     0.105455     Total SCF correction =     0.000997

     General routines

     Parallel routines

   This run was terminated on:  20:45:48   3Dec2021

   JOB DONE.