     Program PWSCF v.6.4 starts on 24Dec2021 at  0: 4:47

     R & G space division:  proc/nbgrp/npool/nimage =      40
     Waiting for input...
     Reading input from standard input
Warning: card    &IONS ignored
Warning: card      ION_DYNAMICS = 'BFGS' ignored
Warning: card   / ignored
Warning: card    &CELL ignored
Warning: card      CELL_DYNAMICS = 'BFGS', ignored
Warning: card    / ignored

     Current dimensions of program PWSCF are:
     Max number of different atomic species (ntypx) = 10
     Max number of k-points (npk) =  40000
     Max angular momentum in pseudopotentials (lmaxx) =  3

     bravais-lattice index     =            0
     lattice parameter (alat)  =      12.0878  a.u.
     unit-cell volume          =    3789.8952 (a.u.)^3
     number of atoms/cell      =           27
     number of atomic types    =            2
     number of electrons       =       162.00
     number of Kohn-Sham states=           97
     kinetic-energy cutoff     =      45.0000  Ry
     charge density cutoff     =     360.0000  Ry
     convergence threshold     =      1.0E-06
     mixing beta               =       0.7000
     number of iterations used =            8  local-TF  mixing
     Exchange-correlation      = SLA PW GGX GGC ( 1  4  2  2 0 0)

     celldm(1)=  12.087752  celldm(2)=   0.000000  celldm(3)=   0.000000
     celldm(4)=   0.000000  celldm(5)=   0.000000  celldm(6)=   0.000000

     crystal axes: (cart. coord. in units of alat)
               a(1) = (   1.000000   0.000000   0.000000 )
               a(2) = (   0.201844   1.407750   0.000000 )
               a(3) = (   0.012286   0.396424   1.524281 )

     reciprocal axes: (cart. coord. in units 2 pi/alat)
               b(1) = (  1.000000 -0.143380  0.029229 )
               b(2) = (  0.000000  0.710353 -0.184744 )
               b(3) = (  0.000000  0.000000  0.656047 )

     PseudoPot. # 1 for Mo read from file:
     ~/pseudo/Mo.pw91-n-van.UPF
     MD5 check sum: Not computed, couldn't open file
     Pseudo is Ultrasoft + core correction, Zval =  6.0
     Generated by new atomic code, or converted to UPF format
     Using radial grid of  965 points,  3 beta functions with:
                l(1) =   1
                l(2) =   2
                l(3) =   2
     Q(r) pseudized with  8 coefficients,  rinner =    1.000   1.000   1.000
                                                       1.200   1.200

     PseudoPot. # 2 for S  read from file:
     ~/pseudo/S.pw91-van_ak.UPF
     MD5 check sum: Not computed, couldn't open file
     Pseudo is Ultrasoft, Zval =  6.0
     Generated by new atomic code, or converted to UPF format
     Using radial grid of  811 points,  6 beta functions with:
                l(1) =   0
                l(2) =   0
                l(3) =   1
                l(4) =   1
                l(5) =   2
                l(6) =   2
     Q(r) pseudized with  8 coefficients,  rinner =    1.100   1.100   1.100
                                                       1.100   1.100

     atomic species   valence    mass     pseudopotential
        Mo             6.00    95.50000     Mo( 1.00)
        S              6.00    32.06500     S ( 1.00)

     No symmetry found

   Cartesian axes

     site n.     atom                  positions (alat units)
         1           Mo  tau(   1) = (   1.1131021   0.9708000   0.6970839  )
         2           Mo  tau(   2) = (   0.5233720   0.8667781   0.1522198  )
         3           Mo  tau(   3) = (   0.1339022   0.5241300   0.5879477  )
         4           Mo  tau(   4) = (   1.0379024   1.6792948   1.3224555  )
         5           Mo  tau(   5) = (   0.9835758   0.6252076   1.0061074  )
         6           Mo  tau(   6) = (   1.1857894   1.5892273   0.8916925  )
         7           Mo  tau(   7) = (   0.4626150   0.7153708   1.5122267  )
         8           Mo  tau(   8) = (   0.3480096   1.1012832   1.3082784  )
         9           Mo  tau(   9) = (   0.7138334   1.2871400   0.2605944  )
        10           S   tau(  10) = (   0.7948692   0.4545345   0.7159032  )
        11           S   tau(  11) = (   0.2993136   1.2169930   0.9599702  )
        12           S   tau(  12) = (   0.6848008   1.0181835   1.4194526  )
        13           S   tau(  13) = (   0.1697816   0.3283268   1.1645821  )
        14           S   tau(  14) = (   0.8261968   0.9637356   0.9139313  )
        15           S   tau(  15) = (   0.9859312   1.3077729   0.5252049  )
        16           S   tau(  16) = (   0.7862485   1.4686553   1.5114313  )
        17           S   tau(  17) = (   0.1381955   0.8065340   1.3292734  )
        18           S   tau(  18) = (   0.4212655   0.5336848   0.3043223  )
        19           S   tau(  19) = (   0.4892734   1.0582301   0.4704992  )
        20           S   tau(  20) = (   0.2573729   0.1758837   0.6341763  )
        21           S   tau(  21) = (   0.2495466   1.3923116   1.5018376  )
        22           S   tau(  22) = (   0.9802578   0.7991584   0.3952525  )
        23           S   tau(  23) = (   0.8547680   1.5022112   1.0450043  )
        24           S   tau(  24) = (   0.2239385   0.0736867   0.1668636  )
        25           S   tau(  25) = (   0.3251621   0.6997655   0.8341763  )
        26           S   tau(  26) = (   0.6389112   0.5727658   1.1980890  )
        27           S   tau(  27) = (   0.7709890   0.1218903   0.0927309  )

     number of k points=     8  Marzari-Vanderbilt smearing, width (Ry)=  0.0200
                       cart. coord. in units 2pi/alat
        k(    1) = (   0.0000000   0.0000000   0.0000000), wk =   0.1666667
        k(    2) = (   0.0000000   0.0000000  -0.3280235), wk =   0.1666667
        k(    3) = (   0.0000000  -0.3551767   0.0923718), wk =   0.1666667
        k(    4) = (   0.0000000  -0.3551767  -0.2356517), wk =   0.1666667
        k(    5) = (   0.3333333  -0.0477934   0.0097430), wk =   0.3333333
        k(    6) = (   0.3333333  -0.0477934  -0.3182805), wk =   0.3333333
        k(    7) = (   0.3333333  -0.4029702   0.1021148), wk =   0.3333333
        k(    8) = (   0.3333333  -0.4029702  -0.2259087), wk =   0.3333333

     Initial potential from superposition of free atoms

     starting charge  161.98581, renormalised to  162.00000
     Starting wfcs are  153 randomized atomic wfcs

     Self-consistent Calculation

     iteration #  1     ecut=    45.00 Ry     beta= 0.70
     Davidson diagonalization with overlap
     ethr =  1.00E-02,  avg # of iterations =  2.0

     total energy              =    -631.96113202 Ry
     Harris-Foulkes estimate   =    -634.39997773 Ry
     estimated scf accuracy    <       6.41180052 Ry

[...]

     total energy              =    -633.23071086 Ry
     Harris-Foulkes estimate   =    -633.23071096 Ry
     estimated scf accuracy    <       0.00000126 Ry

     iteration # 14     ecut=    45.00 Ry     beta= 0.70
     Davidson diagonalization with overlap
     ethr =  7.76E-10,  avg # of iterations =  1.0

     End of self-consistent calculation

          k = 0.0000 0.0000 0.0000 ( 19295 PWs)   bands (ev):

    -7.5995  -6.9732  -6.6256  -6.5296  -6.4287  -6.3023  -6.2787  -6.1946
    -6.0610  -5.9787  -5.7439  -5.7003  -5.5546  -5.5047  -5.4175  -5.3549
    -5.1941  -4.9840   0.5179   0.9297   1.0248   1.2177   1.2868   1.3063
     1.4542   1.6512   1.7135   1.8054   1.8578   1.9366   1.9608   2.0718
     2.1388   2.2859   2.3459   2.3758   2.4765   2.6466   2.6985   2.7789
     2.8477   2.8623   2.9426   2.9861   3.0442   3.1828   3.2423   3.3072
     3.3739   3.4529   3.5720   3.7165   3.7703   3.8602   3.8746   3.9566
     4.0377   4.1467   4.2510   4.3759   4.4545   4.4810   4.5514   4.8042
     4.8851   5.0554   5.1184   5.2557   5.3083   5.4199   5.5649   5.7122
     5.7993   5.9255   6.0077   6.0830   6.1428   6.4039   6.4849   6.6109
     6.7270   6.8240   6.9142   7.0756   7.1406   7.2483   7.4402   7.5046
     7.5959   7.7434   7.7689   7.9392   8.0713   8.1604   8.2816   8.3312
     8.5190

[...]

          k = 0.3333-0.4030-0.2259 ( 19339 PWs)   bands (ev):

    -7.3093  -6.9778  -6.7383  -6.6255  -6.4951  -6.3897  -6.2536  -6.1761
    -5.9897  -5.9304  -5.8533  -5.6920  -5.5841  -5.5309  -5.4193  -5.3757
    -5.2392  -4.9738   0.5867   0.9611   1.0581   1.1455   1.3105   1.3796
     1.5340   1.5814   1.7493   1.8223   1.8589   1.9495   2.0546   2.0803
     2.1649   2.2299   2.3685   2.4277   2.5668   2.5785   2.7111   2.7981
     2.8395   2.8885   2.9736   3.0862   3.1036   3.2242   3.3153   3.3514
     3.4477   3.4835   3.5622   3.6616   3.7500   3.8055   3.8823   3.9055
     4.0541   4.1660   4.2762   4.3125   4.3989   4.4699   4.5886   4.6553
     4.7789   4.9344   5.0464   5.1096   5.2130   5.3499   5.5080   5.5662
     5.6839   5.9121   6.0208   6.1385   6.2314   6.2913   6.4530   6.6371
     6.7682   6.8392   6.9964   7.1004   7.1936   7.3059   7.4893   7.5445
     7.6675   7.7761   7.8810   7.9522   8.0463   8.1200   8.2174   8.3169
     8.4724

     the Fermi energy is     6.7773 ev

!    total energy              =    -633.23071066 Ry
     Harris-Foulkes estimate   =    -633.23071093 Ry
     estimated scf accuracy    <       0.00000034 Ry

     The total energy is the sum of the following terms:

     one-electron contribution =      22.77796053 Ry
     hartree contribution      =      81.29303511 Ry
     xc contribution           =    -249.88834459 Ry
     ewald contribution        =    -487.41338984 Ry
     smearing contrib. (-TS)   =       0.00002813 Ry

     convergence has been achieved in  14 iterations

     Forces acting on atoms (cartesian axes, Ry/au):

     atom    1 type  1   force =    -0.04379153    0.00693885   -0.02057504
     atom    2 type  1   force =     0.04289726    0.03498413    0.00124709
     atom    3 type  1   force =    -0.00574746   -0.01107076   -0.00230829
     atom    4 type  1   force =    -0.02132353    0.00383173   -0.05554932
     atom    5 type  1   force =    -0.00567304   -0.01877958   -0.02001271
     atom    6 type  1   force =    -0.03882250    0.00916450   -0.02329962
     atom    7 type  1   force =     0.00056358   -0.02673602    0.00666611
     atom    8 type  1   force =    -0.00256092    0.00388893   -0.03992525
     atom    9 type  1   force =    -0.02433030   -0.01171281    0.03601481
     atom   10 type  2   force =    -0.00202887    0.00623157    0.01355512
     atom   11 type  2   force =    -0.00004336   -0.01434052    0.02282355
     atom   12 type  2   force =    -0.00524814   -0.01609385    0.01312229
     atom   13 type  2   force =     0.01190446    0.00945908    0.01084270
     atom   14 type  2   force =     0.01570325   -0.00527105   -0.02162970
     atom   15 type  2   force =     0.00911961   -0.01218194    0.01981548
     atom   16 type  2   force =    -0.00153918    0.00544837   -0.00491267
     atom   17 type  2   force =     0.01161045    0.01055681   -0.00047719
     atom   18 type  2   force =     0.00253089    0.00592524    0.01779982
     atom   19 type  2   force =    -0.00416120   -0.00700644    0.00683811
     atom   20 type  2   force =     0.00626673    0.00965605    0.00265538
     atom   21 type  2   force =    -0.01007465   -0.01691928    0.00712701
     atom   22 type  2   force =    -0.00111218    0.00605016    0.00802060
     atom   23 type  2   force =     0.03983219    0.01202313    0.00536876
     atom   24 type  2   force =     0.01849546    0.01701907   -0.00890111
     atom   25 type  2   force =     0.01588781   -0.00259303    0.03352225
     atom   26 type  2   force =     0.00069778   -0.01165590   -0.02226512
     atom   27 type  2   force =    -0.00905262    0.01318354    0.01443693

     Total force =     0.161318     Total SCF correction =     0.001004

     General routines

     Parallel routines

   This run was terminated on:   0: 5:53  24Dec2021

   JOB DONE.