     Program PWSCF v.6.4 starts on 12Aug2021 at 14: 4:13

     R & G space division:  proc/nbgrp/npool/nimage =      40
     Waiting for input...
     Reading input from standard input
Warning: card    &IONS ignored
Warning: card      ION_DYNAMICS = 'BFGS' ignored
Warning: card   / ignored
Warning: card    &CELL ignored
Warning: card      CELL_DYNAMICS = 'BFGS', ignored
Warning: card    / ignored

     Current dimensions of program PWSCF are:
     Max number of different atomic species (ntypx) = 10
     Max number of k-points (npk) =  40000
     Max angular momentum in pseudopotentials (lmaxx) =  3

     bravais-lattice index     =            0
     lattice parameter (alat)  =      12.6129  a.u.
     unit-cell volume          =    3629.4642 (a.u.)^3
     number of atoms/cell      =           24
     number of atomic types    =            2
     number of electrons       =       144.00
     number of Kohn-Sham states=           86
     kinetic-energy cutoff     =      45.0000  Ry
     charge density cutoff     =     360.0000  Ry
     convergence threshold     =      1.0E-06
     mixing beta               =       0.7000
     number of iterations used =            8  local-TF  mixing
     Exchange-correlation      = SLA PW GGX GGC ( 1  4  2  2 0 0)

     celldm(1)=  12.612922  celldm(2)=   0.000000  celldm(3)=   0.000000
     celldm(4)=   0.000000  celldm(5)=   0.000000  celldm(6)=   0.000000

     crystal axes: (cart. coord. in units of alat)
               a(1) = (   0.999953   0.009441  -0.002097 )
               a(2) = (  -0.245736   0.425534  -0.000135 )
               a(3) = (  -0.258633  -0.161002   4.228638 )

     reciprocal axes: (cart. coord. in units 2 pi/alat)
               b(1) = (  0.994796  0.574498  0.082718 )
               b(2) = ( -0.021884  2.337378  0.087655 )
               b(3) = (  0.000493  0.000359  0.236527 )

     PseudoPot. # 1 for Mo read from file:
     ~/pseudo/Mo.pw91-n-van.UPF
     MD5 check sum: Not computed, couldn't open file
     Pseudo is Ultrasoft + core correction, Zval =  6.0
     Generated by new atomic code, or converted to UPF format
     Using radial grid of  965 points,  3 beta functions with:
                l(1) =   1
                l(2) =   2
                l(3) =   2
     Q(r) pseudized with  8 coefficients,  rinner =    1.000   1.000   1.000
                                                       1.200   1.200

     PseudoPot. # 2 for S  read from file:
     ~/pseudo/S.pw91-van_ak.UPF
     MD5 check sum: Not computed, couldn't open file
     Pseudo is Ultrasoft, Zval =  6.0
     Generated by new atomic code, or converted to UPF format
     Using radial grid of  811 points,  6 beta functions with:
                l(1) =   0
                l(2) =   0
                l(3) =   1
                l(4) =   1
                l(5) =   2
                l(6) =   2
     Q(r) pseudized with  8 coefficients,  rinner =    1.100   1.100   1.100
                                                       1.100   1.100

     atomic species   valence    mass     pseudopotential
        Mo             6.00    95.50000     Mo( 1.00)
        S              6.00    32.06500     S ( 1.00)

     No symmetry found

   Cartesian axes

     site n.     atom                  positions (alat units)
         1           Mo  tau(   1) = (   0.0705228   0.1203702   1.5690931  )
         2           Mo  tau(   2) = (  -0.2941192   0.0018603   3.7724510  )
         3           Mo  tau(   3) = (   0.5333110   0.1088854   1.5305792  )
         4           Mo  tau(   4) = (   0.2295123   0.0193797   3.7344084  )
         5           Mo  tau(   5) = (  -0.0550012  -0.1801854   0.5491026  )
         6           Mo  tau(   6) = (  -0.2296612  -0.2517918   2.6455297  )
         7           Mo  tau(   7) = (   0.4466881  -0.1752543   0.5030812  )
         8           Mo  tau(   8) = (   0.2473136  -0.2625418   2.6060077  )
         9           S   tau(   9) = (   0.3187685   0.2659432   1.7863618  )
        10           S   tau(  10) = (  -0.0218828   0.1609438   3.9801498  )
        11           S   tau(  11) = (   0.7975360   0.2649637   1.7913184  )
        12           S   tau(  12) = (   0.4595492   0.1442675   4.0034148  )
        13           S   tau(  13) = (  -0.0647408   0.0958052   0.2999844  )
        14           S   tau(  14) = (  -0.2540916   0.0204302   2.3891534  )
        15           S   tau(  15) = (   0.4637877   0.1187012   0.2733561  )
        16           S   tau(  16) = (   0.2767944   0.0369672   2.3820588  )
        17           S   tau(  17) = (  -0.0356925   0.3978306   0.7525826  )
        18           S   tau(  18) = (  -0.2189937   0.3186510   2.8597685  )
        19           S   tau(  19) = (   0.4348525   0.3829565   0.7747125  )
        20           S   tau(  20) = (   0.2547366   0.3128199   2.8711908  )
        21           S   tau(  21) = (   0.2913790  -0.0306278   1.3091775  )
        22           S   tau(  22) = (  -0.0350517  -0.1397418   3.5332422  )
        23           S   tau(  23) = (   0.8123633  -0.0185986   1.3096804  )
        24           S   tau(  24) = (   0.4805045  -0.1204708   3.4973487  )

     number of k points=     8  Marzari-Vanderbilt smearing, width (Ry)=  0.0200
                       cart. coord. in units 2pi/alat
        k(    1) = (   0.0000000   0.0000000   0.0000000), wk =   0.1333333
        k(    2) = (  -0.0043767   0.4674757   0.0175311), wk =   0.2666667
        k(    3) = (  -0.0087534   0.9349514   0.0350622), wk =   0.2666667
        k(    4) = (   0.3315988   0.1914992   0.0275725), wk =   0.2666667
        k(    5) = (   0.3272221   0.6589749   0.0451036), wk =   0.2666667
        k(    6) = (   0.3228453   1.1264506   0.0626347), wk =   0.2666667
        k(    7) = (   0.3403522  -0.7434521  -0.0074897), wk =   0.2666667
        k(    8) = (   0.3359755  -0.2759765   0.0100414), wk =   0.2666667

     Initial potential from superposition of free atoms

     starting charge  143.98738, renormalised to  144.00000
     Starting wfcs are  136 randomized atomic wfcs

     Self-consistent Calculation

     iteration #  1     ecut=    45.00 Ry     beta= 0.70
     Davidson diagonalization with overlap
     ethr =  1.00E-02,  avg # of iterations =  2.0

     total energy              =    -561.92695651 Ry
     Harris-Foulkes estimate   =    -564.24420293 Ry
     estimated scf accuracy    <       6.29269653 Ry

[...]

     total energy              =    -563.15056662 Ry
     Harris-Foulkes estimate   =    -563.15056690 Ry
     estimated scf accuracy    <       0.00000213 Ry

     iteration # 15     ecut=    45.00 Ry     beta= 0.70
     Davidson diagonalization with overlap
     ethr =  1.48E-09,  avg # of iterations =  1.2

     End of self-consistent calculation

          k = 0.0000 0.0000 0.0000 ( 18573 PWs)   bands (ev):

    -8.2892  -8.1975  -8.1626  -8.1297  -7.3527  -7.3153  -7.2630  -7.1941
    -6.8951  -6.7979  -6.7716  -6.7051  -6.4352  -6.3694  -6.3450  -6.3080
    -0.1410  -0.0710  -0.0481  -0.0325   0.0812   0.2584   0.3401   0.4803
     1.3118   1.3639   1.3977   1.4251   1.5933   1.6987   1.7321   1.8308
     2.2820   2.4106   2.4353   2.4400   2.4575   2.4642   2.4784   2.4920
     2.5476   2.5486   2.5802   2.5869   3.0640   3.2460   3.3388   3.4426
     3.4523   3.5329   3.6127   3.9796   4.2642   4.2799   4.3490   4.3632
     4.5472   4.6210   4.7011   4.7074   5.0798   5.1607   5.1925   5.2269
     5.2997   5.3070   5.3288   5.3977   5.4055   5.4800   5.5805   5.6381
     5.6699   5.6828   5.6840   5.7277   5.7583   5.7943   5.8256   5.9570
     6.8063   6.8467   7.0571   7.2555   7.4659   7.4948

          k =-0.0044 0.4675 0.0175 ( 18519 PWs)   bands (ev):

[...]

          k =-0.0088 0.9350 0.0351 ( 18474 PWs)   bands (ev):

[...]

          k = 0.3360-0.2760 0.0100 ( 18519 PWs)   bands (ev):

    -7.8607  -7.7756  -7.7351  -7.7112  -7.1917  -7.1558  -7.1041  -7.0454
    -6.6970  -6.6061  -6.5755  -6.5247  -6.4897  -6.4355  -6.4142  -6.3721
     0.4230   0.5069   0.5267   0.5602   0.6852   0.8147   0.8902   0.9916
     1.1168   1.1671   1.2002   1.2322   1.4180   1.4963   1.5695   1.6218
     1.9175   2.0082   2.1118   2.1479   2.2232   2.3203   2.3417   2.3889
     2.4559   2.4638   2.5017   2.5231   2.5767   2.6734   2.6987   2.7422
     3.0471   3.0733   3.1004   3.1966   3.3276   3.3578   3.4260   3.4805
     3.8728   4.0310   4.1141   4.2007   4.3052   4.3686   4.4113   4.5016
     5.1239   5.2010   5.2642   5.2986   5.7717   5.7830   5.8587   5.8846
     6.1004   6.1220   6.2104   6.3330   6.3925   6.4878   6.5190   6.5588
     6.7013   6.8531   6.9446   7.1613   7.2264   7.3376

     the Fermi energy is     5.8973 ev

!    total energy              =    -563.15056638 Ry
     Harris-Foulkes estimate   =    -563.15056674 Ry
     estimated scf accuracy    <       0.00000040 Ry

     The total energy is the sum of the following terms:

     one-electron contribution =    -100.87891390 Ry
     hartree contribution      =     127.91458446 Ry
     xc contribution           =    -221.51913941 Ry
     ewald contribution        =    -368.66965792 Ry
     smearing contrib. (-TS)   =       0.00256038 Ry

     convergence has been achieved in  15 iterations

     Forces acting on atoms (cartesian axes, Ry/au):

     atom    1 type  1   force =     0.01216791    0.01220315   -0.02362362
     atom    2 type  1   force =    -0.03319476   -0.02947945   -0.02185395
     atom    3 type  1   force =    -0.00621155   -0.00645655    0.01497200
     atom    4 type  1   force =     0.04250359    0.02457521    0.02177253
     atom    5 type  1   force =    -0.00933393   -0.00775969   -0.01227037
     atom    6 type  1   force =     0.01413982    0.00776948   -0.00646532
     atom    7 type  1   force =     0.00897819    0.00490260    0.01032216
     atom    8 type  1   force =    -0.01418440   -0.00650284    0.00756358
     atom    9 type  2   force =    -0.00343097    0.00222060   -0.00693251
     atom   10 type  2   force =    -0.01426455   -0.01459006   -0.03521113
     atom   11 type  2   force =     0.01469139    0.00037177   -0.03976153
     atom   12 type  2   force =     0.00595367    0.01377480   -0.01876145
     atom   13 type  2   force =     0.01957572    0.01150892    0.01678027
     atom   14 type  2   force =     0.01781052    0.00382863    0.01759742
     atom   15 type  2   force =    -0.01472421   -0.01223413    0.03817440
     atom   16 type  2   force =    -0.02155721   -0.01099201    0.03926626
     atom   17 type  2   force =    -0.02028787   -0.01101333   -0.01905983
     atom   18 type  2   force =    -0.01203997   -0.00274011   -0.01179634
     atom   19 type  2   force =     0.01525781    0.01476550   -0.03462254
     atom   20 type  2   force =     0.01572844    0.00813978   -0.04500670
     atom   21 type  2   force =    -0.00107235   -0.00406193    0.01621246
     atom   22 type  2   force =     0.00485443    0.00873759    0.02059630
     atom   23 type  2   force =    -0.01521383   -0.00367788    0.04058765
     atom   24 type  2   force =    -0.00614587   -0.00329005    0.03152028

     Total force =     0.161261     Total SCF correction =     0.001533

     General routines

     Parallel routines

   This run was terminated on:  14: 5:13  12Aug2021

   JOB DONE.