     Program PWSCF v.6.4 starts on  8Sep2021 at 11:59:37

     R & G space division:  proc/nbgrp/npool/nimage =      40
     Waiting for input...
     Reading input from standard input
Warning: card    &IONS ignored
Warning: card      ION_DYNAMICS = 'BFGS' ignored
Warning: card   / ignored
Warning: card    &CELL ignored
Warning: card      CELL_DYNAMICS = 'BFGS', ignored
Warning: card    / ignored

     Current dimensions of program PWSCF are:
     Max number of different atomic species (ntypx) = 10
     Max number of k-points (npk) =  40000
     Max angular momentum in pseudopotentials (lmaxx) =  3

     bravais-lattice index     =            0
     lattice parameter (alat)  =      12.3249  a.u.
     unit-cell volume          =    4343.8505 (a.u.)^3
     number of atoms/cell      =           12
     number of atomic types    =            2
     number of electrons       =        72.00
     number of Kohn-Sham states=           43
     kinetic-energy cutoff     =      45.0000  Ry
     charge density cutoff     =     360.0000  Ry
     convergence threshold     =      1.0E-06
     mixing beta               =       0.7000
     number of iterations used =            8  local-TF  mixing
     Exchange-correlation      = SLA PW GGX GGC ( 1  4  2  2 0 0)

     celldm(1)=  12.324896  celldm(2)=   0.000000  celldm(3)=   0.000000
     celldm(4)=   0.000000  celldm(5)=   0.000000  celldm(6)=   0.000000

     crystal axes: (cart. coord. in units of alat)
               a(1) = (   0.999171   0.040460   0.004564 )
               a(2) = (  -0.523532   0.851693  -0.000813 )
               a(3) = (   0.229081   0.088180   2.661453 )

     reciprocal axes: (cart. coord. in units 2 pi/alat)
               b(1) = (  0.976991  0.600452 -0.103987 )
               b(2) = ( -0.046237  1.145678 -0.033979 )
               b(3) = ( -0.001690 -0.000680  0.375903 )

     PseudoPot. # 1 for Mo read from file:
     ~/pseudo/Mo.pw91-n-van.UPF
     MD5 check sum: Not computed, couldn't open file
     Pseudo is Ultrasoft + core correction, Zval =  6.0
     Generated by new atomic code, or converted to UPF format
     Using radial grid of  965 points,  3 beta functions with:
                l(1) =   1
                l(2) =   2
                l(3) =   2
     Q(r) pseudized with  8 coefficients,  rinner =    1.000   1.000   1.000
                                                       1.200   1.200

     PseudoPot. # 2 for S  read from file:
     ~/pseudo/S.pw91-van_ak.UPF
     MD5 check sum: Not computed, couldn't open file
     Pseudo is Ultrasoft, Zval =  6.0
     Generated by new atomic code, or converted to UPF format
     Using radial grid of  811 points,  6 beta functions with:
                l(1) =   0
                l(2) =   0
                l(3) =   1
                l(4) =   1
                l(5) =   2
                l(6) =   2
     Q(r) pseudized with  8 coefficients,  rinner =    1.100   1.100   1.100
                                                       1.100   1.100

     atomic species   valence    mass     pseudopotential
        Mo             6.00    95.50000     Mo( 1.00)
        S              6.00    32.06500     S ( 1.00)

     No symmetry found

   Cartesian axes

     site n.     atom                  positions (alat units)
         1           Mo  tau(   1) = (  -0.0082694  -0.1188152  -0.0060610  )
         2           Mo  tau(   2) = (  -0.2856543   0.3731536  -0.0110453  )
         3           Mo  tau(   3) = (   0.5348614  -0.0770236   0.0054166  )
         4           Mo  tau(   4) = (   0.2405743   0.4116118   0.0071011  )
         5           S   tau(   5) = (  -0.0148833   0.5117773   0.2497709  )
         6           S   tau(   6) = (  -0.2743800   0.9325131   0.2152911  )
         7           S   tau(   7) = (   0.4878965   0.5080681   0.2644847  )
         8           S   tau(   8) = (   0.2355545   0.9616293   0.2320621  )
         9           S   tau(   9) = (   0.2316979   0.2985326   2.4474105  )
        10           S   tau(  10) = (  -0.0232957   0.7445314   2.4156816  )
        11           S   tau(  11) = (   0.7248106   0.3334918   2.4280538  )
        12           S   tau(  12) = (   0.4683634   0.7491349   2.3946471  )

     number of k points=     5  Marzari-Vanderbilt smearing, width (Ry)=  0.0200
                       cart. coord. in units 2pi/alat
        k(    1) = (   0.0000000   0.0000000   0.0000000), wk =   0.2222222
        k(    2) = (  -0.0154123   0.3818928  -0.0113263), wk =   0.4444444
        k(    3) = (   0.3256636   0.2001508  -0.0346625), wk =   0.4444444
        k(    4) = (   0.3102512   0.5820436  -0.0459888), wk =   0.4444444
        k(    5) = (   0.3410759  -0.1817419  -0.0233361), wk =   0.4444444

     Initial potential from superposition of free atoms

     starting charge   71.99369, renormalised to   72.00000

     negative rho (up, down):  6.818E-04 0.000E+00
     Starting wfcs are   68 randomized atomic wfcs

     Self-consistent Calculation

     iteration #  1     ecut=    45.00 Ry     beta= 0.70
     Davidson diagonalization with overlap
     ethr =  1.00E-02,  avg # of iterations =  2.0

     negative rho (up, down):  6.277E-05 0.000E+00

     total energy              =    -281.13829476 Ry
     Harris-Foulkes estimate   =    -282.12732221 Ry
     estimated scf accuracy    <       2.59585179 Ry

[...]

     total energy              =    -281.64718916 Ry
     Harris-Foulkes estimate   =    -281.64718886 Ry
     estimated scf accuracy    <       0.00000168 Ry

     iteration # 15     ecut=    45.00 Ry     beta= 0.70
     Davidson diagonalization with overlap
     ethr =  2.34E-09,  avg # of iterations =  2.0

[...]

     End of self-consistent calculation

          k = 0.0000 0.0000 0.0000 ( 22137 PWs)   bands (ev):

   -15.0464 -14.0811 -13.7595 -13.6222 -13.4342 -13.2048 -12.9472 -12.7549
    -7.0448  -6.9916  -6.9213  -6.4308  -5.6162  -5.5424  -5.4845  -5.2208
    -5.0283  -4.9740  -4.6121  -4.4335  -4.1085  -4.0393  -3.8795  -3.4337
    -3.4081  -3.3241  -3.1389  -2.7959  -2.6193  -2.4193  -2.1862  -2.0239
    -1.9193  -1.4903  -1.3129  -1.1171  -0.8758  -0.7787   0.2538   0.5887
     0.8854   1.1251   1.3456

          k =-0.0154 0.3819-0.0113 ( 22129 PWs)   bands (ev):

[...]

          k = 0.3411-0.1817-0.0233 ( 22194 PWs)   bands (ev):

   -14.6866 -13.9713 -13.8794 -13.6824 -13.5631 -13.3666 -13.1333 -12.8441
    -6.5974  -6.2995  -6.1158  -6.0185  -5.7762  -5.6825  -5.4579  -5.1223
    -4.9679  -4.8083  -4.6395  -4.5690  -4.3859  -4.2527  -3.9584  -3.8463
    -3.6503  -3.5183  -3.3368  -3.1439  -2.7968  -2.5675  -2.3467  -2.1487
    -2.0431  -1.8353  -1.5756  -1.3139  -1.0125  -0.3998   0.2999   0.4387
     0.7346   1.1138   1.1499

     the Fermi energy is    -1.0884 ev

!    total energy              =    -281.64718995 Ry
     Harris-Foulkes estimate   =    -281.64718936 Ry
     estimated scf accuracy    <       0.00000004 Ry

     The total energy is the sum of the following terms:

     one-electron contribution =   -1346.60202502 Ry
     hartree contribution      =     694.38444591 Ry
     xc contribution           =    -111.19184946 Ry
     ewald contribution        =     481.75975065 Ry
     smearing contrib. (-TS)   =       0.00248798 Ry

     convergence has been achieved in  15 iterations

     negative rho (up, down):  9.453E-04 0.000E+00

     Forces acting on atoms (cartesian axes, Ry/au):

     atom    1 type  1   force =     0.01183008    0.00288885    0.00346095
     atom    2 type  1   force =     0.01151297   -0.00026093    0.00557480
     atom    3 type  1   force =    -0.00620096    0.00592184   -0.00613587
     atom    4 type  1   force =     0.00219461   -0.00418144    0.00052382
     atom    5 type  2   force =    -0.00614523   -0.00812418    0.00924643
     atom    6 type  2   force =    -0.00298286   -0.00001479   -0.01241703
     atom    7 type  2   force =    -0.00207951    0.01506010    0.01132425
     atom    8 type  2   force =     0.00154456   -0.00680679   -0.00077599
     atom    9 type  2   force =    -0.00028958    0.00253427    0.00410677
     atom   10 type  2   force =    -0.00464959   -0.00187389   -0.00303548
     atom   11 type  2   force =    -0.00271817   -0.01441745   -0.00485180
     atom   12 type  2   force =    -0.00201632    0.00927442   -0.00702084

     Total force =     0.040677     Total SCF correction =     0.000421

     General routines

     Parallel routines

   This run was terminated on:  12: 0: 5   8Sep2021

   JOB DONE.