     Program PWSCF v.6.4 starts on 24Dec2021 at  1: 7:11

     R & G space division:  proc/nbgrp/npool/nimage =      40
     Waiting for input...
     Reading input from standard input
Warning: card    &IONS ignored
Warning: card      ION_DYNAMICS = 'BFGS' ignored
Warning: card   / ignored
Warning: card    &CELL ignored
Warning: card      CELL_DYNAMICS = 'BFGS', ignored
Warning: card    / ignored

     Current dimensions of program PWSCF are:
     Max number of different atomic species (ntypx) = 10
     Max number of k-points (npk) =  40000
     Max angular momentum in pseudopotentials (lmaxx) =  3

     bravais-lattice index     =            0
     lattice parameter (alat)  =      16.8596  a.u.
     unit-cell volume          =    6767.4416 (a.u.)^3
     number of atoms/cell      =           30
     number of atomic types    =            2
     number of electrons       =       180.00
     number of Kohn-Sham states=          108
     kinetic-energy cutoff     =      45.0000  Ry
     charge density cutoff     =     360.0000  Ry
     convergence threshold     =      1.0E-06
     mixing beta               =       0.7000
     number of iterations used =            8  local-TF  mixing
     Exchange-correlation      = SLA PW GGX GGC ( 1  4  2  2 0 0)

     celldm(1)=  16.859631  celldm(2)=   0.000000  celldm(3)=   0.000000
     celldm(4)=   0.000000  celldm(5)=   0.000000  celldm(6)=   0.000000

     crystal axes: (cart. coord. in units of alat)
               a(1) = (   1.000000   0.000000   0.000000 )
               a(2) = (  -0.507399   0.882130   0.000000 )
               a(3) = (   0.057018   0.033962   1.600839 )

     reciprocal axes: (cart. coord. in units 2 pi/alat)
               b(1) = (  1.000000  0.575197 -0.047821 )
               b(2) = (  0.000000  1.133619 -0.024050 )
               b(3) = (  0.000000  0.000000  0.624673 )

     PseudoPot. # 1 for Mo read from file:
     ~/pseudo/Mo.pw91-n-van.UPF
     MD5 check sum: Not computed, couldn't open file
     Pseudo is Ultrasoft + core correction, Zval =  6.0
     Generated by new atomic code, or converted to UPF format
     Using radial grid of  965 points,  3 beta functions with:
                l(1) =   1
                l(2) =   2
                l(3) =   2
     Q(r) pseudized with  8 coefficients,  rinner =    1.000   1.000   1.000
                                                       1.200   1.200

     PseudoPot. # 2 for S  read from file:
     ~/pseudo/S.pw91-van_ak.UPF
     MD5 check sum: Not computed, couldn't open file
     Pseudo is Ultrasoft, Zval =  6.0
     Generated by new atomic code, or converted to UPF format
     Using radial grid of  811 points,  6 beta functions with:
                l(1) =   0
                l(2) =   0
                l(3) =   1
                l(4) =   1
                l(5) =   2
                l(6) =   2
     Q(r) pseudized with  8 coefficients,  rinner =    1.100   1.100   1.100
                                                       1.100   1.100

     atomic species   valence    mass     pseudopotential
        Mo             6.00    95.50000     Mo( 1.00)
        S              6.00    32.06500     S ( 1.00)

     No symmetry found

   Cartesian axes

     site n.     atom                  positions (alat units)
         1           Mo  tau(   1) = (  -0.2107195   0.8877219   1.0084649  )
         2           Mo  tau(   2) = (   0.7288661   0.4361826   1.1476093  )
         3           Mo  tau(   3) = (   0.6098653   0.5633983   0.3839359  )
         4           Mo  tau(   4) = (   0.2633097   0.5478038   0.3846835  )
         5           Mo  tau(   5) = (  -0.0715059   0.5845468   0.3145549  )
         6           Mo  tau(   6) = (  -0.0519742   0.6682128   1.1427509  )
         7           Mo  tau(   7) = (   0.6726728   0.6089609   0.8822253  )
         8           Mo  tau(   8) = (   0.4086170   0.4913503   1.0614949  )
         9           Mo  tau(   9) = (   0.5141454   0.2015173   1.1436651  )
        10           Mo  tau(  10) = (   0.4536937   0.5620507   0.6370597  )
        11           S   tau(  11) = (   0.2037909   0.6133424   1.1956052  )
        12           S   tau(  12) = (   0.0411752   0.8445179   0.9588121  )
        13           S   tau(  13) = (  -0.0972981   0.4904286   0.9423800  )
        14           S   tau(  14) = (   0.5677772   0.3348364   0.9006411  )
        15           S   tau(  15) = (  -0.2947932   0.8491106   0.7827461  )
        16           S   tau(  16) = (   0.2838564   0.3698946   0.6012606  )
        17           S   tau(  17) = (  -0.2408673   0.7523356   0.2629188  )
        18           S   tau(  18) = (   0.7001469   0.4858628   0.6037030  )
        19           S   tau(  19) = (   0.3939723   0.6861278   0.8836454  )
        20           S   tau(  20) = (   0.2589347   0.2732668   1.0206500  )
        21           S   tau(  21) = (   0.5001630   0.4066849   1.2980162  )
        22           S   tau(  22) = (   0.0567007   0.6500346   0.5493510  )
        23           S   tau(  23) = (   0.8014552   0.3552499   0.3040275  )
        24           S   tau(  24) = (   0.4369007   0.4059399   0.2457814  )
        25           S   tau(  25) = (   0.1247838   0.5870816   0.1516014  )
        26           S   tau(  26) = (   0.4342730   0.7527436   0.4612520  )
        27           S   tau(  27) = (  -0.1351056   0.5103029   1.3642859  )
        28           S   tau(  28) = (  -0.1175606   0.8900301   1.2842005  )
        29           S   tau(  29) = (   0.7813893   0.1792535   1.1865098  )
        30           S   tau(  30) = (   0.6235075   0.7156048   1.1656881  )

     number of k points=     8  Marzari-Vanderbilt smearing, width (Ry)=  0.0200
                       cart. coord. in units 2pi/alat
        k(    1) = (   0.0000000   0.0000000   0.0000000), wk =   0.2500000
        k(    2) = (   0.0000000   0.0000000  -0.3123363), wk =   0.2500000
        k(    3) = (   0.0000000  -0.5668096   0.0120251), wk =   0.2500000
        k(    4) = (   0.0000000  -0.5668096  -0.3003112), wk =   0.2500000
        k(    5) = (  -0.5000000  -0.2875985   0.0239103), wk =   0.2500000
        k(    6) = (  -0.5000000  -0.2875985  -0.2884260), wk =   0.2500000
        k(    7) = (  -0.5000000  -0.8544082   0.0359354), wk =   0.2500000
        k(    8) = (  -0.5000000  -0.8544082  -0.2764009), wk =   0.2500000

     Initial potential from superposition of free atoms

     starting charge  179.98423, renormalised to  180.00000
     Starting wfcs are  170 randomized atomic wfcs

     Self-consistent Calculation

     iteration #  1     ecut=    45.00 Ry     beta= 0.70
     Davidson diagonalization with overlap
     ethr =  1.00E-02,  avg # of iterations =  2.0

     total energy              =    -702.09067374 Ry
     Harris-Foulkes estimate   =    -704.68026342 Ry
     estimated scf accuracy    <       6.93941627 Ry

[...]

     negative rho (up, down):  2.790E-08 0.000E+00

[...]

     total energy              =    -703.43468498 Ry
     Harris-Foulkes estimate   =    -703.43468537 Ry
     estimated scf accuracy    <       0.00000188 Ry

     iteration # 14     ecut=    45.00 Ry     beta= 0.70
     Davidson diagonalization with overlap
     ethr =  1.04E-09,  avg # of iterations =  3.0

[...]

     End of self-consistent calculation

          k = 0.0000 0.0000 0.0000 ( 34513 PWs)   bands (ev):

   -11.8152 -11.3848 -11.0831 -11.0153 -10.9293 -10.8357 -10.7688 -10.7148
   -10.6584 -10.5631 -10.5457 -10.4934 -10.2610 -10.2433 -10.1152 -10.0682
    -9.8970  -9.8888  -9.8428  -9.6382  -3.6429  -3.4357  -3.3693  -3.1652
    -3.0881  -3.0666  -3.0059  -2.9136  -2.7407  -2.7090  -2.6306  -2.4985
    -2.4324  -2.3854  -2.2856  -2.2221  -2.1719  -2.0850  -2.0527  -1.9895
    -1.9171  -1.8565  -1.8045  -1.7510  -1.7497  -1.6894  -1.6420  -1.5361
    -1.4849  -1.4680  -1.4182  -1.3521  -1.2918  -1.2203  -1.1890  -1.1185
    -1.0858  -1.0050  -0.9166  -0.8605  -0.7908  -0.6766  -0.6415  -0.6175
    -0.4300  -0.3849  -0.2895  -0.2262  -0.0885  -0.0281   0.0585   0.0985
     0.2071   0.2766   0.3465   0.4916   0.5491   0.7157   0.7738   0.8695
     1.0573   1.0737   1.2333   1.3929   1.4126   1.5205   1.6808   1.7710
     1.9254   2.0506   2.1142   2.2609   2.3429   2.3994   2.4737   2.5906
     2.7745   2.8690   2.9124   2.9887   3.1000   3.2366   3.2893   3.4274
     3.4745   3.5581   3.6146   3.6603

[...]

          k = 0.0000-0.5668-0.3003 ( 34468 PWs)   bands (ev):

[...]

          k =-0.5000-0.2876 0.0239 ( 34510 PWs)   bands (ev):

[...]

          k =-0.5000-0.8544-0.2764 ( 34540 PWs)   bands (ev):

   -11.7647 -11.3525 -11.0831 -11.0363 -10.9530 -10.8867 -10.8290 -10.7784
   -10.6900 -10.5505 -10.5133 -10.3755 -10.2878 -10.2617 -10.1314 -10.0827
    -9.8956  -9.8603  -9.7991  -9.6320  -3.6334  -3.4147  -3.3351  -3.1683
    -3.0545  -3.0299  -2.9644  -2.7541  -2.7104  -2.6096  -2.5702  -2.5268
    -2.4104  -2.4010  -2.3790  -2.2865  -2.2573  -2.1448  -2.1063  -2.0333
    -1.9986  -1.9147  -1.8229  -1.8086  -1.7599  -1.6781  -1.6190  -1.5569
    -1.4977  -1.4373  -1.4039  -1.3333  -1.2998  -1.1681  -1.0714  -1.0187
    -0.9996  -0.9123  -0.8694  -0.8471  -0.7914  -0.7116  -0.7004  -0.5816
    -0.5562  -0.5224  -0.4056  -0.3407  -0.2448  -0.1840  -0.0759   0.0784
     0.1600   0.2472   0.3422   0.5448   0.5860   0.6903   0.7506   1.0156
     1.1070   1.1768   1.2410   1.3496   1.4495   1.5996   1.6643   1.8307
     1.9488   2.0107   2.1235   2.3010   2.3573   2.4022   2.5079   2.6332
     2.7655   2.8454   2.9474   3.0357   3.0510   3.2643   3.3493   3.3723
     3.4465   3.6163   3.6275   3.6654

     the Fermi energy is     2.0860 ev

!    total energy              =    -703.43468495 Ry
     Harris-Foulkes estimate   =    -703.43468524 Ry
     estimated scf accuracy    <       0.00000033 Ry

     The total energy is the sum of the following terms:

     one-electron contribution =    -621.79494194 Ry
     hartree contribution      =     383.28292326 Ry
     xc contribution           =    -277.08045707 Ry
     ewald contribution        =    -187.84037903 Ry
     smearing contrib. (-TS)   =      -0.00183016 Ry

     convergence has been achieved in  14 iterations

     negative rho (up, down):  4.156E-08 0.000E+00

     Forces acting on atoms (cartesian axes, Ry/au):

     atom    1 type  1   force =    -0.01996062    0.04766542    0.08098179
     atom    2 type  1   force =    -0.01144826    0.03566138    0.03750443
     atom    3 type  1   force =    -0.06421145   -0.02867037   -0.10858958
     atom    4 type  1   force =     0.04620299    0.03988703    0.02893119
     atom    5 type  1   force =     0.08439873   -0.08184186    0.08024195
     atom    6 type  1   force =     0.03593209   -0.08024664    0.04091120
     atom    7 type  1   force =    -0.07067087   -0.01837088    0.04192911
     atom    8 type  1   force =     0.02413682    0.00642431    0.01833310
     atom    9 type  1   force =     0.05570586   -0.05925520   -0.05340333
     atom   10 type  1   force =    -0.05029009   -0.03691318    0.11545937
     atom   11 type  2   force =    -0.03103278   -0.00988132   -0.01299870
     atom   12 type  2   force =     0.00534675    0.02773472    0.00254948
     atom   13 type  2   force =     0.03957317   -0.00869228   -0.00623119
     atom   14 type  2   force =     0.01284212    0.01916971   -0.00707315
     atom   15 type  2   force =    -0.01728282    0.00494597   -0.09000602
     atom   16 type  2   force =     0.02188933    0.04159329   -0.03064934
     atom   17 type  2   force =    -0.04940333    0.06461552   -0.00750621
     atom   18 type  2   force =     0.03312524   -0.02728409    0.07960371
     atom   19 type  2   force =     0.00406938    0.00666602   -0.07164841
     atom   20 type  2   force =    -0.00833934   -0.01572347   -0.00395730
     atom   21 type  2   force =    -0.01209894    0.02605656    0.07162102
     atom   22 type  2   force =    -0.02762362   -0.03528042   -0.08634809
     atom   23 type  2   force =     0.03139041    0.06590816   -0.00070929
     atom   24 type  2   force =     0.02267926    0.00933248    0.00671537
     atom   25 type  2   force =    -0.00513795   -0.01366197    0.00519039
     atom   26 type  2   force =    -0.05391081    0.00938560   -0.02786288
     atom   27 type  2   force =     0.01086684    0.00635526   -0.03999750
     atom   28 type  2   force =     0.00488217    0.03090382    0.02520728
     atom   29 type  2   force =    -0.02832660   -0.00407826   -0.01075547
     atom   30 type  2   force =     0.01669634   -0.02240528   -0.07744290

     Total force =     0.412891     Total SCF correction =     0.001022

     General routines

     Parallel routines

   This run was terminated on:   1: 9:27  24Dec2021

   JOB DONE.