     Program PWSCF v.6.4 starts on 10Nov2021 at 18: 0:24

     R & G space division:  proc/nbgrp/npool/nimage =      40
     Waiting for input...
     Reading input from standard input
Warning: card    &IONS ignored
Warning: card      ION_DYNAMICS = 'BFGS' ignored
Warning: card   / ignored
Warning: card    &CELL ignored
Warning: card      CELL_DYNAMICS = 'BFGS', ignored
Warning: card    / ignored

     Current dimensions of program PWSCF are:
     Max number of different atomic species (ntypx) = 10
     Max number of k-points (npk) =  40000
     Max angular momentum in pseudopotentials (lmaxx) =  3

     bravais-lattice index     =            0
     lattice parameter (alat)  =       6.0852  a.u.
     unit-cell volume          =     862.1537 (a.u.)^3
     number of atoms/cell      =            6
     number of atomic types    =            2
     number of electrons       =        36.00
     number of Kohn-Sham states=           22
     kinetic-energy cutoff     =      45.0000  Ry
     charge density cutoff     =     360.0000  Ry
     convergence threshold     =      1.0E-06
     mixing beta               =       0.7000
     number of iterations used =            8  local-TF  mixing
     Exchange-correlation      = SLA PW GGX GGC ( 1  4  2  2 0 0)

     celldm(1)=   6.085214  celldm(2)=   0.000000  celldm(3)=   0.000000
     celldm(4)=   0.000000  celldm(5)=   0.000000  celldm(6)=   0.000000

     crystal axes: (cart. coord. in units of alat)
               a(1) = (   1.000000   0.000000   0.000000 )
               a(2) = (  -0.498502   0.866873   0.000000 )
               a(3) = (  -0.141624  -0.062936   4.413686 )

     reciprocal axes: (cart. coord. in units 2 pi/alat)
               b(1) = (  1.000000  0.575058  0.040287 )
               b(2) = (  0.000000  1.153571  0.016449 )
               b(3) = (  0.000000  0.000000  0.226568 )

     PseudoPot. # 1 for Mo read from file:
     ~/pseudo/Mo.pw91-n-van.UPF
     MD5 check sum: Not computed, couldn't open file
     Pseudo is Ultrasoft + core correction, Zval =  6.0
     Generated by new atomic code, or converted to UPF format
     Using radial grid of  965 points,  3 beta functions with:
                l(1) =   1
                l(2) =   2
                l(3) =   2
     Q(r) pseudized with  8 coefficients,  rinner =    1.000   1.000   1.000
                                                       1.200   1.200

     PseudoPot. # 2 for S  read from file:
     ~/pseudo/S.pw91-van_ak.UPF
     MD5 check sum: Not computed, couldn't open file
     Pseudo is Ultrasoft, Zval =  6.0
     Generated by new atomic code, or converted to UPF format
     Using radial grid of  811 points,  6 beta functions with:
                l(1) =   0
                l(2) =   0
                l(3) =   1
                l(4) =   1
                l(5) =   2
                l(6) =   2
     Q(r) pseudized with  8 coefficients,  rinner =    1.100   1.100   1.100
                                                       1.100   1.100

     atomic species   valence    mass     pseudopotential
        Mo             6.00    95.50000     Mo( 1.00)
        S              6.00    32.06500     S ( 1.00)

     No symmetry found

   Cartesian axes

     site n.     atom                  positions (alat units)
         1           Mo  tau(   1) = (   0.2403573   0.6222856   3.3291013  )
         2           Mo  tau(   2) = (   0.1195047   0.1816240   1.0844856  )
         3           S   tau(   3) = (  -0.2597503   0.3304626   3.8174040  )
         4           S   tau(   4) = (   0.6251807   0.4794222   0.5961516  )
         5           S   tau(   5) = (   0.6155069   0.4637036   1.5714713  )
         6           S   tau(   6) = (  -0.2613867   0.3344028   2.8421613  )

     number of k points=    40  Marzari-Vanderbilt smearing, width (Ry)=  0.0200
                       cart. coord. in units 2pi/alat
        k(    1) = (   0.0000000   0.0000000   0.0000000), wk =   0.0277778
        k(    2) = (   0.0000000   0.0000000  -0.1132840), wk =   0.0277778
        k(    3) = (   0.0000000   0.1922618   0.0027415), wk =   0.0555556
        k(    4) = (   0.0000000   0.1922618  -0.1105425), wk =   0.0555556
        k(    5) = (   0.0000000   0.3845237   0.0054830), wk =   0.0555556
        k(    6) = (   0.0000000   0.3845237  -0.1078010), wk =   0.0555556
        k(    7) = (   0.0000000  -0.5767855  -0.0082245), wk =   0.0277778
        k(    8) = (   0.0000000  -0.5767855  -0.1215085), wk =   0.0277778
        k(    9) = (   0.1666667   0.0958430   0.0067146), wk =   0.0555556
        k(   10) = (   0.1666667   0.0958430  -0.1065694), wk =   0.0555556
        k(   11) = (   0.1666667   0.2881048   0.0094561), wk =   0.0555556
        k(   12) = (   0.1666667   0.2881048  -0.1038279), wk =   0.0555556
        k(   13) = (   0.1666667   0.4803667   0.0121975), wk =   0.0555556
        k(   14) = (   0.1666667   0.4803667  -0.1010864), wk =   0.0555556
        k(   15) = (   0.1666667  -0.4809426  -0.0015099), wk =   0.0555556
        k(   16) = (   0.1666667  -0.4809426  -0.1147939), wk =   0.0555556
        k(   17) = (   0.1666667  -0.2886807   0.0012316), wk =   0.0555556
        k(   18) = (   0.1666667  -0.2886807  -0.1120524), wk =   0.0555556
        k(   19) = (   0.1666667  -0.0964189   0.0039731), wk =   0.0555556
        k(   20) = (   0.1666667  -0.0964189  -0.1093109), wk =   0.0555556
        k(   21) = (   0.3333333   0.1916859   0.0134291), wk =   0.0555556
        k(   22) = (   0.3333333   0.1916859  -0.0998549), wk =   0.0555556
        k(   23) = (   0.3333333   0.3839478   0.0161706), wk =   0.0555556
        k(   24) = (   0.3333333   0.3839478  -0.0971134), wk =   0.0555556
        k(   25) = (   0.3333333   0.5762096   0.0189121), wk =   0.0555556
        k(   26) = (   0.3333333   0.5762096  -0.0943719), wk =   0.0555556
        k(   27) = (   0.3333333  -0.3850996   0.0052046), wk =   0.0555556
        k(   28) = (   0.3333333  -0.3850996  -0.1080794), wk =   0.0555556
        k(   29) = (   0.3333333  -0.1928377   0.0079461), wk =   0.0555556
        k(   30) = (   0.3333333  -0.1928377  -0.1053379), wk =   0.0555556
        k(   31) = (   0.3333333  -0.0005759   0.0106876), wk =   0.0555556
        k(   32) = (   0.3333333  -0.0005759  -0.1025964), wk =   0.0555556
        k(   33) = (  -0.5000000  -0.2875289  -0.0201437), wk =   0.0277778
        k(   34) = (  -0.5000000  -0.2875289  -0.1334276), wk =   0.0277778
        k(   35) = (  -0.5000000  -0.0952671  -0.0174022), wk =   0.0555556
        k(   36) = (  -0.5000000  -0.0952671  -0.1306862), wk =   0.0555556
        k(   37) = (  -0.5000000   0.0969948  -0.0146607), wk =   0.0555556
        k(   38) = (  -0.5000000   0.0969948  -0.1279447), wk =   0.0555556
        k(   39) = (  -0.5000000  -0.8643145  -0.0283682), wk =   0.0277778
        k(   40) = (  -0.5000000  -0.8643145  -0.1416521), wk =   0.0277778

     Initial potential from superposition of free atoms

     starting charge   35.99685, renormalised to   36.00000
     Starting wfcs are   34 randomized atomic wfcs

     Self-consistent Calculation

     iteration #  1     ecut=    45.00 Ry     beta= 0.70
     Davidson diagonalization with overlap
     ethr =  1.00E-02,  avg # of iterations =  2.0

     total energy              =    -140.70369765 Ry
     Harris-Foulkes estimate   =    -141.14174815 Ry
     estimated scf accuracy    <       1.11820429 Ry

[...]

     total energy              =    -140.92272353 Ry
     Harris-Foulkes estimate   =    -140.92273458 Ry
     estimated scf accuracy    <       0.00006703 Ry

     iteration #  9     ecut=    45.00 Ry     beta= 0.70
     Davidson diagonalization with overlap
     ethr =  1.86E-07,  avg # of iterations =  3.5

     End of self-consistent calculation

          k = 0.0000 0.0000 0.0000 (  4441 PWs)   bands (ev):

    -8.0994  -8.0578  -6.8949  -6.8222   0.3023   0.5890   3.2778   3.2844
     3.3045   3.3057   3.8625   4.3984   4.4022   4.4295   4.4317   4.7415
     5.6970   6.2166   8.5816   8.6040   8.6233   8.6403

[...]

          k = 0.3333-0.0006-0.1026 (  4412 PWs)   bands (ev):

[...]

          k =-0.5000-0.2875-0.0201 (  4362 PWs)   bands (ev):

[...]

          k =-0.5000-0.8643-0.1417 (  4356 PWs)   bands (ev):

    -6.3562  -6.3538  -6.0695  -6.0644   0.2942   0.3060   1.2415   1.2656
     1.9104   1.9258   2.7782   2.7812   4.0641   4.1295   4.9330   4.9413
     5.2886   5.3169   7.9230   7.9256   8.4423   8.4548

     the Fermi energy is     6.0761 ev

!    total energy              =    -140.92273824 Ry
     Harris-Foulkes estimate   =    -140.92273868 Ry
     estimated scf accuracy    <       0.00000067 Ry

     The total energy is the sum of the following terms:

     one-electron contribution =     -25.05326399 Ry
     hartree contribution      =      32.55075850 Ry
     xc contribution           =     -55.70496472 Ry
     ewald contribution        =     -92.71816725 Ry
     smearing contrib. (-TS)   =       0.00289923 Ry

     convergence has been achieved in   9 iterations

     Forces acting on atoms (cartesian axes, Ry/au):

     atom    1 type  1   force =    -0.00178156   -0.00194273    0.00252072
     atom    2 type  1   force =     0.00097434    0.00227256   -0.00225195
     atom    3 type  2   force =     0.00011117    0.00312904    0.00272589
     atom    4 type  2   force =    -0.00607150   -0.01025454   -0.00294582
     atom    5 type  2   force =     0.00512601    0.00793812    0.00568448
     atom    6 type  2   force =     0.00164154   -0.00114244   -0.00573333

     Total force =     0.018732     Total SCF correction =     0.001888
     SCF correction compared to forces is large: reduce conv_thr to get better values

     General routines

     Parallel routines

   This run was terminated on:  18: 0:41  10Nov2021

   JOB DONE.