     Program PWSCF v.6.4 starts on 10Nov2021 at 18: 5:12

     R & G space division:  proc/nbgrp/npool/nimage =      40
     Waiting for input...
     Reading input from standard input
Warning: card    &IONS ignored
Warning: card      ION_DYNAMICS = 'BFGS' ignored
Warning: card   / ignored
Warning: card    &CELL ignored
Warning: card      CELL_DYNAMICS = 'BFGS', ignored
Warning: card    / ignored

     Current dimensions of program PWSCF are:
     Max number of different atomic species (ntypx) = 10
     Max number of k-points (npk) =  40000
     Max angular momentum in pseudopotentials (lmaxx) =  3

     bravais-lattice index     =            0
     lattice parameter (alat)  =       6.1190  a.u.
     unit-cell volume          =    1168.0310 (a.u.)^3
     number of atoms/cell      =            6
     number of atomic types    =            2
     number of electrons       =        36.00
     number of Kohn-Sham states=           22
     kinetic-energy cutoff     =      45.0000  Ry
     charge density cutoff     =     360.0000  Ry
     convergence threshold     =      1.0E-06
     mixing beta               =       0.7000
     number of iterations used =            8  local-TF  mixing
     Exchange-correlation      = SLA PW GGX GGC ( 1  4  2  2 0 0)

     celldm(1)=   6.119048  celldm(2)=   0.000000  celldm(3)=   0.000000
     celldm(4)=   0.000000  celldm(5)=   0.000000  celldm(6)=   0.000000

     crystal axes: (cart. coord. in units of alat)
               a(1) = (   1.000000   0.000000   0.000000 )
               a(2) = (  -0.502996   0.858625   0.000000 )
               a(3) = (   1.004315  -0.679589   5.937439 )

     reciprocal axes: (cart. coord. in units 2 pi/alat)
               b(1) = (  1.000000  0.585816 -0.102098 )
               b(2) = (  0.000000  1.164653  0.133304 )
               b(3) = (  0.000000  0.000000  0.168423 )

     PseudoPot. # 1 for Mo read from file:
     ~/pseudo/Mo.pw91-n-van.UPF
     MD5 check sum: Not computed, couldn't open file
     Pseudo is Ultrasoft + core correction, Zval =  6.0
     Generated by new atomic code, or converted to UPF format
     Using radial grid of  965 points,  3 beta functions with:
                l(1) =   1
                l(2) =   2
                l(3) =   2
     Q(r) pseudized with  8 coefficients,  rinner =    1.000   1.000   1.000
                                                       1.200   1.200

     PseudoPot. # 2 for S  read from file:
     ~/pseudo/S.pw91-van_ak.UPF
     MD5 check sum: Not computed, couldn't open file
     Pseudo is Ultrasoft, Zval =  6.0
     Generated by new atomic code, or converted to UPF format
     Using radial grid of  811 points,  6 beta functions with:
                l(1) =   0
                l(2) =   0
                l(3) =   1
                l(4) =   1
                l(5) =   2
                l(6) =   2
     Q(r) pseudized with  8 coefficients,  rinner =    1.100   1.100   1.100
                                                       1.100   1.100

     atomic species   valence    mass     pseudopotential
        Mo             6.00    95.50000     Mo( 1.00)
        S              6.00    32.06500     S ( 1.00)

     No symmetry found

   Cartesian axes

     site n.     atom                  positions (alat units)
         1           Mo  tau(   1) = (   1.7278663  -0.3826937   4.7321659  )
         2           Mo  tau(   2) = (  -0.2266452   0.5612006   1.2053249  )
         3           S   tau(   3) = (   1.2232179  -0.0936536   4.2454606  )
         4           S   tau(   4) = (   0.2714825   0.2774923   0.7182367  )
         5           S   tau(   5) = (   1.2274199  -0.0976002   5.2194759  )
         6           S   tau(   6) = (   0.2805686   0.2711849   1.6921596  )

     number of k points=    20  Marzari-Vanderbilt smearing, width (Ry)=  0.0200
                       cart. coord. in units 2pi/alat
        k(    1) = (   0.0000000   0.0000000   0.0000000), wk =   0.0555556
        k(    2) = (   0.0000000   0.1941088   0.0222174), wk =   0.1111111
        k(    3) = (   0.0000000   0.3882176   0.0444347), wk =   0.1111111
        k(    4) = (   0.0000000  -0.5823263  -0.0666521), wk =   0.0555556
        k(    5) = (   0.1666667   0.0976359  -0.0170163), wk =   0.1111111
        k(    6) = (   0.1666667   0.2917447   0.0052010), wk =   0.1111111
        k(    7) = (   0.1666667   0.4858535   0.0274184), wk =   0.1111111
        k(    8) = (   0.1666667  -0.4846904  -0.0836684), wk =   0.1111111
        k(    9) = (   0.1666667  -0.2905816  -0.0614510), wk =   0.1111111
        k(   10) = (   0.1666667  -0.0964728  -0.0392337), wk =   0.1111111
        k(   11) = (   0.3333333   0.1952719  -0.0340327), wk =   0.1111111
        k(   12) = (   0.3333333   0.3893807  -0.0118153), wk =   0.1111111
        k(   13) = (   0.3333333   0.5834894   0.0104020), wk =   0.1111111
        k(   14) = (   0.3333333  -0.3870544  -0.1006847), wk =   0.1111111
        k(   15) = (   0.3333333  -0.1929457  -0.0784674), wk =   0.1111111
        k(   16) = (   0.3333333   0.0011631  -0.0562500), wk =   0.1111111
        k(   17) = (  -0.5000000  -0.2929078   0.0510490), wk =   0.0555556
        k(   18) = (  -0.5000000  -0.0987991   0.0732664), wk =   0.1111111
        k(   19) = (  -0.5000000   0.0953097   0.0954837), wk =   0.1111111
        k(   20) = (  -0.5000000  -0.8752342  -0.0156030), wk =   0.0555556

     Initial potential from superposition of free atoms

     starting charge   35.99685, renormalised to   36.00000

     negative rho (up, down):  2.106E-06 0.000E+00
     Starting wfcs are   34 randomized atomic wfcs

     Self-consistent Calculation

     iteration #  1     ecut=    45.00 Ry     beta= 0.70
     Davidson diagonalization with overlap
     ethr =  1.00E-02,  avg # of iterations =  2.0

     total energy              =    -140.69943218 Ry
     Harris-Foulkes estimate   =    -141.14451121 Ry
     estimated scf accuracy    <       1.13865950 Ry

[...]

     iteration #  6     ecut=    45.00 Ry     beta= 0.70
     Davidson diagonalization with overlap
     c_bands:  1 eigenvalues not converged
     ethr =  1.85E-06,  avg # of iterations =  6.5

[...]

     negative rho (up, down):  2.522E-05 0.000E+00

[...]

     total energy              =    -140.92291747 Ry
     Harris-Foulkes estimate   =    -140.92292440 Ry
     estimated scf accuracy    <       0.00002715 Ry

     iteration # 11     ecut=    45.00 Ry     beta= 0.70
     Davidson diagonalization with overlap
     ethr =  6.35E-08,  avg # of iterations =  2.1

[...]

     End of self-consistent calculation

          k = 0.0000 0.0000 0.0000 (  6015 PWs)   bands (ev):

   -11.1654 -11.1608  -9.9697  -9.9613  -2.6661  -2.6178   0.1548   0.1568
     0.2625   0.2644   1.0499   1.2340   1.3050   1.3084   1.3425   1.3497
     2.7413   2.8707   5.4263   5.4302   5.5406   5.5491

[...]

          k = 0.3333 0.0012-0.0563 (  5968 PWs)   bands (ev):

[...]

          k =-0.5000-0.2929 0.0510 (  5920 PWs)   bands (ev):

[...]

          k =-0.5000-0.8752-0.0156 (  5928 PWs)   bands (ev):

    -9.4725  -9.4699  -9.1851  -9.1819  -2.7936  -2.7928  -1.8507  -1.8397
    -1.1914  -1.1818  -0.2621  -0.2607   0.9473   1.0100   1.8837   1.8840
     2.1447   2.1714   4.7996   4.8004   5.3095   5.3110

     the Fermi energy is     2.8839 ev

!    total energy              =    -140.92291984 Ry
     Harris-Foulkes estimate   =    -140.92292033 Ry
     estimated scf accuracy    <       0.00000058 Ry

     The total energy is the sum of the following terms:

     one-electron contribution =    -238.64767083 Ry
     hartree contribution      =     135.22230239 Ry
     xc contribution           =     -55.67115537 Ry
     ewald contribution        =      18.16985001 Ry
     smearing contrib. (-TS)   =       0.00375395 Ry

     convergence has been achieved in  11 iterations

     negative rho (up, down):  1.149E-05 0.000E+00

     Forces acting on atoms (cartesian axes, Ry/au):

     atom    1 type  1   force =    -0.00470136    0.00453967    0.00077060
     atom    2 type  1   force =     0.00481935   -0.00396163   -0.00029510
     atom    3 type  2   force =     0.00501220   -0.00408903   -0.00067173
     atom    4 type  2   force =     0.00256635   -0.00185752    0.00007406
     atom    5 type  2   force =     0.00015307    0.00014128   -0.00053299
     atom    6 type  2   force =    -0.00784961    0.00522723    0.00065516

     Total force =     0.014978     Total SCF correction =     0.002522
     SCF correction compared to forces is large: reduce conv_thr to get better values

     General routines

     Parallel routines

   This run was terminated on:  18: 5:26  10Nov2021

   JOB DONE.