     Program PWSCF v.6.4 starts on  3Dec2021 at 19: 2:49

     R & G space division:  proc/nbgrp/npool/nimage =      40
     Waiting for input...
     Reading input from standard input
Warning: card    &IONS ignored
Warning: card      ION_DYNAMICS = 'BFGS' ignored
Warning: card   / ignored
Warning: card    &CELL ignored
Warning: card      CELL_DYNAMICS = 'BFGS', ignored
Warning: card    / ignored

     Current dimensions of program PWSCF are:
     Max number of different atomic species (ntypx) = 10
     Max number of k-points (npk) =  40000
     Max angular momentum in pseudopotentials (lmaxx) =  3

     bravais-lattice index     =            0
     lattice parameter (alat)  =      11.4129  a.u.
     unit-cell volume          =   14940.2792 (a.u.)^3
     number of atoms/cell      =           36
     number of atomic types    =            2
     number of electrons       =       216.00
     number of Kohn-Sham states=          130
     kinetic-energy cutoff     =      45.0000  Ry
     charge density cutoff     =     360.0000  Ry
     convergence threshold     =      1.0E-06
     mixing beta               =       0.7000
     number of iterations used =            8  local-TF  mixing
     Exchange-correlation      = SLA PW GGX GGC ( 1  4  2  2 0 0)

     celldm(1)=  11.412856  celldm(2)=   0.000000  celldm(3)=   0.000000
     celldm(4)=   0.000000  celldm(5)=   0.000000  celldm(6)=   0.000000

     crystal axes: (cart. coord. in units of alat)
               a(1) = (   1.000000   0.000000   0.000000 )
               a(2) = (  -0.014364   1.994054   0.000000 )
               a(3) = (  -0.159849  -0.183563   5.040096 )

     reciprocal axes: (cart. coord. in units 2 pi/alat)
               b(1) = (  1.000000  0.007204  0.031978 )
               b(2) = (  0.000000  0.501491  0.018265 )
               b(3) = (  0.000000  0.000000  0.198409 )

     PseudoPot. # 1 for Mo read from file:
     ~/pseudo/Mo.pw91-n-van.UPF
     MD5 check sum: Not computed, couldn't open file
     Pseudo is Ultrasoft + core correction, Zval =  6.0
     Generated by new atomic code, or converted to UPF format
     Using radial grid of  965 points,  3 beta functions with:
                l(1) =   1
                l(2) =   2
                l(3) =   2
     Q(r) pseudized with  8 coefficients,  rinner =    1.000   1.000   1.000
                                                       1.200   1.200

     PseudoPot. # 2 for S  read from file:
     ~/pseudo/S.pw91-van_ak.UPF
     MD5 check sum: Not computed, couldn't open file
     Pseudo is Ultrasoft, Zval =  6.0
     Generated by new atomic code, or converted to UPF format
     Using radial grid of  811 points,  6 beta functions with:
                l(1) =   0
                l(2) =   0
                l(3) =   1
                l(4) =   1
                l(5) =   2
                l(6) =   2
     Q(r) pseudized with  8 coefficients,  rinner =    1.100   1.100   1.100
                                                       1.100   1.100

     atomic species   valence    mass     pseudopotential
        Mo             6.00    95.50000     Mo( 1.00)
        S              6.00    32.06500     S ( 1.00)

     No symmetry found

   Cartesian axes

     site n.     atom                  positions (alat units)
         1           Mo  tau(   1) = (   0.6050025  -0.1785952   3.3000346  )
         2           Mo  tau(   2) = (   0.5923912   1.2524818   3.5057155  )
         3           Mo  tau(   3) = (   0.0895288   1.8117647   3.2998835  )
         4           Mo  tau(   4) = (   0.0931335   1.2478591   3.5100270  )
         5           Mo  tau(   5) = (   0.6072290   0.7791339   3.8272061  )
         6           Mo  tau(   6) = (   0.0909375   0.7865979   3.8406329  )
         7           Mo  tau(   7) = (   0.8540906   0.2491176   3.4024370  )
         8           Mo  tau(   8) = (   0.3525874   0.2314753   3.3953442  )
         9           Mo  tau(   9) = (   0.5030633   0.9705953   4.5095571  )
        10           Mo  tau(  10) = (  -0.0167487   0.9264836   4.4522268  )
        11           Mo  tau(  11) = (   0.0632308   0.4859719   1.7933091  )
        12           Mo  tau(  12) = (   0.5630900   0.4851826   1.7925018  )
        13           S   tau(  13) = (   0.8405140   1.5807981   3.5362183  )
        14           S   tau(  14) = (   0.0998893   0.0539813   3.6335135  )
        15           S   tau(  15) = (   0.3403953   1.5795629   3.5343525  )
        16           S   tau(  16) = (   0.6054253   0.0580962   3.6349845  )
        17           S   tau(  17) = (   0.8144173   0.2988824   1.5758715  )
        18           S   tau(  18) = (   0.3135801   0.7022458   1.6054999  )
        19           S   tau(  19) = (   0.8372573   1.6923227   3.0207615  )
        20           S   tau(  20) = (   0.1009674   0.1765748   3.0993213  )
        21           S   tau(  21) = (   0.3431739   1.7000046   3.0199812  )
        22           S   tau(  22) = (   0.6071251   0.1843691   3.0987552  )
        23           S   tau(  23) = (   0.8118857   0.6730318   2.0091802  )
        24           S   tau(  24) = (   0.3127239   0.2682059   1.9791566  )
        25           S   tau(  25) = (   0.8423838   1.1134007   3.8084927  )
        26           S   tau(  26) = (   0.3487322   1.0999069   3.8023643  )
        27           S   tau(  27) = (   0.8435846   1.0889122   3.2462055  )
        28           S   tau(  28) = (   0.3421757   1.0797397   3.2494468  )
        29           S   tau(  29) = (   0.8518015   0.5977466   3.5838144  )
        30           S   tau(  30) = (   0.3431395   0.5991672   3.5613651  )
        31           S   tau(  31) = (   0.2155746   1.1112534   4.7072555  )
        32           S   tau(  32) = (   0.7510387   1.2246672   4.3699137  )
        33           S   tau(  33) = (   0.8390798   0.6556153   4.1332688  )
        34           S   tau(  34) = (   0.3420171   0.4653400   3.9105337  )
        35           S   tau(  35) = (   0.3008754   0.7935382   4.2474660  )
        36           S   tau(  36) = (   0.7435616   0.7372093   4.6889071  )

     number of k points=     4  Marzari-Vanderbilt smearing, width (Ry)=  0.0200
                       cart. coord. in units 2pi/alat
        k(    1) = (   0.0000000   0.0000000   0.0000000), wk =   0.3333333
        k(    2) = (   0.0000000  -0.2507455  -0.0091323), wk =   0.3333333
        k(    3) = (   0.3333333   0.0024012   0.0106593), wk =   0.6666667
        k(    4) = (   0.3333333  -0.2483443   0.0015270), wk =   0.6666667

     Initial potential from superposition of free atoms

     starting charge  215.98107, renormalised to  216.00000

     negative rho (up, down):  1.272E-03 0.000E+00
     Starting wfcs are  204 randomized atomic wfcs

     Self-consistent Calculation

     iteration #  1     ecut=    45.00 Ry     beta= 0.70
     Davidson diagonalization with overlap
     ethr =  1.00E-02,  avg # of iterations =  2.5

     negative rho (up, down):  8.417E-05 0.000E+00

     total energy              =    -842.76880329 Ry
     Harris-Foulkes estimate   =    -845.57846114 Ry
     estimated scf accuracy    <       8.42760350 Ry

[...]

     iteration #  9     ecut=    45.00 Ry     beta= 0.70
     Davidson diagonalization with overlap
     c_bands:  1 eigenvalues not converged
     ethr =  2.58E-05,  avg # of iterations = 12.0

[...]

     total energy              =    -844.21426087 Ry
     Harris-Foulkes estimate   =    -844.21425957 Ry
     estimated scf accuracy    <       0.00000115 Ry

     iteration # 22     ecut=    45.00 Ry     beta= 0.70
     Davidson diagonalization with overlap
     ethr =  5.34E-10,  avg # of iterations =  1.0

[...]

     End of self-consistent calculation

          k = 0.0000 0.0000 0.0000 ( 76171 PWs)   bands (ev):

   -16.8045 -15.8169 -15.5344 -15.0907 -14.9493 -14.6825 -14.6370 -14.4236
   -14.2655 -14.1278 -14.1075 -14.0986 -14.0953 -13.9587 -13.8726 -13.8407
   -13.7668 -13.6843 -13.5602 -13.5588 -13.4199 -13.3260 -13.1636 -12.9767
    -8.1207  -7.9816  -7.7352  -7.5832  -7.4514  -7.3364  -7.3285  -7.2261
    -7.1561  -6.9891  -6.6873  -6.6391  -6.4141  -6.3232  -6.2364  -6.1816
    -6.1393  -6.1219  -6.0422  -5.9772  -5.8663  -5.8295  -5.7103  -5.5282
    -5.4963  -5.4519  -5.3503  -5.2049  -5.1549  -5.1531  -5.1162  -5.0901
    -5.0397  -5.0280  -4.9417  -4.8560  -4.8286  -4.7545  -4.6456  -4.5852
    -4.5332  -4.4610  -4.4072  -4.3682  -4.3635  -4.3203  -4.2445  -4.1841
    -4.1368  -4.0602  -4.0066  -3.8841  -3.8683  -3.8185  -3.7672  -3.7313
    -3.6278  -3.5846  -3.5016  -3.4168  -3.3898  -3.2606  -3.1455  -3.1316
    -3.1302  -3.0887  -2.8258  -2.7880  -2.7271  -2.5715  -2.4889  -2.4751
    -2.2627  -2.2508  -2.1753  -2.1133  -1.9885  -1.7727  -1.6785  -1.6711
    -1.6106  -1.5792  -1.4813  -1.4703  -1.4595  -1.2998  -1.2421  -1.0791
    -0.9477  -0.7919  -0.6871  -0.5772  -0.4748  -0.3907  -0.3772  -0.2519
     0.0867   0.1258   0.2063   0.2444   0.2542   0.2573   0.2789   0.4583
     0.5879   0.6456

[...]

          k = 0.3333-0.2483 0.0015 ( 76181 PWs)   bands (ev):

   -16.7098 -15.5582 -15.2647 -14.9302 -14.8442 -14.7795 -14.7329 -14.5853
   -14.5416 -14.2976 -14.2266 -14.0740 -13.9515 -13.9193 -13.9145 -13.7900
   -13.7580 -13.6715 -13.5798 -13.5526 -13.5513 -13.4922 -13.3418 -13.2171
    -7.7022  -7.4446  -7.3546  -7.2187  -7.1395  -7.0797  -7.0386  -6.7524
    -6.6990  -6.6333  -6.5981  -6.5216  -6.3970  -6.2231  -6.1330  -5.9980
    -5.9546  -5.8757  -5.7530  -5.7277  -5.6180  -5.6110  -5.5812  -5.5246
    -5.4676  -5.3775  -5.3207  -5.2235  -5.1519  -5.1193  -5.0882  -5.0411
    -4.9909  -4.9653  -4.9585  -4.9086  -4.8875  -4.8852  -4.8534  -4.8002
    -4.7586  -4.6729  -4.6206  -4.5572  -4.4607  -4.4113  -4.4021  -4.4002
    -4.3971  -4.3452  -4.3276  -4.3110  -4.2901  -4.2014  -4.1186  -4.0420
    -3.9088  -3.7502  -3.6691  -3.6465  -3.6457  -3.6153  -3.5082  -3.4364
    -3.4186  -3.3017  -3.1612  -3.0849  -3.0444  -2.9795  -2.8587  -2.5556
    -2.5047  -2.2800  -2.1079  -2.0932  -1.9354  -1.7887  -1.5754  -1.4139
    -1.4115  -1.4084  -1.3490  -1.2350  -1.1634  -1.0497  -0.9916  -0.9347
    -0.8076  -0.7082  -0.6467  -0.5164  -0.4944  -0.4419  -0.3573  -0.1540
    -0.1192  -0.0698   0.0366   0.1200   0.2253   0.3156   0.3706   0.3796
     0.3806   0.5054

     the Fermi energy is    -1.2591 ev

!    total energy              =    -844.21426065 Ry
     Harris-Foulkes estimate   =    -844.21426091 Ry
     estimated scf accuracy    <       0.00000044 Ry

     The total energy is the sum of the following terms:

     one-electron contribution =   -5798.89585298 Ry
     hartree contribution      =    2958.24612426 Ry
     xc contribution           =    -333.24339390 Ry
     ewald contribution        =    2329.68539063 Ry
     smearing contrib. (-TS)   =      -0.00652867 Ry

     convergence has been achieved in  22 iterations

     negative rho (up, down):  1.981E-03 0.000E+00

     Forces acting on atoms (cartesian axes, Ry/au):

     atom    1 type  1   force =     0.00590751   -0.02376812   -0.03483063
     atom    2 type  1   force =     0.00022304   -0.03097346   -0.02796277
     atom    3 type  1   force =    -0.00577420   -0.02413789   -0.04153241
     atom    4 type  1   force =     0.00637199   -0.01517400   -0.03053657
     atom    5 type  1   force =    -0.03133518   -0.01278741   -0.02015273
     atom    6 type  1   force =     0.01802268   -0.02834377   -0.02682300
     atom    7 type  1   force =    -0.00162958    0.02712809   -0.00143022
     atom    8 type  1   force =     0.00054595    0.06478065   -0.00091015
     atom    9 type  1   force =     0.00568870    0.00966183   -0.00388549
     atom   10 type  1   force =     0.00411129    0.01323072    0.01718403
     atom   11 type  1   force =     0.00012806    0.00244890   -0.00138141
     atom   12 type  1   force =     0.00034344   -0.00053458   -0.00124051
     atom   13 type  2   force =     0.00173781    0.00854709    0.01683778
     atom   14 type  2   force =    -0.00077635   -0.02320888    0.02192026
     atom   15 type  2   force =    -0.00091484    0.00176622    0.01413856
     atom   16 type  2   force =     0.00328405   -0.02260398    0.02101132
     atom   17 type  2   force =    -0.00141854   -0.01130164   -0.01294588
     atom   18 type  2   force =    -0.00063185    0.01286318   -0.01069324
     atom   19 type  2   force =     0.00661196    0.00323597    0.01083361
     atom   20 type  2   force =    -0.00336646   -0.01125796   -0.00073338
     atom   21 type  2   force =    -0.00678329   -0.00018360    0.00800488
     atom   22 type  2   force =    -0.00126870   -0.01680595    0.00387503
     atom   23 type  2   force =     0.00131095    0.01166255    0.01417748
     atom   24 type  2   force =     0.00058345   -0.01367704    0.01212435
     atom   25 type  2   force =    -0.00248742    0.02709957    0.01584086
     atom   26 type  2   force =     0.00058592   -0.00007921    0.00317073
     atom   27 type  2   force =    -0.00059870    0.01999824    0.03093768
     atom   28 type  2   force =     0.00101875    0.01651233    0.02698039
     atom   29 type  2   force =    -0.00459316    0.00137631   -0.01514518
     atom   30 type  2   force =     0.00984143    0.00604550    0.01546295
     atom   31 type  2   force =    -0.00879860    0.00833243    0.01863637
     atom   32 type  2   force =    -0.00166765   -0.00741809   -0.01295854
     atom   33 type  2   force =     0.00297668    0.00917726   -0.01224180
     atom   34 type  2   force =     0.00749359    0.01616319   -0.00488435
     atom   35 type  2   force =    -0.01112115   -0.00744754    0.01189775
     atom   36 type  2   force =     0.00637843   -0.01032692   -0.00274580

     Total force =     0.162345     Total SCF correction =     0.001297

     General routines

     Parallel routines

   This run was terminated on:  19: 8:59   3Dec2021

   JOB DONE.