     Program PWSCF v.6.4 starts on 18Oct2021 at 16: 2: 1

     R & G space division:  proc/nbgrp/npool/nimage =      40
     Waiting for input...
     Reading input from standard input
Warning: card    &IONS ignored
Warning: card      ION_DYNAMICS = 'BFGS' ignored
Warning: card   / ignored
Warning: card    &CELL ignored
Warning: card      CELL_DYNAMICS = 'BFGS', ignored
Warning: card    / ignored

     Current dimensions of program PWSCF are:
     Max number of different atomic species (ntypx) = 10
     Max number of k-points (npk) =  40000
     Max angular momentum in pseudopotentials (lmaxx) =  3

     bravais-lattice index     =            0
     lattice parameter (alat)  =      12.0721  a.u.
     unit-cell volume          =    5099.1128 (a.u.)^3
     number of atoms/cell      =           24
     number of atomic types    =            2
     number of electrons       =       144.00
     number of Kohn-Sham states=           86
     kinetic-energy cutoff     =      45.0000  Ry
     charge density cutoff     =     360.0000  Ry
     convergence threshold     =      1.0E-06
     mixing beta               =       0.7000
     number of iterations used =            8  local-TF  mixing
     Exchange-correlation      = SLA PW GGX GGC ( 1  4  2  2 0 0)

     celldm(1)=  12.072080  celldm(2)=   0.000000  celldm(3)=   0.000000
     celldm(4)=   0.000000  celldm(5)=   0.000000  celldm(6)=   0.000000

     crystal axes: (cart. coord. in units of alat)
               a(1) = (   0.999990   0.000039   0.004451 )
               a(2) = (   0.505005   0.872679   0.012419 )
               a(3) = (   0.482178   0.298139   3.326919 )

     reciprocal axes: (cart. coord. in units 2 pi/alat)
               b(1) = (  1.000448 -0.577615 -0.093235 )
               b(2) = (  0.000413  1.147121 -0.102858 )
               b(3) = ( -0.001340 -0.003509  0.301087 )

     PseudoPot. # 1 for Mo read from file:
     ~/pseudo/Mo.pw91-n-van.UPF
     MD5 check sum: Not computed, couldn't open file
     Pseudo is Ultrasoft + core correction, Zval =  6.0
     Generated by new atomic code, or converted to UPF format
     Using radial grid of  965 points,  3 beta functions with:
                l(1) =   1
                l(2) =   2
                l(3) =   2
     Q(r) pseudized with  8 coefficients,  rinner =    1.000   1.000   1.000
                                                       1.200   1.200

     PseudoPot. # 2 for S  read from file:
     ~/pseudo/S.pw91-van_ak.UPF
     MD5 check sum: Not computed, couldn't open file
     Pseudo is Ultrasoft, Zval =  6.0
     Generated by new atomic code, or converted to UPF format
     Using radial grid of  811 points,  6 beta functions with:
                l(1) =   0
                l(2) =   0
                l(3) =   1
                l(4) =   1
                l(5) =   2
                l(6) =   2
     Q(r) pseudized with  8 coefficients,  rinner =    1.100   1.100   1.100
                                                       1.100   1.100

     atomic species   valence    mass     pseudopotential
        Mo             6.00    95.50000     Mo( 1.00)
        S              6.00    32.06500     S ( 1.00)

     No symmetry found

   Cartesian axes

     site n.     atom                  positions (alat units)
         1           Mo  tau(   1) = (   0.4804748   0.4156914   0.7198411  )
         2           Mo  tau(   2) = (   0.7329913   0.8520426   0.7260431  )
         3           Mo  tau(   3) = (   0.9804816   0.4157170   0.7220557  )
         4           Mo  tau(   4) = (   1.2329702   0.8520488   0.7282535  )
         5           Mo  tau(   5) = (   1.3637381   0.6287906   2.5837252  )
         6           Mo  tau(   6) = (   0.9201019   1.0690887   2.7972017  )
         7           Mo  tau(   7) = (   1.7475476   0.9175185   2.3885703  )
         8           Mo  tau(   8) = (   1.4772086   0.9723637   2.7649509  )
         9           S   tau(   9) = (   1.2321451   0.5637285   0.4769713  )
        10           S   tau(  10) = (   0.9796321   0.1273707   0.4707542  )
        11           S   tau(  11) = (   0.7321260   0.5637180   0.4747653  )
        12           S   tau(  12) = (   0.4796338   0.1273570   0.4685226  )
        13           S   tau(  13) = (   1.6841218   0.9556984   3.0840035  )
        14           S   tau(  14) = (   1.2155537   0.4955952   2.8780373  )
        15           S   tau(  15) = (   1.2078583   1.0732598   3.0102254  )
        16           S   tau(  16) = (   0.7581473   0.7260906   2.6966136  )
        17           S   tau(  17) = (   0.9523564   0.2732007   2.4318120  )
        18           S   tau(  18) = (   1.0974832   0.6757479   2.3565275  )
        19           S   tau(  19) = (   0.4990388   0.3130977   2.4190889  )
        20           S   tau(  20) = (   0.6429047   0.7447281   2.1064111  )
        21           S   tau(  21) = (   1.2297237   0.5595476   0.9727860  )
        22           S   tau(  22) = (   0.9772114   0.1231973   0.9665403  )
        23           S   tau(  23) = (   0.7297286   0.5595214   0.9705432  )
        24           S   tau(  24) = (   0.4772412   0.1231827   0.9643195  )

     number of k points=     5  Marzari-Vanderbilt smearing, width (Ry)=  0.0200
                       cart. coord. in units 2pi/alat
        k(    1) = (   0.0000000   0.0000000   0.0000000), wk =   0.2222222
        k(    2) = (   0.0001375   0.3823737  -0.0342860), wk =   0.4444444
        k(    3) = (   0.3334826  -0.1925384  -0.0310782), wk =   0.4444444
        k(    4) = (   0.3336201   0.1898353  -0.0653642), wk =   0.4444444
        k(    5) = (   0.3333450  -0.5749122   0.0032078), wk =   0.4444444

     Initial potential from superposition of free atoms

     starting charge  143.98738, renormalised to  144.00000

     negative rho (up, down):  4.465E-06 0.000E+00
     Starting wfcs are  136 randomized atomic wfcs

     Self-consistent Calculation

     iteration #  1     ecut=    45.00 Ry     beta= 0.70
     Davidson diagonalization with overlap
     ethr =  1.00E-02,  avg # of iterations =  2.0

     negative rho (up, down):  8.668E-08 0.000E+00

     total energy              =    -562.10115900 Ry
     Harris-Foulkes estimate   =    -564.00891736 Ry
     estimated scf accuracy    <       5.16677745 Ry

[...]

     iteration # 23     ecut=    45.00 Ry     beta= 0.70
     Davidson diagonalization with overlap
     c_bands:  1 eigenvalues not converged
     ethr =  1.02E-06,  avg # of iterations = 13.4

[...]

     total energy              =    -563.10384240 Ry
     Harris-Foulkes estimate   =    -563.10384246 Ry
     estimated scf accuracy    <       0.00000119 Ry

     iteration # 40     ecut=    45.00 Ry     beta= 0.70
     Davidson diagonalization with overlap
     ethr =  8.25E-10,  avg # of iterations =  1.4

[...]

     End of self-consistent calculation

          k = 0.0000 0.0000 0.0000 ( 25921 PWs)   bands (ev):

   -11.8508 -11.7138 -11.0764 -10.6248 -10.5279 -10.3664  -9.9701  -9.9646
    -9.9501  -9.9287  -9.7321  -9.7194  -9.7015  -9.6739  -9.5051  -9.3855
    -3.3549  -3.3484  -3.3371  -3.2776  -3.1939  -3.0695  -2.9702  -2.8675
    -2.4210  -2.4091  -2.4014  -2.3740  -2.2270  -2.0981  -1.8766  -1.7425
    -1.7089  -1.7052  -1.7004  -1.6052  -1.4184  -1.3131  -1.1471  -0.8500
    -0.7797  -0.7406  -0.7344  -0.6141  -0.3457  -0.3091  -0.2838  -0.2110
    -0.0860   0.0036   0.2448   0.4039   0.4208   0.4459   0.4824   0.5718
     0.7103   0.8104   0.8267   0.8938   0.9580   1.3356   1.3973   1.4371
     1.4650   1.6157   1.6379   1.6704   1.6728   1.9457   2.2195   2.3574
     2.5576   2.7225   2.9233   3.2682   3.4692   3.6271   3.7985   3.9059
     4.2612   4.3446   4.3456   4.3536   4.8827   5.0061

[...]

          k = 0.3333-0.5749 0.0032 ( 26048 PWs)   bands (ev):

   -11.5641 -10.9994 -10.7425 -10.7298 -10.7190 -10.7117 -10.5114 -10.0573
   -10.0460 -10.0386  -9.9896  -9.9163  -9.7025  -9.5365  -9.5319  -9.4155
    -3.3451  -3.1246  -2.9628  -2.8904  -2.6086  -2.5052  -2.5034  -2.5004
    -2.3888  -2.1780  -2.1655  -2.0861  -1.9437  -1.7228  -1.6768  -1.5654
    -1.4659  -1.4656  -1.4652  -1.4003  -1.2571  -1.2489  -1.2336  -1.2298
    -1.1618  -1.0170  -0.8446  -0.8177  -0.8111  -0.8019  -0.6473  -0.5685
    -0.4173  -0.4009  -0.0934   0.0899   0.1317   0.3216   0.3784   0.3910
     0.3985   0.5068   0.6054   0.9321   1.1440   1.2214   1.2291   1.2357
     1.2625   1.4867   1.4973   1.5139   1.5870   2.0066   2.0670   2.2583
     2.5648   2.8053   2.8959   3.2603   3.5241   3.8387   3.8810   3.9263
     4.0776   4.1239   4.1307   4.1385   4.2323   4.6114

     the Fermi energy is     2.3613 ev

!    total energy              =    -563.10384169 Ry
     Harris-Foulkes estimate   =    -563.10384242 Ry
     estimated scf accuracy    <       0.00000079 Ry

     The total energy is the sum of the following terms:

     one-electron contribution =    -912.43378259 Ry
     hartree contribution      =     516.28811944 Ry
     xc contribution           =    -222.22355002 Ry
     ewald contribution        =      55.25482087 Ry
     smearing contrib. (-TS)   =       0.01055061 Ry

     convergence has been achieved in  40 iterations

     negative rho (up, down):  2.689E-05 0.000E+00

     Forces acting on atoms (cartesian axes, Ry/au):

     atom    1 type  1   force =    -0.00017638    0.00060398    0.00047513
     atom    2 type  1   force =    -0.00040902   -0.00024848    0.00064082
     atom    3 type  1   force =    -0.00045463    0.00055033    0.00054826
     atom    4 type  1   force =    -0.00022192   -0.00007737    0.00046565
     atom    5 type  1   force =     0.00046196    0.00088524   -0.00825687
     atom    6 type  1   force =     0.00545335    0.00791049    0.00284244
     atom    7 type  1   force =     0.00272521   -0.00771885   -0.00643051
     atom    8 type  1   force =    -0.00781007   -0.00189088    0.00466066
     atom    9 type  2   force =    -0.00026854    0.00161692   -0.00010942
     atom   10 type  2   force =    -0.00009240    0.00183847   -0.00011634
     atom   11 type  2   force =    -0.00001068    0.00152320   -0.00001339
     atom   12 type  2   force =    -0.00012728    0.00178794    0.00039062
     atom   13 type  2   force =     0.00139610    0.00131315    0.00110380
     atom   14 type  2   force =     0.00530696   -0.00028803   -0.00031815
     atom   15 type  2   force =    -0.00451569    0.00056113   -0.00045103
     atom   16 type  2   force =     0.00212182   -0.00055912    0.00054025
     atom   17 type  2   force =     0.00032415    0.00350846   -0.00718319
     atom   18 type  2   force =     0.00076773   -0.00253910    0.00459593
     atom   19 type  2   force =    -0.00647023   -0.00543341   -0.00155548
     atom   20 type  2   force =     0.00054267    0.00461180    0.01034371
     atom   21 type  2   force =     0.00033600   -0.00209054   -0.00064902
     atom   22 type  2   force =     0.00058312   -0.00187976   -0.00058469
     atom   23 type  2   force =     0.00034364   -0.00190003   -0.00046282
     atom   24 type  2   force =     0.00019415   -0.00208554   -0.00047636

     Total force =     0.027383     Total SCF correction =     0.001929

     General routines

     Parallel routines

   This run was terminated on:  16: 4: 0  18Oct2021

   JOB DONE.