     Program PWSCF v.6.4 starts on  8Sep2021 at 12:16:50

     R & G space division:  proc/nbgrp/npool/nimage =      40
     Waiting for input...
     Reading input from standard input
Warning: card    &IONS ignored
Warning: card      ION_DYNAMICS = 'BFGS' ignored
Warning: card   / ignored
Warning: card    &CELL ignored
Warning: card      CELL_DYNAMICS = 'BFGS', ignored
Warning: card    / ignored

     Current dimensions of program PWSCF are:
     Max number of different atomic species (ntypx) = 10
     Max number of k-points (npk) =  40000
     Max angular momentum in pseudopotentials (lmaxx) =  3

     bravais-lattice index     =            0
     lattice parameter (alat)  =      12.0243  a.u.
     unit-cell volume          =    3525.5522 (a.u.)^3
     number of atoms/cell      =           24
     number of atomic types    =            2
     number of electrons       =       144.00
     number of Kohn-Sham states=           86
     kinetic-energy cutoff     =      45.0000  Ry
     charge density cutoff     =     360.0000  Ry
     convergence threshold     =      1.0E-06
     mixing beta               =       0.7000
     number of iterations used =            8  local-TF  mixing
     Exchange-correlation      = SLA PW GGX GGC ( 1  4  2  2 0 0)

     celldm(1)=  12.024261  celldm(2)=   0.000000  celldm(3)=   0.000000
     celldm(4)=   0.000000  celldm(5)=   0.000000  celldm(6)=   0.000000

     crystal axes: (cart. coord. in units of alat)
               a(1) = (   0.999800   0.019810   0.002850 )
               a(2) = (  -0.514245   0.929365  -0.010173 )
               a(3) = (  -0.116985  -0.265094   2.160924 )

     reciprocal axes: (cart. coord. in units 2 pi/alat)
               b(1) = (  0.988987  0.548558  0.120835 )
               b(2) = ( -0.021482  1.065534  0.129553 )
               b(3) = ( -0.001405  0.004293  0.463216 )

     PseudoPot. # 1 for Mo read from file:
     ~/pseudo/Mo.pw91-n-van.UPF
     MD5 check sum: Not computed, couldn't open file
     Pseudo is Ultrasoft + core correction, Zval =  6.0
     Generated by new atomic code, or converted to UPF format
     Using radial grid of  965 points,  3 beta functions with:
                l(1) =   1
                l(2) =   2
                l(3) =   2
     Q(r) pseudized with  8 coefficients,  rinner =    1.000   1.000   1.000
                                                       1.200   1.200

     PseudoPot. # 2 for S  read from file:
     ~/pseudo/S.pw91-van_ak.UPF
     MD5 check sum: Not computed, couldn't open file
     Pseudo is Ultrasoft, Zval =  6.0
     Generated by new atomic code, or converted to UPF format
     Using radial grid of  811 points,  6 beta functions with:
                l(1) =   0
                l(2) =   0
                l(3) =   1
                l(4) =   1
                l(5) =   2
                l(6) =   2
     Q(r) pseudized with  8 coefficients,  rinner =    1.100   1.100   1.100
                                                       1.100   1.100

     atomic species   valence    mass     pseudopotential
        Mo             6.00    95.50000     Mo( 1.00)
        S              6.00    32.06500     S ( 1.00)

     No symmetry found

   Cartesian axes

     site n.     atom                  positions (alat units)
         1           Mo  tau(   1) = (  -0.0034883  -0.1999586   1.6343759  )
         2           Mo  tau(   2) = (  -0.2698843   0.3573272   1.6103622  )
         3           Mo  tau(   3) = (   0.5069799  -0.1912032   1.6377469  )
         4           Mo  tau(   4) = (   0.2327228   0.3638165   1.6172914  )
         5           Mo  tau(   5) = (  -0.1119737   0.0491234   0.5941249  )
         6           Mo  tau(   6) = (  -0.3704676   0.4327722   0.4684579  )
         7           Mo  tau(   7) = (   0.3897760   0.0616899   0.5969357  )
         8           Mo  tau(   8) = (   0.1331459   0.4423067   0.4712419  )
         9           S   tau(   9) = (   0.2532802  -0.3023609   1.8944390  )
        10           S   tau(  10) = (  -0.0091524   0.1461269   1.8333228  )
        11           S   tau(  11) = (   0.7488744  -0.2891509   1.9063762  )
        12           S   tau(  12) = (   0.4908414   0.1616000   1.8397571  )
        13           S   tau(  13) = (  -0.1184910   0.2349178   0.2666380  )
        14           S   tau(  14) = (  -0.6295989   0.6740326   0.3188971  )
        15           S   tau(  15) = (   0.3852055   0.2437667   0.2704406  )
        16           S   tau(  16) = (  -0.1240174   0.6850557   0.3258834  )
        17           S   tau(  17) = (   0.1351923   0.2523575   0.8020176  )
        18           S   tau(  18) = (  -0.3733045   0.7328315   0.7332005  )
        19           S   tau(  19) = (   0.6360931   0.2622358   0.7994249  )
        20           S   tau(  20) = (   0.1243991   0.7403146   0.7293724  )
        21           S   tau(  21) = (   0.2427789   0.0241272   1.4200342  )
        22           S   tau(  22) = (  -0.0184346   0.4734777   1.3507008  )
        23           S   tau(  23) = (   0.7453230   0.0218758   1.4024162  )
        24           S   tau(  24) = (   0.4813305   0.4762305   1.3526081  )

     number of k points=    10  Marzari-Vanderbilt smearing, width (Ry)=  0.0200
                       cart. coord. in units 2pi/alat
        k(    1) = (   0.0000000   0.0000000   0.0000000), wk =   0.1111111
        k(    2) = (   0.0007027  -0.0021464  -0.2316078), wk =   0.1111111
        k(    3) = (  -0.0071607   0.3551781   0.0431842), wk =   0.2222222
        k(    4) = (  -0.0064579   0.3530317  -0.1884236), wk =   0.2222222
        k(    5) = (   0.3296622   0.1828527   0.0402784), wk =   0.2222222
        k(    6) = (   0.3303650   0.1807063  -0.1913294), wk =   0.2222222
        k(    7) = (   0.3225015   0.5380308   0.0834626), wk =   0.2222222
        k(    8) = (   0.3232043   0.5358844  -0.1481452), wk =   0.2222222
        k(    9) = (   0.3368229  -0.1723255  -0.0029058), wk =   0.2222222
        k(   10) = (   0.3375256  -0.1744719  -0.2345136), wk =   0.2222222

     Initial potential from superposition of free atoms

     starting charge  143.98738, renormalised to  144.00000
     Starting wfcs are  136 randomized atomic wfcs

     Self-consistent Calculation

     iteration #  1     ecut=    45.00 Ry     beta= 0.70
     Davidson diagonalization with overlap
     ethr =  1.00E-02,  avg # of iterations =  2.2

     total energy              =    -562.24818580 Ry
     Harris-Foulkes estimate   =    -564.15811386 Ry
     estimated scf accuracy    <       5.08376179 Ry

[...]

     total energy              =    -563.26546106 Ry
     Harris-Foulkes estimate   =    -563.26546117 Ry
     estimated scf accuracy    <       0.00000104 Ry

     iteration # 13     ecut=    45.00 Ry     beta= 0.70
     Davidson diagonalization with overlap
     ethr =  7.24E-10,  avg # of iterations =  2.1

     End of self-consistent calculation

          k = 0.0000 0.0000 0.0000 ( 17991 PWs)   bands (ev):

    -8.4439  -7.8898  -7.4878  -7.0133  -6.7906  -6.7734  -6.6854  -6.5100
    -6.4927  -6.4279  -6.3781  -6.3145  -6.2987  -6.2525  -5.7792  -5.7378
    -0.3827   0.1807   0.2100   0.2378   0.2858   0.6336   0.6375   0.6720
     0.7757   0.8025   0.9963   1.4639   1.5383   1.5485   1.6396   1.7252
     1.7450   1.7731   2.1631   2.1835   2.2311   2.3741   2.3863   2.5783
     2.6336   2.8261   2.8862   2.9524   3.0260   3.0476   3.0580   3.1971
     3.4765   3.8331   3.8550   3.9086   3.9829   4.0124   4.1865   4.2755
     4.3703   4.3993   4.4322   4.5841   4.7579   4.7682   5.0683   5.1285
     5.1571   5.1874   5.2202   5.2762   5.5372   5.5645   6.0644   6.1719
     6.2759   6.3756   6.4479   6.5938   7.4889   7.5386   7.6604   7.6739
     7.7152   7.9713   8.0926   8.1040   8.2508   8.2559

[...]

          k =-0.0072 0.3552 0.0432 ( 17946 PWs)   bands (ev):

[...]

          k =-0.0065 0.3530-0.1884 ( 17959 PWs)   bands (ev):

[...]

          k = 0.3375-0.1745-0.2345 ( 17983 PWs)   bands (ev):

    -8.0996  -7.5332  -7.3286  -7.2912  -6.9707  -6.8811  -6.7566  -6.7139
    -6.6299  -6.5635  -6.3653  -6.2608  -6.2454  -6.1692  -6.0925  -5.8074
     0.1276   0.5853   0.6262   0.6560   0.7265   0.7423   0.9521   1.0548
     1.0759   1.1816   1.3078   1.3675   1.4354   1.6803   1.7221   1.8469
     1.9010   1.9264   1.9521   2.0738   2.1528   2.3367   2.4027   2.4906
     2.5524   2.5796   2.7263   2.7912   2.8480   2.9577   3.0094   3.2879
     3.3210   3.3987   3.4280   3.6022   3.6711   3.7156   3.8359   3.9651
     4.0579   4.1277   4.3492   4.4786   4.5718   4.6745   4.7999   4.9386
     4.9920   5.0452   5.1661   5.2988   5.4356   5.6558   5.6771   5.8639
     6.1449   6.2868   6.7126   6.9093   7.1102   7.2611   7.4267   7.6356
     7.8463   7.9113   8.0114   8.0947   8.1578   8.2580

     the Fermi energy is     6.0476 ev

!    total energy              =    -563.26546086 Ry
     Harris-Foulkes estimate   =    -563.26546114 Ry
     estimated scf accuracy    <       0.00000031 Ry

     The total energy is the sum of the following terms:

     one-electron contribution =     -80.26873144 Ry
     hartree contribution      =     119.20573173 Ry
     xc contribution           =    -222.49530292 Ry
     ewald contribution        =    -379.71373719 Ry
     smearing contrib. (-TS)   =       0.00657896 Ry

     convergence has been achieved in  13 iterations

     Forces acting on atoms (cartesian axes, Ry/au):

     atom    1 type  1   force =     0.00533564   -0.01029474    0.00022117
     atom    2 type  1   force =     0.01742781    0.00525681    0.00615456
     atom    3 type  1   force =    -0.02451826    0.00051418   -0.01251482
     atom    4 type  1   force =     0.00195392    0.02015664    0.00291872
     atom    5 type  1   force =    -0.00147638   -0.00976746   -0.00559093
     atom    6 type  1   force =    -0.00163090    0.00188246    0.00978618
     atom    7 type  1   force =    -0.01267998   -0.01925219   -0.00572443
     atom    8 type  1   force =    -0.02195509   -0.01652088    0.00487169
     atom    9 type  2   force =    -0.00929396   -0.00636160    0.01373339
     atom   10 type  2   force =    -0.00428776    0.00894139   -0.00700477
     atom   11 type  2   force =     0.00820097   -0.00646262   -0.00580848
     atom   12 type  2   force =     0.00669457    0.00133813   -0.01355055
     atom   13 type  2   force =     0.01222367    0.00266349    0.00411396
     atom   14 type  2   force =     0.01657864    0.02039539    0.00304741
     atom   15 type  2   force =     0.00045024   -0.00078521   -0.00812826
     atom   16 type  2   force =     0.00124465    0.01537115    0.00108772
     atom   17 type  2   force =    -0.00231824    0.00743448   -0.00660962
     atom   18 type  2   force =     0.00108215   -0.00761878   -0.00734899
     atom   19 type  2   force =    -0.00077846    0.01071819    0.00549366
     atom   20 type  2   force =     0.01030257   -0.00449650    0.00418706
     atom   21 type  2   force =    -0.00020702   -0.01737600    0.00153002
     atom   22 type  2   force =     0.00751450   -0.00249562   -0.00228169
     atom   23 type  2   force =    -0.00667448    0.00040117    0.02832211
     atom   24 type  2   force =    -0.00318879    0.00635815   -0.01090509

     Total force =     0.084647     Total SCF correction =     0.000955

     General routines

     Parallel routines

   This run was terminated on:  12:17:52   8Sep2021

   JOB DONE.