     Program PWSCF v.6.4 starts on 19Nov2021 at 18: 2:59

     R & G space division:  proc/nbgrp/npool/nimage =      40
     Waiting for input...
     Reading input from standard input
Warning: card    &IONS ignored
Warning: card      ION_DYNAMICS = 'BFGS' ignored
Warning: card   / ignored
Warning: card    &CELL ignored
Warning: card      CELL_DYNAMICS = 'BFGS', ignored
Warning: card    / ignored

     Current dimensions of program PWSCF are:
     Max number of different atomic species (ntypx) = 10
     Max number of k-points (npk) =  40000
     Max angular momentum in pseudopotentials (lmaxx) =  3

     bravais-lattice index     =            0
     lattice parameter (alat)  =      11.8473  a.u.
     unit-cell volume          =    7326.7342 (a.u.)^3
     number of atoms/cell      =           36
     number of atomic types    =            2
     number of electrons       =       216.00
     number of Kohn-Sham states=          130
     kinetic-energy cutoff     =      45.0000  Ry
     charge density cutoff     =     360.0000  Ry
     convergence threshold     =      1.0E-06
     mixing beta               =       0.7000
     number of iterations used =            8  local-TF  mixing
     Exchange-correlation      = SLA PW GGX GGC ( 1  4  2  2 0 0)

     celldm(1)=  11.847255  celldm(2)=   0.000000  celldm(3)=   0.000000
     celldm(4)=   0.000000  celldm(5)=   0.000000  celldm(6)=   0.000000

     crystal axes: (cart. coord. in units of alat)
               a(1) = (   1.000000   0.000000   0.000000 )
               a(2) = (   0.007631   1.794485   0.000000 )
               a(3) = (  -0.503397  -0.855361   2.455372 )

     reciprocal axes: (cart. coord. in units 2 pi/alat)
               b(1) = (  1.000000 -0.004253  0.203537 )
               b(2) = (  0.000000  0.557263  0.194130 )
               b(3) = (  0.000000  0.000000  0.407270 )

     PseudoPot. # 1 for Mo read from file:
     ~/pseudo/Mo.pw91-n-van.UPF
     MD5 check sum: Not computed, couldn't open file
     Pseudo is Ultrasoft + core correction, Zval =  6.0
     Generated by new atomic code, or converted to UPF format
     Using radial grid of  965 points,  3 beta functions with:
                l(1) =   1
                l(2) =   2
                l(3) =   2
     Q(r) pseudized with  8 coefficients,  rinner =    1.000   1.000   1.000
                                                       1.200   1.200

     PseudoPot. # 2 for S  read from file:
     ~/pseudo/S.pw91-van_ak.UPF
     MD5 check sum: Not computed, couldn't open file
     Pseudo is Ultrasoft, Zval =  6.0
     Generated by new atomic code, or converted to UPF format
     Using radial grid of  811 points,  6 beta functions with:
                l(1) =   0
                l(2) =   0
                l(3) =   1
                l(4) =   1
                l(5) =   2
                l(6) =   2
     Q(r) pseudized with  8 coefficients,  rinner =    1.100   1.100   1.100
                                                       1.100   1.100

     atomic species   valence    mass     pseudopotential
        Mo             6.00    95.50000     Mo( 1.00)
        S              6.00    32.06500     S ( 1.00)

     No symmetry found

   Cartesian axes

     site n.     atom                  positions (alat units)
         1           Mo  tau(   1) = (  -0.2115882   0.9287370   1.6476190  )
         2           Mo  tau(   2) = (   0.5293025  -0.4170456   1.6551173  )
         3           Mo  tau(   3) = (   0.2887798   0.9278928   1.6482616  )
         4           Mo  tau(   4) = (   0.0299684  -0.4171040   1.6552995  )
         5           Mo  tau(   5) = (   0.2763935   0.0317579   1.6564597  )
         6           Mo  tau(   6) = (  -0.2244268   0.0321530   1.6575619  )
         7           Mo  tau(   7) = (   0.0318468   0.4791509   1.6481150  )
         8           Mo  tau(   8) = (   0.5295910   0.4789992   1.6484051  )
         9           Mo  tau(   9) = (   0.5676465   0.0933044   0.1335394  )
        10           Mo  tau(  10) = (   0.0645191   0.0937285   0.1302090  )
        11           Mo  tau(  11) = (   0.0734811  -0.1769343   0.6941899  )
        12           Mo  tau(  12) = (   0.5721165  -0.1775135   0.6967284  )
        13           S   tau(  13) = (   0.5392329   1.0799692   1.9031496  )
        14           S   tau(  14) = (  -0.2179553   0.6314913   1.8999287  )
        15           S   tau(  15) = (   0.0401169   1.0797609   1.9037635  )
        16           S   tau(  16) = (   0.2815742   0.6326042   1.9022769  )
        17           S   tau(  17) = (   0.3212321  -0.0779314   0.9493931  )
        18           S   tau(  18) = (   0.8220157   0.0797883   0.6556383  )
        19           S   tau(  19) = (   0.5388293   1.0825260   1.3957035  )
        20           S   tau(  20) = (  -0.2188166   0.6315491   1.3950268  )
        21           S   tau(  21) = (   0.0396390   1.0814170   1.3962363  )
        22           S   tau(  22) = (   0.2818950   0.6323136   1.3933954  )
        23           S   tau(  23) = (   0.3324745   1.4833302   0.4713075  )
        24           S   tau(  24) = (   0.8319233   1.3613679   0.7982282  )
        25           S   tau(  25) = (   0.2787894  -0.2650497   1.9112293  )
        26           S   tau(  26) = (  -0.2210350  -0.2659145   1.9100438  )
        27           S   tau(  27) = (   0.2789439  -0.2655521   1.4035088  )
        28           S   tau(  28) = (  -0.2213111  -0.2652720   1.4028639  )
        29           S   tau(  29) = (   0.0262403   0.1799457   1.3999692  )
        30           S   tau(  30) = (   0.5256345   0.1796302   1.4000614  )
        31           S   tau(  31) = (   0.8171576   0.2276609   0.3568241  )
        32           S   tau(  32) = (   0.3175896   0.3410518   0.0154048  )
        33           S   tau(  33) = (   0.0260095   0.1855612   1.9077219  )
        34           S   tau(  34) = (   0.5246528   0.1863841   1.9089625  )
        35           S   tau(  35) = (   0.3180186   0.9490529   2.3281228  )
        36           S   tau(  36) = (   0.3227694   1.6308349   0.1723648  )

     number of k points=     4  Marzari-Vanderbilt smearing, width (Ry)=  0.0200
                       cart. coord. in units 2pi/alat
        k(    1) = (   0.0000000   0.0000000   0.0000000), wk =   0.3333333
        k(    2) = (   0.0000000  -0.2786314  -0.0970649), wk =   0.3333333
        k(    3) = (   0.3333333  -0.0014175   0.0678457), wk =   0.6666667
        k(    4) = (   0.3333333  -0.2800490  -0.0292192), wk =   0.6666667

     Initial potential from superposition of free atoms

     starting charge  215.98107, renormalised to  216.00000

     negative rho (up, down):  4.489E-06 0.000E+00
     Starting wfcs are  204 randomized atomic wfcs

     Self-consistent Calculation

     iteration #  1     ecut=    45.00 Ry     beta= 0.70
     Davidson diagonalization with overlap
     ethr =  1.00E-02,  avg # of iterations =  2.5

     total energy              =    -843.67632291 Ry
     Harris-Foulkes estimate   =    -846.01643640 Ry
     estimated scf accuracy    <       5.97389967 Ry

[...]

     negative rho (up, down):  1.045E-03 0.000E+00

[...]

     total energy              =    -844.82639134 Ry
     Harris-Foulkes estimate   =    -844.82639203 Ry
     estimated scf accuracy    <       0.00000354 Ry

     iteration # 18     ecut=    45.00 Ry     beta= 0.70
     Davidson diagonalization with overlap
     ethr =  1.41E-09,  avg # of iterations =  2.2

[...]

     End of self-consistent calculation

          k = 0.0000 0.0000 0.0000 ( 37361 PWs)   bands (ev):

   -12.5714 -12.2854 -11.5546 -10.8043 -10.7892 -10.4027 -10.0714 -10.0360
    -9.8513  -9.7994  -9.7405  -9.7184  -9.6977  -9.6786  -9.6237  -9.5531
    -9.4784  -9.4515  -9.4394  -9.4209  -9.2773  -9.2237  -9.1646  -8.7214
    -4.1767  -3.2297  -3.1824  -3.1683  -3.0719  -2.6227  -2.5951  -2.4940
    -2.4396  -2.4184  -2.4075  -2.3740  -2.3711  -2.3162  -2.2832  -2.2277
    -2.0965  -1.8797  -1.8730  -1.8225  -1.5678  -1.5365  -1.4969  -1.3779
    -1.3467  -1.2158  -1.1498  -1.0956  -1.0542  -0.8629  -0.8174  -0.8124
    -0.7864  -0.7207  -0.6791  -0.6447  -0.5341  -0.4780  -0.4586  -0.3703
    -0.3158  -0.2928  -0.2591  -0.2499  -0.1806  -0.0114   0.1014   0.1895
     0.2127   0.3443   0.3515   0.4687   0.5423   0.6304   0.6831   0.8068
     0.8432   0.8551   0.9116   1.0039   1.0112   1.0129   1.1548   1.1887
     1.2597   1.3642   1.4816   1.5297   1.5578   1.6636   1.6937   1.7699
     1.8738   1.8976   1.9299   1.9451   1.9856   2.1578   2.3975   2.4421
     2.4746   2.4928   2.5935   3.1468   3.4881   3.8657   3.9192   4.2876
     4.3744   4.5144   4.5310   4.5835   4.5923   4.6085   4.6328   4.6568
     4.7429   4.7628   4.9062   4.9234   4.9927   5.0583   5.1190   5.1640
     5.1995   5.2021

[...]

          k = 0.3333-0.2800-0.0292 ( 37337 PWs)   bands (ev):

   -12.4932 -12.3500 -11.0704 -11.0583 -10.3685 -10.3574 -10.1757 -10.1454
    -9.9666  -9.9573  -9.8030  -9.7882  -9.6721  -9.6502  -9.6372  -9.6269
    -9.6001  -9.4802  -9.4233  -9.4116  -9.3377  -9.2907  -9.1110  -8.8947
    -3.8475  -3.0913  -2.6495  -2.6336  -2.5958  -2.5678  -2.5630  -2.5332
    -2.5277  -2.5186  -2.4893  -2.4732  -2.1593  -2.0425  -2.0275  -2.0106
    -1.8701  -1.7728  -1.5759  -1.5102  -1.4094  -1.3596  -1.3030  -1.2922
    -1.2716  -1.2595  -1.1958  -0.9224  -0.8862  -0.8433  -0.8010  -0.7131
    -0.6812  -0.6562  -0.6266  -0.5758  -0.5440  -0.5142  -0.4996  -0.4551
    -0.4055  -0.3781  -0.3623  -0.3268  -0.3229  -0.2972  -0.1634  -0.1244
     0.0013   0.0410   0.1531   0.2693   0.2835   0.3062   0.3203   0.4126
     0.4603   0.4912   0.5430   0.5740   0.6912   0.7962   0.9137   0.9723
     1.0208   1.0372   1.0612   1.1843   1.4683   1.5260   1.5787   1.6051
     1.9280   1.9500   2.0504   2.0714   2.2257   2.2369   2.3834   2.5132
     2.5721   2.6148   3.0819   3.3767   3.6191   3.7881   4.0884   4.2372
     4.2624   4.4582   4.4805   4.5028   4.5253   4.5533   4.6073   4.6251
     4.6552   4.7234   4.7320   4.8289   4.8475   4.8903   4.9109   4.9243
     4.9654   5.0609

     the Fermi energy is     3.4540 ev

!    total energy              =    -844.82639125 Ry
     Harris-Foulkes estimate   =    -844.82639157 Ry
     estimated scf accuracy    <       0.00000045 Ry

     The total energy is the sum of the following terms:

     one-electron contribution =   -1247.48257621 Ry
     hartree contribution      =     717.06831742 Ry
     xc contribution           =    -334.17825415 Ry
     ewald contribution        =      19.76861834 Ry
     smearing contrib. (-TS)   =      -0.00249665 Ry

     convergence has been achieved in  18 iterations

     negative rho (up, down):  5.021E-05 0.000E+00

     Forces acting on atoms (cartesian axes, Ry/au):

     atom    1 type  1   force =    -0.00272233    0.00407870    0.00560430
     atom    2 type  1   force =    -0.00099893    0.00288023   -0.00151947
     atom    3 type  1   force =    -0.00372193    0.00653702    0.00469689
     atom    4 type  1   force =    -0.00272020    0.00172906   -0.00122079
     atom    5 type  1   force =     0.00039149   -0.00310856   -0.00559061
     atom    6 type  1   force =     0.00351438   -0.00241743   -0.00982641
     atom    7 type  1   force =    -0.00492819    0.00637292    0.00309103
     atom    8 type  1   force =     0.00168979    0.00618471    0.00451750
     atom    9 type  1   force =    -0.01061582    0.03239036   -0.07401770
     atom   10 type  1   force =     0.00986572    0.03476884   -0.07174244
     atom   11 type  1   force =    -0.00689718   -0.03565611    0.07038792
     atom   12 type  1   force =     0.00744297   -0.03453960    0.07232876
     atom   13 type  2   force =     0.00250911   -0.00586292   -0.00808976
     atom   14 type  2   force =     0.00022667   -0.00093983    0.00202890
     atom   15 type  2   force =    -0.00574029   -0.00698444   -0.00614295
     atom   16 type  2   force =     0.00117477   -0.00492043   -0.00513003
     atom   17 type  2   force =     0.00154721    0.01000840   -0.00887810
     atom   18 type  2   force =     0.00162620    0.02903682    0.05440211
     atom   19 type  2   force =    -0.00083009    0.00100417    0.00348494
     atom   20 type  2   force =     0.00217701   -0.00349220    0.00086377
     atom   21 type  2   force =    -0.00178760    0.00363281    0.00261483
     atom   22 type  2   force =     0.00086784   -0.00387931    0.00320957
     atom   23 type  2   force =    -0.00188229   -0.06694011    0.00957491
     atom   24 type  2   force =    -0.00078954    0.00306368   -0.01062834
     atom   25 type  2   force =     0.00058694   -0.00192913   -0.00576526
     atom   26 type  2   force =    -0.00032695   -0.00044217   -0.00348172
     atom   27 type  2   force =    -0.00121214   -0.00248326    0.00767370
     atom   28 type  2   force =     0.00112819    0.00180693    0.00203407
     atom   29 type  2   force =    -0.00010589   -0.00217690    0.00272855
     atom   30 type  2   force =     0.00388082    0.00027123    0.00326251
     atom   31 type  2   force =     0.00139039    0.06782582   -0.00967106
     atom   32 type  2   force =    -0.00197292    0.00411278    0.01490042
     atom   33 type  2   force =     0.00249453    0.00168284   -0.00062647
     atom   34 type  2   force =     0.00402687   -0.00031551   -0.00290677
     atom   35 type  2   force =     0.00037156   -0.01310486    0.01228857
     atom   36 type  2   force =     0.00033981   -0.02819459   -0.05445539

     Total force =     0.211103     Total SCF correction =     0.001448

     General routines

     Parallel routines

   This run was terminated on:  18: 5: 4  19Nov2021

   JOB DONE.