     Program PWSCF v.6.4 starts on  8Sep2021 at 12: 0:28

     R & G space division:  proc/nbgrp/npool/nimage =      40
     Waiting for input...
     Reading input from standard input
Warning: card    &IONS ignored
Warning: card      ION_DYNAMICS = 'BFGS' ignored
Warning: card   / ignored
Warning: card    &CELL ignored
Warning: card      CELL_DYNAMICS = 'BFGS', ignored
Warning: card    / ignored

     Current dimensions of program PWSCF are:
     Max number of different atomic species (ntypx) = 10
     Max number of k-points (npk) =  40000
     Max angular momentum in pseudopotentials (lmaxx) =  3

     bravais-lattice index     =            0
     lattice parameter (alat)  =      12.5667  a.u.
     unit-cell volume          =    3281.2066 (a.u.)^3
     number of atoms/cell      =           24
     number of atomic types    =            2
     number of electrons       =       144.00
     number of Kohn-Sham states=           86
     kinetic-energy cutoff     =      45.0000  Ry
     charge density cutoff     =     360.0000  Ry
     convergence threshold     =      1.0E-06
     mixing beta               =       0.7000
     number of iterations used =            8  local-TF  mixing
     Exchange-correlation      = SLA PW GGX GGC ( 1  4  2  2 0 0)

     celldm(1)=  12.566665  celldm(2)=   0.000000  celldm(3)=   0.000000
     celldm(4)=   0.000000  celldm(5)=   0.000000  celldm(6)=   0.000000

     crystal axes: (cart. coord. in units of alat)
               a(1) = (   0.999828   0.016535  -0.008451 )
               a(2) = (  -0.241545   0.420260   0.001819 )
               a(3) = (  -0.090714   0.926303   3.898103 )

     reciprocal axes: (cart. coord. in units 2 pi/alat)
               b(1) = (  0.989807  0.569378 -0.112267 )
               b(2) = ( -0.043718  2.356782 -0.561058 )
               b(3) = (  0.002166  0.000134  0.256554 )

     PseudoPot. # 1 for Mo read from file:
     ~/pseudo/Mo.pw91-n-van.UPF
     MD5 check sum: Not computed, couldn't open file
     Pseudo is Ultrasoft + core correction, Zval =  6.0
     Generated by new atomic code, or converted to UPF format
     Using radial grid of  965 points,  3 beta functions with:
                l(1) =   1
                l(2) =   2
                l(3) =   2
     Q(r) pseudized with  8 coefficients,  rinner =    1.000   1.000   1.000
                                                       1.200   1.200

     PseudoPot. # 2 for S  read from file:
     ~/pseudo/S.pw91-van_ak.UPF
     MD5 check sum: Not computed, couldn't open file
     Pseudo is Ultrasoft, Zval =  6.0
     Generated by new atomic code, or converted to UPF format
     Using radial grid of  811 points,  6 beta functions with:
                l(1) =   0
                l(2) =   0
                l(3) =   1
                l(4) =   1
                l(5) =   2
                l(6) =   2
     Q(r) pseudized with  8 coefficients,  rinner =    1.100   1.100   1.100
                                                       1.100   1.100

     atomic species   valence    mass     pseudopotential
        Mo             6.00    95.50000     Mo( 1.00)
        S              6.00    32.06500     S ( 1.00)

     No symmetry found

   Cartesian axes

     site n.     atom                  positions (alat units)
         1           Mo  tau(   1) = (   0.0696892   0.4838445   1.4191756  )
         2           Mo  tau(   2) = (  -0.1335690   0.8999457   3.4507575  )
         3           Mo  tau(   3) = (   0.4951566   0.4443297   1.4350260  )
         4           Mo  tau(   4) = (   0.4421570   0.9524261   3.4226581  )
         5           Mo  tau(   5) = (  -0.0565789  -0.0225174   0.5058875  )
         6           Mo  tau(   6) = (  -0.0649429   0.4824496   2.4222978  )
         7           Mo  tau(   7) = (   0.5165155   0.0281548   0.4799660  )
         8           Mo  tau(   8) = (   0.3633572   0.4429448   2.4413368  )
         9           S   tau(   9) = (   0.2886286   0.6066631   1.6854431  )
        10           S   tau(  10) = (   0.1520202   1.0641855   3.6327722  )
        11           S   tau(  11) = (   0.7816766   0.6116923   1.6228234  )
        12           S   tau(  12) = (   0.6618634   1.0758717   3.6921233  )
        13           S   tau(  13) = (  -0.0099721   0.2903394   0.2850319  )
        14           S   tau(  14) = (  -0.0933785   0.7423283   2.1719780  )
        15           S   tau(  15) = (   0.4820559   0.2905614   0.2321174  )
        16           S   tau(  16) = (   0.4122573   0.7539512   2.2299647  )
        17           S   tau(  17) = (  -0.0155674   0.5602121   0.7022138  )
        18           S   tau(  18) = (  -0.0888675   1.0209838   2.6954263  )
        19           S   tau(  19) = (   0.4927250   0.5751203   0.7493728  )
        20           S   tau(  20) = (   0.4054846   1.0280655   2.6299276  )
        21           S   tau(  21) = (   0.2814968   0.3258867   1.1670312  )
        22           S   tau(  22) = (   0.1495369   0.7830544   3.2332567  )
        23           S   tau(  23) = (   0.7900367   0.3368159   1.2294036  )
        24           S   tau(  24) = (   0.6410736   0.7928628   3.1725141  )

     number of k points=    10  Marzari-Vanderbilt smearing, width (Ry)=  0.0200
                       cart. coord. in units 2pi/alat
        k(    1) = (   0.0000000   0.0000000   0.0000000), wk =   0.1111111
        k(    2) = (  -0.0072863   0.3927971  -0.0935096), wk =   0.2222222
        k(    3) = (  -0.0145726   0.7855942  -0.1870192), wk =   0.2222222
        k(    4) = (   0.0218590  -1.1783912   0.2805288), wk =   0.1111111
        k(    5) = (   0.3299358   0.1897927  -0.0374223), wk =   0.2222222
        k(    6) = (   0.3226495   0.5825898  -0.1309318), wk =   0.2222222
        k(    7) = (   0.3153631   0.9753869  -0.2244414), wk =   0.2222222
        k(    8) = (   0.3517947  -0.9885985   0.2431065), wk =   0.2222222
        k(    9) = (   0.3445084  -0.5958014   0.1495969), wk =   0.2222222
        k(   10) = (   0.3372221  -0.2030043   0.0560873), wk =   0.2222222

     Initial potential from superposition of free atoms

     starting charge  143.98738, renormalised to  144.00000
     Starting wfcs are  136 randomized atomic wfcs

     Self-consistent Calculation

     iteration #  1     ecut=    45.00 Ry     beta= 0.70
     Davidson diagonalization with overlap
     ethr =  1.00E-02,  avg # of iterations =  2.0

     total energy              =    -562.36284319 Ry
     Harris-Foulkes estimate   =    -564.27909443 Ry
     estimated scf accuracy    <       5.01693652 Ry

[...]

     total energy              =    -563.36325922 Ry
     Harris-Foulkes estimate   =    -563.36325965 Ry
     estimated scf accuracy    <       0.00000237 Ry

     iteration # 14     ecut=    45.00 Ry     beta= 0.70
     Davidson diagonalization with overlap
     ethr =  1.64E-09,  avg # of iterations =  4.8

     End of self-consistent calculation

          k = 0.0000 0.0000 0.0000 ( 16819 PWs)   bands (ev):

    -7.3563  -7.2806  -7.1967  -7.1464  -6.4296  -6.2981  -6.2401  -6.1739
    -5.6430  -5.5820  -5.5610  -5.5285  -5.5053  -5.4797  -5.4690  -5.4391
     0.7657   0.8528   0.8842   0.9670   1.0662   1.3717   1.4548   1.7757
     2.1007   2.1431   2.2393   2.3118   2.3585   2.4149   2.5188   2.5624
     3.3128   3.3357   3.3848   3.3881   3.4167   3.5186   3.5222   3.5484
     3.6725   3.7712   3.8423   3.8930   4.0693   4.1861   4.3204   4.3595
     4.4861   4.9127   4.9381   5.2971   5.3653   5.4746   5.5394   5.5913
     5.6199   5.6577   5.7432   5.7609   6.0266   6.1773   6.2334   6.2837
     6.4640   6.5610   6.5707   6.5843   6.6095   6.6336   6.6754   6.7798
     7.0518   7.0615   7.0983   7.1599   7.1783   7.2422   7.2942   7.3582
     8.5179   8.5506   8.5809   8.6184   8.6383   8.6652

          k =-0.0073 0.3928-0.0935 ( 16758 PWs)   bands (ev):

[...]

          k =-0.0146 0.7856-0.1870 ( 16728 PWs)   bands (ev):

[...]

          k = 0.3372-0.2030 0.0561 ( 16754 PWs)   bands (ev):

    -6.9888  -6.9150  -6.8277  -6.7820  -6.2886  -6.1735  -6.1198  -6.0500
    -5.6937  -5.6201  -5.5623  -5.5383  -5.4334  -5.4105  -5.3851  -5.3304
     1.2515   1.2808   1.3493   1.4183   1.5655   1.6654   1.8161   1.8730
     1.9452   1.9952   2.0310   2.1885   2.4383   2.5649   2.6458   2.6933
     2.9607   3.0556   3.1274   3.1777   3.2869   3.3570   3.5105   3.5698
     3.6103   3.6529   3.6813   3.7670   3.9757   4.0465   4.0847   4.1138
     4.1713   4.2615   4.3082   4.3561   4.6101   4.6391   4.6959   4.7371
     5.3839   5.4321   5.5105   5.5572   5.6056   5.7137   5.8015   5.9778
     6.0206   6.0300   6.1177   6.1633   6.2804   6.3936   6.5421   6.6267
     6.9282   7.0190   7.0532   7.1169   7.6752   7.7490   7.7829   7.8413
     8.7046   8.7937   8.8061   8.8348   8.9633   9.0113

     the Fermi energy is     6.7489 ev

!    total energy              =    -563.36325963 Ry
     Harris-Foulkes estimate   =    -563.36325993 Ry
     estimated scf accuracy    <       0.00000033 Ry

     The total energy is the sum of the following terms:

     one-electron contribution =     -22.87600667 Ry
     hartree contribution      =      94.89450127 Ry
     xc contribution           =    -222.46824623 Ry
     ewald contribution        =    -412.91895053 Ry
     smearing contrib. (-TS)   =       0.00544253 Ry

     convergence has been achieved in  14 iterations

     Forces acting on atoms (cartesian axes, Ry/au):

     atom    1 type  1   force =     0.01032099    0.00157106   -0.00811445
     atom    2 type  1   force =    -0.01020962   -0.00541042   -0.01759069
     atom    3 type  1   force =     0.00235559    0.01024526    0.00978838
     atom    4 type  1   force =    -0.00415434    0.00237052    0.00693207
     atom    5 type  1   force =    -0.00490574    0.00083939   -0.01182916
     atom    6 type  1   force =     0.01600300   -0.00158083   -0.00287757
     atom    7 type  1   force =     0.00080502    0.00423302    0.01010067
     atom    8 type  1   force =    -0.00942187   -0.00180674    0.00552828
     atom    9 type  2   force =     0.00293599   -0.00204708    0.01510288
     atom   10 type  2   force =     0.00101879    0.00174424    0.00575014
     atom   11 type  2   force =     0.00290574    0.00038727    0.00416389
     atom   12 type  2   force =    -0.00915572   -0.00179505    0.00903417
     atom   13 type  2   force =    -0.00638934   -0.00826913    0.02148550
     atom   14 type  2   force =    -0.00532439    0.00116415   -0.00133140
     atom   15 type  2   force =     0.00297296   -0.00074273   -0.00546304
     atom   16 type  2   force =    -0.00922139   -0.00353380   -0.00007578
     atom   17 type  2   force =     0.00790751    0.00440304   -0.02282662
     atom   18 type  2   force =     0.00335203    0.00324278    0.00026669
     atom   19 type  2   force =    -0.00029686   -0.00401517    0.00274511
     atom   20 type  2   force =     0.00620131    0.00218678   -0.00151625
     atom   21 type  2   force =    -0.00600825   -0.00272898   -0.00438624
     atom   22 type  2   force =     0.00809420    0.00641032    0.00419515
     atom   23 type  2   force =    -0.01339119   -0.00458047   -0.00908292
     atom   24 type  2   force =     0.01360560   -0.00228743   -0.00999883

     Total force =     0.065082     Total SCF correction =     0.001331

     General routines

     Parallel routines

   This run was terminated on:  12: 1:35   8Sep2021

   JOB DONE.