     Program PWSCF v.6.4 starts on  3Sep2021 at  3:59: 7

     R & G space division:  proc/nbgrp/npool/nimage =      40
     Waiting for input...
     Reading input from standard input
Warning: card    &IONS ignored
Warning: card      ION_DYNAMICS = 'BFGS' ignored
Warning: card   / ignored
Warning: card    &CELL ignored
Warning: card      CELL_DYNAMICS = 'BFGS', ignored
Warning: card    / ignored

     Current dimensions of program PWSCF are:
     Max number of different atomic species (ntypx) = 10
     Max number of k-points (npk) =  40000
     Max angular momentum in pseudopotentials (lmaxx) =  3

     bravais-lattice index     =            0
     lattice parameter (alat)  =      12.1932  a.u.
     unit-cell volume          =    4527.7673 (a.u.)^3
     number of atoms/cell      =           24
     number of atomic types    =            2
     number of electrons       =       144.00
     number of Kohn-Sham states=           86
     kinetic-energy cutoff     =      45.0000  Ry
     charge density cutoff     =     360.0000  Ry
     convergence threshold     =      1.0E-06
     mixing beta               =       0.7000
     number of iterations used =            8  local-TF  mixing
     Exchange-correlation      = SLA PW GGX GGC ( 1  4  2  2 0 0)

     celldm(1)=  12.193216  celldm(2)=   0.000000  celldm(3)=   0.000000
     celldm(4)=   0.000000  celldm(5)=   0.000000  celldm(6)=   0.000000

     crystal axes: (cart. coord. in units of alat)
               a(1) = (   1.000000   0.000000   0.000000 )
               a(2) = (   0.503628   0.864966   0.000000 )
               a(3) = (   0.375247   0.168469   2.887553 )

     reciprocal axes: (cart. coord. in units 2 pi/alat)
               b(1) = (  1.000000 -0.582252 -0.095983 )
               b(2) = (  0.000000  1.156114 -0.067451 )
               b(3) = (  0.000000  0.000000  0.346314 )

     PseudoPot. # 1 for Mo read from file:
     ~/pseudo/Mo.pw91-n-van.UPF
     MD5 check sum: Not computed, couldn't open file
     Pseudo is Ultrasoft + core correction, Zval =  6.0
     Generated by new atomic code, or converted to UPF format
     Using radial grid of  965 points,  3 beta functions with:
                l(1) =   1
                l(2) =   2
                l(3) =   2
     Q(r) pseudized with  8 coefficients,  rinner =    1.000   1.000   1.000
                                                       1.200   1.200

     PseudoPot. # 2 for S  read from file:
     ~/pseudo/S.pw91-van_ak.UPF
     MD5 check sum: Not computed, couldn't open file
     Pseudo is Ultrasoft, Zval =  6.0
     Generated by new atomic code, or converted to UPF format
     Using radial grid of  811 points,  6 beta functions with:
                l(1) =   0
                l(2) =   0
                l(3) =   1
                l(4) =   1
                l(5) =   2
                l(6) =   2
     Q(r) pseudized with  8 coefficients,  rinner =    1.100   1.100   1.100
                                                       1.100   1.100

     atomic species   valence    mass     pseudopotential
        Mo             6.00    95.50000     Mo( 1.00)
        S              6.00    32.06500     S ( 1.00)

     No symmetry found

   Cartesian axes

     site n.     atom                  positions (alat units)
         1           Mo  tau(   1) = (   1.0689184   0.1123613   0.5908059  )
         2           Mo  tau(   2) = (   0.5791352   0.1327735   0.6080875  )
         3           Mo  tau(   3) = (   0.8233822   0.5461056   0.6086796  )
         4           Mo  tau(   4) = (   1.3094077   0.5471189   0.5945949  )
         5           Mo  tau(   5) = (   0.8232995   0.8956089   2.2936385  )
         6           Mo  tau(   6) = (   1.3101825   0.9294211   2.2777466  )
         7           Mo  tau(   7) = (   1.0488664   0.4900447   2.2924965  )
         8           Mo  tau(   8) = (   0.5482166   0.4698927   2.3169870  )
         9           S   tau(   9) = (   1.0612768   0.4024076   0.3484766  )
        10           S   tau(  10) = (   0.5738435   0.4158320   0.3579086  )
        11           S   tau(  11) = (   0.3374656  -0.0280457   0.3640939  )
        12           S   tau(  12) = (   0.8116302  -0.0259649   0.3525506  )
        13           S   tau(  13) = (   1.0651048   1.0413149   2.5489833  )
        14           S   tau(  14) = (   1.5694231   1.0601305   2.5249639  )
        15           S   tau(  15) = (   1.2953361   0.6498942   2.5342790  )
        16           S   tau(  16) = (   0.8056972   0.6200206   2.5538634  )
        17           S   tau(  17) = (   0.5487648   0.1992941   2.0438156  )
        18           S   tau(  18) = (   1.0784065   0.1991548   2.0527177  )
        19           S   tau(  19) = (   1.3120555   0.6222432   2.0598443  )
        20           S   tau(  20) = (   0.7845591   0.6062510   2.0507597  )
        21           S   tau(  21) = (   1.0703397   0.3907636   0.8463238  )
        22           S   tau(  22) = (   0.5620494   0.4227746   0.8507440  )
        23           S   tau(  23) = (   0.8273882   0.8447534   0.8398179  )
        24           S   tau(  24) = (   1.3289979   0.8347323   0.8410502  )

     number of k points=     5  Marzari-Vanderbilt smearing, width (Ry)=  0.0200
                       cart. coord. in units 2pi/alat
        k(    1) = (   0.0000000   0.0000000   0.0000000), wk =   0.2222222
        k(    2) = (   0.0000000   0.3853714  -0.0224838), wk =   0.4444444
        k(    3) = (   0.3333333  -0.1940839  -0.0319942), wk =   0.4444444
        k(    4) = (   0.3333333   0.1912875  -0.0544780), wk =   0.4444444
        k(    5) = (   0.3333333  -0.5794553  -0.0095104), wk =   0.4444444

     Initial potential from superposition of free atoms

     starting charge  143.98738, renormalised to  144.00000

     negative rho (up, down):  2.757E-07 0.000E+00
     Starting wfcs are  136 randomized atomic wfcs

     Self-consistent Calculation

     iteration #  1     ecut=    45.00 Ry     beta= 0.70
     Davidson diagonalization with overlap
     ethr =  1.00E-02,  avg # of iterations =  2.0

     total energy              =    -562.74135932 Ry
     Harris-Foulkes estimate   =    -564.50877585 Ry
     estimated scf accuracy    <       4.52782885 Ry

[...]

     negative rho (up, down):  3.268E-08 0.000E+00

[...]

     total energy              =    -563.62505123 Ry
     Harris-Foulkes estimate   =    -563.62505551 Ry
     estimated scf accuracy    <       0.00002121 Ry

     iteration # 14     ecut=    45.00 Ry     beta= 0.70
     Davidson diagonalization with overlap
     ethr =  1.47E-08,  avg # of iterations =  3.0

[...]

     End of self-consistent calculation

          k = 0.0000 0.0000 0.0000 ( 23015 PWs)   bands (ev):

   -10.9447 -10.8605  -9.7779  -9.6735  -9.2836  -9.1920  -9.1742  -9.1327
    -9.1303  -9.1027  -8.9834  -8.9033  -8.8791  -8.8599  -8.8225  -8.7841
    -2.5788  -2.5379  -2.5038  -2.4983  -2.4787  -2.4504  -2.4067  -2.3210
    -1.6842  -1.6262  -1.5759  -1.5523  -1.5294  -1.5176  -0.9322  -0.8958
    -0.8729  -0.8451  -0.8103  -0.8007  -0.0534   0.0026   0.0090   0.0235
     0.0308   0.0685   0.4537   0.5185   0.5263   0.5468   0.9970   1.0427
     1.1569   1.2551   1.3253   1.4495   1.5035   1.5691   1.5936   1.6110
     1.6930   1.7006   1.8534   2.0606   2.0665   2.0993   2.2111   2.2522
     2.4255   2.4434   2.4582   2.5187   2.5509   2.5580   3.0213   3.1658
     4.9213   4.9546   5.0152   5.0909   5.0986   5.1589   5.4257   5.4636
     5.5423   5.5691   5.5986   5.6296   5.7195   5.7932

[...]

          k = 0.3333-0.5795-0.0095 ( 23122 PWs)   bands (ev):

   -10.0489  -9.9969  -9.9281  -9.9215  -9.9009  -9.8689  -9.3383  -9.2495
    -9.2399  -9.2029  -9.1590  -9.1345  -8.9389  -8.8884  -8.6820  -8.6585
    -2.1557  -2.0960  -1.7536  -1.7420  -1.7082  -1.6791  -1.6524  -1.6437
    -1.4146  -1.3409  -1.0330  -0.8991  -0.8885  -0.8041  -0.7176  -0.6851
    -0.6557  -0.5738  -0.5544  -0.4821  -0.4678  -0.4424  -0.4110  -0.3953
    -0.3455  -0.3233  -0.1509  -0.0525  -0.0122   0.0682   0.1336   0.2161
     0.4062   0.4175   0.9331   1.0055   1.0362   1.1229   1.1734   1.1799
     1.3213   1.3369   1.8582   2.0032   2.0343   2.0620   2.1127   2.1581
     2.2143   2.2888   2.3017   2.3354   2.3917   2.4054   3.1029   3.1138
     4.3873   4.5909   4.6527   4.7985   4.8858   4.9140   4.9618   5.0479
     5.2880   5.3382   5.3911   5.4465   5.4905   5.5401

     the Fermi energy is     3.2281 ev

!    total energy              =    -563.62505360 Ry
     Harris-Foulkes estimate   =    -563.62505380 Ry
     estimated scf accuracy    <       0.00000053 Ry

     The total energy is the sum of the following terms:

     one-electron contribution =    -828.77126887 Ry
     hartree contribution      =     479.50953890 Ry
     xc contribution           =    -222.66707919 Ry
     ewald contribution        =       8.29021891 Ry
     smearing contrib. (-TS)   =       0.01353665 Ry

     convergence has been achieved in  14 iterations

     negative rho (up, down):  7.380E-06 0.000E+00

     Forces acting on atoms (cartesian axes, Ry/au):

     atom    1 type  1   force =     0.01586515    0.00314780    0.01351583
     atom    2 type  1   force =    -0.02603410   -0.03784899   -0.01886000
     atom    3 type  1   force =    -0.00044142    0.02871388   -0.02110036
     atom    4 type  1   force =     0.03013525    0.01334410    0.01303275
     atom    5 type  1   force =    -0.04950594    0.04985805    0.00567389
     atom    6 type  1   force =     0.01882366   -0.04130790    0.04613727
     atom    7 type  1   force =     0.02953227   -0.02911555    0.01370383
     atom    8 type  1   force =     0.00764523    0.03543320   -0.04267402
     atom    9 type  2   force =     0.00452458   -0.00377959    0.01034880
     atom   10 type  2   force =    -0.00786603   -0.00564079    0.00313833
     atom   11 type  2   force =    -0.01553253    0.00448935   -0.00486798
     atom   12 type  2   force =     0.00535676    0.00105293    0.00249448
     atom   13 type  2   force =    -0.00263659    0.01095925   -0.01615551
     atom   14 type  2   force =    -0.00563286   -0.00471741    0.00844377
     atom   15 type  2   force =     0.00955718   -0.02220848    0.00389858
     atom   16 type  2   force =    -0.00669542   -0.00864131   -0.01385586
     atom   17 type  2   force =     0.00785354   -0.00915422    0.01279844
     atom   18 type  2   force =    -0.01963528   -0.00660773   -0.01645178
     atom   19 type  2   force =    -0.00920126    0.01293334   -0.01688219
     atom   20 type  2   force =     0.02025275    0.01271348    0.01480462
     atom   21 type  2   force =    -0.00225099    0.01132443   -0.00874903
     atom   22 type  2   force =     0.00622872   -0.01561108   -0.00363338
     atom   23 type  2   force =     0.00001215   -0.00401208    0.01251684
     atom   24 type  2   force =    -0.01035484    0.00467532    0.00272269

     Total force =     0.157417     Total SCF correction =     0.001573

     General routines

     Parallel routines

   This run was terminated on:   4: 0: 8   3Sep2021

   JOB DONE.