     Program PWSCF v.6.4 starts on 18Oct2021 at 13:42:21

     R & G space division:  proc/nbgrp/npool/nimage =      40
     Waiting for input...
     Reading input from standard input
Warning: card    &IONS ignored
Warning: card      ION_DYNAMICS = 'BFGS' ignored
Warning: card   / ignored
Warning: card    &CELL ignored
Warning: card      CELL_DYNAMICS = 'BFGS', ignored
Warning: card    / ignored

     Current dimensions of program PWSCF are:
     Max number of different atomic species (ntypx) = 10
     Max number of k-points (npk) =  40000
     Max angular momentum in pseudopotentials (lmaxx) =  3

     bravais-lattice index     =            0
     lattice parameter (alat)  =      12.7097  a.u.
     unit-cell volume          =    5074.8718 (a.u.)^3
     number of atoms/cell      =           24
     number of atomic types    =            2
     number of electrons       =       144.00
     number of Kohn-Sham states=           86
     kinetic-energy cutoff     =      45.0000  Ry
     charge density cutoff     =     360.0000  Ry
     convergence threshold     =      1.0E-06
     mixing beta               =       0.7000
     number of iterations used =            8  local-TF  mixing
     Exchange-correlation      = SLA PW GGX GGC ( 1  4  2  2 0 0)

     celldm(1)=  12.709658  celldm(2)=   0.000000  celldm(3)=   0.000000
     celldm(4)=   0.000000  celldm(5)=   0.000000  celldm(6)=   0.000000

     crystal axes: (cart. coord. in units of alat)
               a(1) = (   1.000000   0.000000   0.000000 )
               a(2) = (   0.525802   0.821593   0.000000 )
               a(3) = (   2.515457   0.294464   3.008617 )

     reciprocal axes: (cart. coord. in units 2 pi/alat)
               b(1) = (  1.000000 -0.639979 -0.773447 )
               b(2) = (  0.000000  1.217148 -0.119127 )
               b(3) = (  0.000000  0.000000  0.332379 )

     PseudoPot. # 1 for Mo read from file:
     ~/pseudo/Mo.pw91-n-van.UPF
     MD5 check sum: Not computed, couldn't open file
     Pseudo is Ultrasoft + core correction, Zval =  6.0
     Generated by new atomic code, or converted to UPF format
     Using radial grid of  965 points,  3 beta functions with:
                l(1) =   1
                l(2) =   2
                l(3) =   2
     Q(r) pseudized with  8 coefficients,  rinner =    1.000   1.000   1.000
                                                       1.200   1.200

     PseudoPot. # 2 for S  read from file:
     ~/pseudo/S.pw91-van_ak.UPF
     MD5 check sum: Not computed, couldn't open file
     Pseudo is Ultrasoft, Zval =  6.0
     Generated by new atomic code, or converted to UPF format
     Using radial grid of  811 points,  6 beta functions with:
                l(1) =   0
                l(2) =   0
                l(3) =   1
                l(4) =   1
                l(5) =   2
                l(6) =   2
     Q(r) pseudized with  8 coefficients,  rinner =    1.100   1.100   1.100
                                                       1.100   1.100

     atomic species   valence    mass     pseudopotential
        Mo             6.00    95.50000     Mo( 1.00)
        S              6.00    32.06500     S ( 1.00)

     No symmetry found

   Cartesian axes

     site n.     atom                  positions (alat units)
         1           Mo  tau(   1) = (   0.4421692   0.0815483   0.5882514  )
         2           Mo  tau(   2) = (   0.9500751   0.0403038   0.5869455  )
         3           Mo  tau(   3) = (   1.1752440   0.4648762   0.5937102  )
         4           Mo  tau(   4) = (   0.7206320   0.4751606   0.5762759  )
         5           Mo  tau(   5) = (   3.5983579   1.0598838   2.4227032  )
         6           Mo  tau(   6) = (   3.0916279   1.0682280   2.4236277  )
         7           Mo  tau(   7) = (   2.8216244   0.6461201   2.4157287  )
         8           Mo  tau(   8) = (   3.3222600   0.6293783   2.4342036  )
         9           S   tau(   9) = (   1.4322551   0.3295179   0.3659630  )
        10           S   tau(  10) = (   0.9519249   0.3227428   0.3457745  )
        11           S   tau(  11) = (   1.2076195   0.7615221   0.3582045  )
        12           S   tau(  12) = (   1.7278810   0.7585047   0.3675351  )
        13           S   tau(  13) = (   2.3235083   0.3679665   2.6950836  )
        14           S   tau(  14) = (   2.8174156   0.3974862   2.6585135  )
        15           S   tau(  15) = (   3.0980401   0.7612232   2.6669958  )
        16           S   tau(  16) = (   3.5726222   0.7767739   2.6460661  )
        17           S   tau(  17) = (   2.3147680   0.3709390   2.1827032  )
        18           S   tau(  18) = (   2.8145123   0.3624490   2.2358071  )
        19           S   tau(  19) = (   3.0946065   0.7769665   2.1818795  )
        20           S   tau(  20) = (   2.5776021   0.7707491   2.1910754  )
        21           S   tau(  21) = (   1.4261684   0.3517553   0.8093684  )
        22           S   tau(  22) = (   0.9216444   0.3433923   0.8286443  )
        23           S   tau(  23) = (   1.2122079   0.7394579   0.7896874  )
        24           S   tau(  24) = (   1.7117834   0.7630963   0.8270380  )

     number of k points=     7  Marzari-Vanderbilt smearing, width (Ry)=  0.0200
                       cart. coord. in units 2pi/alat
        k(    1) = (   0.0000000   0.0000000   0.0000000), wk =   0.1666667
        k(    2) = (   0.0000000   0.4057161  -0.0397089), wk =   0.3333333
        k(    3) = (   0.2500000  -0.1599947  -0.1933618), wk =   0.3333333
        k(    4) = (   0.2500000   0.2457214  -0.2330707), wk =   0.3333333
        k(    5) = (   0.2500000  -0.5657108  -0.1536529), wk =   0.3333333
        k(    6) = (  -0.5000000   0.3199894   0.3867236), wk =   0.1666667
        k(    7) = (  -0.5000000   0.7257055   0.3470147), wk =   0.3333333

     Initial potential from superposition of free atoms

     starting charge  143.98738, renormalised to  144.00000

     negative rho (up, down):  1.239E-04 0.000E+00
     Starting wfcs are  136 randomized atomic wfcs

     Self-consistent Calculation

     iteration #  1     ecut=    45.00 Ry     beta= 0.70
     Davidson diagonalization with overlap
     ethr =  1.00E-02,  avg # of iterations =  2.0

     negative rho (up, down):  1.770E-06 0.000E+00

     total energy              =    -562.43743414 Ry
     Harris-Foulkes estimate   =    -564.28922371 Ry
     estimated scf accuracy    <       4.76443957 Ry

[...]

     total energy              =    -563.37818431 Ry
     Harris-Foulkes estimate   =    -563.37818461 Ry
     estimated scf accuracy    <       0.00000124 Ry

     iteration # 16     ecut=    45.00 Ry     beta= 0.70
     Davidson diagonalization with overlap
     ethr =  8.59E-10,  avg # of iterations =  1.0

[...]

     End of self-consistent calculation

          k = 0.0000 0.0000 0.0000 ( 25869 PWs)   bands (ev):

   -11.9606 -11.8439 -10.6840 -10.6439 -10.4732 -10.4689 -10.3778 -10.1685
   -10.1194  -9.9838  -9.9332  -9.8877  -9.7933  -9.7179  -9.6818  -9.5441
    -3.5970  -3.5304  -3.5123  -3.4478  -3.4138  -3.3510  -3.2446  -3.0263
    -2.5514  -2.5418  -2.5054  -2.4390  -2.4008  -2.3084  -2.0070  -1.9639
    -1.8488  -1.8389  -1.6685  -1.5401  -1.4733  -1.4031  -1.2432  -1.0366
    -0.9959  -0.9211  -0.7370  -0.5077  -0.4603  -0.3389  -0.0111   0.0373
     0.1431   0.1607   0.3273   0.3995   0.4206   0.5049   0.5506   0.6199
     0.7949   0.9190   0.9357   0.9676   1.0114   1.0502   1.1688   1.3937
     1.4084   1.4897   1.5659   1.6777   1.7494   1.8544   2.4413   2.5234
     3.4918   3.6937   3.7211   3.8186   3.9032   3.9101   4.1452   4.2691
     4.2835   4.3648   4.4418   4.4502   4.5123   4.5268

[...]

          k = 0.2500-0.5657-0.1537 ( 25894 PWs)   bands (ev):

[...]

          k =-0.5000 0.3200 0.3867 ( 25838 PWs)   bands (ev):

[...]

          k =-0.5000 0.7257 0.3470 ( 25853 PWs)   bands (ev):

   -11.4917 -11.4654 -11.0362 -10.7632 -10.6102 -10.5325 -10.3826 -10.2872
   -10.2147 -10.1123 -10.0872  -9.9401  -9.8231  -9.7323  -9.6840  -9.5152
    -3.2264  -3.0992  -3.0504  -2.9680  -2.9240  -2.8675  -2.8038  -2.6713
    -2.6441  -2.5181  -2.2600  -2.1840  -2.1115  -1.9430  -1.8422  -1.7606
    -1.7103  -1.6450  -1.5513  -1.5310  -1.4132  -1.3822  -1.2797  -1.2224
    -1.1522  -1.0362  -0.9099  -0.8987  -0.8088  -0.7311  -0.6852  -0.5259
    -0.3325  -0.1271  -0.1128   0.0777   0.1223   0.1830   0.3248   0.3544
     0.3952   0.7200   0.7887   0.8548   0.9343   0.9603   1.1257   1.1387
     1.2653   1.2776   1.3760   1.4636   1.6968   1.7762   1.8809   1.9538
     3.3536   3.5105   3.7239   3.8260   3.8893   3.9707   4.0313   4.1176
     4.2431   4.2714   4.3529   4.3810   4.4673   4.5095

     the Fermi energy is     2.4915 ev

!    total energy              =    -563.37818297 Ry
     Harris-Foulkes estimate   =    -563.37818434 Ry
     estimated scf accuracy    <       0.00000094 Ry

     The total energy is the sum of the following terms:

     one-electron contribution =   -1227.88864868 Ry
     hartree contribution      =     673.84332315 Ry
     xc contribution           =    -222.58590098 Ry
     ewald contribution        =     213.24399917 Ry
     smearing contrib. (-TS)   =       0.00904438 Ry

     convergence has been achieved in  16 iterations

     negative rho (up, down):  2.250E-04 0.000E+00

     Forces acting on atoms (cartesian axes, Ry/au):

     atom    1 type  1   force =    -0.02044264   -0.11966307    0.05596429
     atom    2 type  1   force =    -0.05078162    0.13119399   -0.00873886
     atom    3 type  1   force =     0.03807395    0.00749852   -0.09295884
     atom    4 type  1   force =    -0.10885251   -0.00665562    0.03818844
     atom    5 type  1   force =     0.00625021   -0.02630462    0.08542376
     atom    6 type  1   force =    -0.06647929   -0.10657235    0.11194090
     atom    7 type  1   force =     0.06503739    0.08240747    0.06278921
     atom    8 type  1   force =     0.02986143    0.03134649   -0.03933851
     atom    9 type  2   force =     0.02192646    0.09930332   -0.07234007
     atom   10 type  2   force =    -0.01228192   -0.00753196    0.01115506
     atom   11 type  2   force =     0.00103932   -0.04346889   -0.01613803
     atom   12 type  2   force =     0.00716231   -0.02235200   -0.06329565
     atom   13 type  2   force =    -0.00194516   -0.01622325   -0.08823589
     atom   14 type  2   force =     0.00718432   -0.05968506    0.01566660
     atom   15 type  2   force =    -0.05582318    0.05584165   -0.03518718
     atom   16 type  2   force =     0.01761628    0.01268404    0.01703888
     atom   17 type  2   force =     0.01015701   -0.01486391    0.02623512
     atom   18 type  2   force =     0.03315195    0.00830943   -0.19737026
     atom   19 type  2   force =    -0.02570948    0.01275118    0.04494188
     atom   20 type  2   force =    -0.01846871    0.01999397   -0.00394441
     atom   21 type  2   force =     0.05935884    0.00824709    0.04974817
     atom   22 type  2   force =     0.03938209   -0.05033953   -0.01060276
     atom   23 type  2   force =    -0.01331448    0.04392617    0.11509179
     atom   24 type  2   force =     0.03789744   -0.03984305   -0.00603362

     Total force =     0.481798     Total SCF correction =     0.002045

     General routines

     Parallel routines

   This run was terminated on:  13:43:37  18Oct2021

   JOB DONE.