     Program PWSCF v.6.4 starts on  8Sep2021 at 12: 5:35

     R & G space division:  proc/nbgrp/npool/nimage =      40
     Waiting for input...
     Reading input from standard input
Warning: card    &IONS ignored
Warning: card      ION_DYNAMICS = 'BFGS' ignored
Warning: card   / ignored
Warning: card    &CELL ignored
Warning: card      CELL_DYNAMICS = 'BFGS', ignored
Warning: card    / ignored

     Current dimensions of program PWSCF are:
     Max number of different atomic species (ntypx) = 10
     Max number of k-points (npk) =  40000
     Max angular momentum in pseudopotentials (lmaxx) =  3

     bravais-lattice index     =            0
     lattice parameter (alat)  =      12.4405  a.u.
     unit-cell volume          =    1656.7181 (a.u.)^3
     number of atoms/cell      =           12
     number of atomic types    =            2
     number of electrons       =        72.00
     number of Kohn-Sham states=           43
     kinetic-energy cutoff     =      45.0000  Ry
     charge density cutoff     =     360.0000  Ry
     convergence threshold     =      1.0E-06
     mixing beta               =       0.7000
     number of iterations used =            8  local-TF  mixing
     Exchange-correlation      = SLA PW GGX GGC ( 1  4  2  2 0 0)

     celldm(1)=  12.440518  celldm(2)=   0.000000  celldm(3)=   0.000000
     celldm(4)=   0.000000  celldm(5)=   0.000000  celldm(6)=   0.000000

     crystal axes: (cart. coord. in units of alat)
               a(1) = (   0.997014  -0.006239  -0.076972 )
               a(2) = (  -0.535028   0.853376   0.037035 )
               a(3) = (   0.005377  -0.095101   1.015372 )

     reciprocal axes: (cart. coord. in units 2 pi/alat)
               b(1) = (  1.011101  0.631579  0.053801 )
               b(2) = (  0.015869  1.176985  0.110154 )
               b(3) = (  0.076070  0.004948  0.984921 )

     PseudoPot. # 1 for Mo read from file:
     ~/pseudo/Mo.pw91-n-van.UPF
     MD5 check sum: Not computed, couldn't open file
     Pseudo is Ultrasoft + core correction, Zval =  6.0
     Generated by new atomic code, or converted to UPF format
     Using radial grid of  965 points,  3 beta functions with:
                l(1) =   1
                l(2) =   2
                l(3) =   2
     Q(r) pseudized with  8 coefficients,  rinner =    1.000   1.000   1.000
                                                       1.200   1.200

     PseudoPot. # 2 for S  read from file:
     ~/pseudo/S.pw91-van_ak.UPF
     MD5 check sum: Not computed, couldn't open file
     Pseudo is Ultrasoft, Zval =  6.0
     Generated by new atomic code, or converted to UPF format
     Using radial grid of  811 points,  6 beta functions with:
                l(1) =   0
                l(2) =   0
                l(3) =   1
                l(4) =   1
                l(5) =   2
                l(6) =   2
     Q(r) pseudized with  8 coefficients,  rinner =    1.100   1.100   1.100
                                                       1.100   1.100

     atomic species   valence    mass     pseudopotential
        Mo             6.00    95.50000     Mo( 1.00)
        S              6.00    32.06500     S ( 1.00)

     No symmetry found

   Cartesian axes

     site n.     atom                  positions (alat units)
         1           Mo  tau(   1) = (  -0.0327672   0.0247285  -0.0105890  )
         2           Mo  tau(   2) = (  -0.3802947   0.4967218   0.0403623  )
         3           Mo  tau(   3) = (   0.3844263   0.0700626  -0.0154790  )
         4           Mo  tau(   4) = (   0.1925129   0.4544171  -0.0274976  )
         5           S   tau(   5) = (  -0.0798791   0.3299606   0.2098091  )
         6           S   tau(   6) = (  -0.3280597   0.7584640   0.2925385  )
         7           S   tau(   7) = (   0.4182519   0.3370564   0.2363314  )
         8           S   tau(   8) = (   0.1556310   0.7690587   0.1903407  )
         9           S   tau(   9) = (   0.1583495   0.0968040   0.7354457  )
        10           S   tau(  10) = (  -0.1065070   0.5201491   0.8171271  )
        11           S   tau(  11) = (   0.6643148   0.0912852   0.7595000  )
        12           S   tau(  12) = (   0.3859118   0.5151516   0.7166516  )

     number of k points=    19  Marzari-Vanderbilt smearing, width (Ry)=  0.0200
                       cart. coord. in units 2pi/alat
        k(    1) = (   0.0000000   0.0000000   0.0000000), wk =   0.0555556
        k(    2) = (   0.0190174   0.0012371   0.2462302), wk =   0.1111111
        k(    3) = (  -0.0380348  -0.0024742  -0.4924605), wk =   0.0555556
        k(    4) = (   0.0052898   0.3923282   0.0367181), wk =   0.1111111
        k(    5) = (   0.0243072   0.3935653   0.2829483), wk =   0.1111111
        k(    6) = (  -0.0327450   0.3898541  -0.4557424), wk =   0.1111111
        k(    7) = (  -0.0137276   0.3910911  -0.2095121), wk =   0.1111111
        k(    8) = (   0.3370337   0.2105264   0.0179336), wk =   0.1111111
        k(    9) = (   0.3560511   0.2117635   0.2641638), wk =   0.1111111
        k(   10) = (   0.2989989   0.2080523  -0.4745269), wk =   0.1111111
        k(   11) = (   0.3180163   0.2092893  -0.2282966), wk =   0.1111111
        k(   12) = (   0.3423235   0.6028546   0.0546517), wk =   0.1111111
        k(   13) = (   0.3613409   0.6040917   0.3008819), wk =   0.1111111
        k(   14) = (   0.3042887   0.6003805  -0.4378088), wk =   0.1111111
        k(   15) = (   0.3233061   0.6016175  -0.1915785), wk =   0.1111111
        k(   16) = (   0.3317439  -0.1818018  -0.0187845), wk =   0.1111111
        k(   17) = (   0.3507613  -0.1805647   0.2274457), wk =   0.1111111
        k(   18) = (   0.2937091  -0.1842759  -0.5112450), wk =   0.1111111
        k(   19) = (   0.3127265  -0.1830389  -0.2650148), wk =   0.1111111

     Initial potential from superposition of free atoms

     starting charge   71.99369, renormalised to   72.00000
     Starting wfcs are   68 randomized atomic wfcs

     Self-consistent Calculation

     iteration #  1     ecut=    45.00 Ry     beta= 0.70
     Davidson diagonalization with overlap
     ethr =  1.00E-02,  avg # of iterations =  2.1

     total energy              =    -281.19094217 Ry
     Harris-Foulkes estimate   =    -282.11816067 Ry
     estimated scf accuracy    <       2.42668801 Ry

[...]

     total energy              =    -281.68221424 Ry
     Harris-Foulkes estimate   =    -281.68221479 Ry
     estimated scf accuracy    <       0.00000289 Ry

     iteration # 11     ecut=    45.00 Ry     beta= 0.70
     Davidson diagonalization with overlap
     ethr =  4.02E-09,  avg # of iterations =  1.0

     End of self-consistent calculation

          k = 0.0000 0.0000 0.0000 (  8485 PWs)   bands (ev):

    -7.4674  -6.3518  -5.9872  -5.8672  -5.7155  -5.6931  -5.2221  -5.2157
     0.6026   0.6651   0.7279   1.0140   2.0801   2.1147   2.1781   2.3090
     2.5777   2.9503   3.3967   3.4104   3.4713   3.5047   3.5628   4.0295
     4.1051   4.2247   4.6086   4.7637   5.1443   5.5356   5.6571   5.7330
     5.7764   5.7981   6.3270   6.5246   7.1218   7.1839   8.2859   8.3217
     8.5719   8.6686   8.9563

[...]

          k =-0.0380-0.0025-0.4925 (  8436 PWs)   bands (ev):

[...]

          k =-0.0137 0.3911-0.2095 (  8441 PWs)   bands (ev):

[...]

          k = 0.3127-0.1830-0.2650 (  8438 PWs)   bands (ev):

    -7.0743  -6.5319  -6.1026  -5.9190  -5.8069  -5.6798  -5.3284  -5.2802
     0.9625   1.1244   1.1828   1.4615   1.8597   1.9197   2.1033   2.4433
     2.6425   2.7815   3.1856   3.4508   3.4857   3.5520   3.7480   3.8366
     3.8679   4.2514   4.6944   4.7973   4.8967   5.0730   5.2995   5.4081
     5.5393   5.7486   5.9734   6.1366   6.8819   7.0290   8.4919   8.5395
     8.7421   8.8055   8.8531

     the Fermi energy is     6.5500 ev

!    total energy              =    -281.68221396 Ry
     Harris-Foulkes estimate   =    -281.68221442 Ry
     estimated scf accuracy    <       0.00000055 Ry

     The total energy is the sum of the following terms:

     one-electron contribution =     -15.96484118 Ry
     hartree contribution      =      49.38289204 Ry
     xc contribution           =    -111.28345566 Ry
     ewald contribution        =    -203.82278174 Ry
     smearing contrib. (-TS)   =       0.00597258 Ry

     convergence has been achieved in  11 iterations

     Forces acting on atoms (cartesian axes, Ry/au):

     atom    1 type  1   force =    -0.00804157    0.01303786    0.00818764
     atom    2 type  1   force =    -0.00315747    0.00051133    0.00669682
     atom    3 type  1   force =     0.00926573    0.00386818   -0.00711373
     atom    4 type  1   force =    -0.00573984   -0.00296932    0.00244086
     atom    5 type  2   force =     0.00323138    0.01168191   -0.00176876
     atom    6 type  2   force =    -0.01011580   -0.00259562   -0.00676704
     atom    7 type  2   force =     0.01672907   -0.00549721   -0.00757384
     atom    8 type  2   force =    -0.00123800   -0.01270999   -0.00366575
     atom    9 type  2   force =    -0.00581043   -0.00292050    0.00592771
     atom   10 type  2   force =     0.00665571   -0.00009169    0.00185298
     atom   11 type  2   force =    -0.00164483   -0.00809126    0.00372702
     atom   12 type  2   force =    -0.00013394    0.00577632   -0.00194391

     Total force =     0.040610     Total SCF correction =     0.001076

     General routines

     Parallel routines

   This run was terminated on:  12: 6: 5   8Sep2021

   JOB DONE.