     Program PWSCF v.6.4 starts on  6Oct2021 at 12:18:47

     R & G space division:  proc/nbgrp/npool/nimage =      40
     Waiting for input...
     Reading input from standard input
Warning: card    &IONS ignored
Warning: card      ION_DYNAMICS = 'BFGS' ignored
Warning: card   / ignored
Warning: card    &CELL ignored
Warning: card      CELL_DYNAMICS = 'BFGS', ignored
Warning: card    / ignored

     Current dimensions of program PWSCF are:
     Max number of different atomic species (ntypx) = 10
     Max number of k-points (npk) =  40000
     Max angular momentum in pseudopotentials (lmaxx) =  3

     bravais-lattice index     =            0
     lattice parameter (alat)  =      12.1696  a.u.
     unit-cell volume          =    4917.9643 (a.u.)^3
     number of atoms/cell      =           36
     number of atomic types    =            2
     number of electrons       =       216.00
     number of Kohn-Sham states=          130
     kinetic-energy cutoff     =      45.0000  Ry
     charge density cutoff     =     360.0000  Ry
     convergence threshold     =      1.0E-06
     mixing beta               =       0.7000
     number of iterations used =            8  local-TF  mixing
     Exchange-correlation      = SLA PW GGX GGC ( 1  4  2  2 0 0)

     celldm(1)=  12.169611  celldm(2)=   0.000000  celldm(3)=   0.000000
     celldm(4)=   0.000000  celldm(5)=   0.000000  celldm(6)=   0.000000

     crystal axes: (cart. coord. in units of alat)
               a(1) = (   1.000000   0.000000   0.000000 )
               a(2) = (   0.499910   0.866549   0.000000 )
               a(3) = (   0.225759  -0.047120   3.148923 )

     reciprocal axes: (cart. coord. in units 2 pi/alat)
               b(1) = (  1.000000 -0.576897 -0.080327 )
               b(2) = (  0.000000  1.154003  0.017268 )
               b(3) = (  0.000000  0.000000  0.317569 )

     PseudoPot. # 1 for Mo read from file:
     ~/pseudo/Mo.pw91-n-van.UPF
     MD5 check sum: Not computed, couldn't open file
     Pseudo is Ultrasoft + core correction, Zval =  6.0
     Generated by new atomic code, or converted to UPF format
     Using radial grid of  965 points,  3 beta functions with:
                l(1) =   1
                l(2) =   2
                l(3) =   2
     Q(r) pseudized with  8 coefficients,  rinner =    1.000   1.000   1.000
                                                       1.200   1.200

     PseudoPot. # 2 for S  read from file:
     ~/pseudo/S.pw91-van_ak.UPF
     MD5 check sum: Not computed, couldn't open file
     Pseudo is Ultrasoft, Zval =  6.0
     Generated by new atomic code, or converted to UPF format
     Using radial grid of  811 points,  6 beta functions with:
                l(1) =   0
                l(2) =   0
                l(3) =   1
                l(4) =   1
                l(5) =   2
                l(6) =   2
     Q(r) pseudized with  8 coefficients,  rinner =    1.100   1.100   1.100
                                                       1.100   1.100

     atomic species   valence    mass     pseudopotential
        Mo             6.00    95.50000     Mo( 1.00)
        S              6.00    32.06500     S ( 1.00)

     No symmetry found

   Cartesian axes

     site n.     atom                  positions (alat units)
         1           Mo  tau(   1) = (   0.8264595   0.1272718   2.1117338  )
         2           Mo  tau(   2) = (   1.0768077   0.5607349   2.1116544  )
         3           Mo  tau(   3) = (   0.3267224   0.1273257   2.1118308  )
         4           Mo  tau(   4) = (   0.5767292   0.5607292   2.1116737  )
         5           Mo  tau(   5) = (   1.0583394   0.4153547   1.0307359  )
         6           Mo  tau(   6) = (   1.3084907   0.8487922   1.0307160  )
         7           Mo  tau(   7) = (   0.5580374   0.4162295   1.0305868  )
         8           Mo  tau(   8) = (   0.8091365   0.8484785   1.0307841  )
         9           Mo  tau(   9) = (   0.5920728   0.7131824   0.0086645  )
        10           Mo  tau(  10) = (   0.3414309   0.2796921   0.0085922  )
        11           Mo  tau(  11) = (   1.3178136   0.6656562   3.1576265  )
        12           Mo  tau(  12) = (   0.8413394   0.2802810   0.0086939  )
        13           S   tau(  13) = (   0.3167052   0.0880173   2.9126481  )
        14           S   tau(  14) = (   0.5683243   0.5214799   2.9127492  )
        15           S   tau(  15) = (   0.8174592   0.0873674   2.9130618  )
        16           S   tau(  16) = (   1.0678947   0.5213198   2.9121188  )
        17           S   tau(  17) = (   1.0763813  -0.0178299   2.3566626  )
        18           S   tau(  18) = (   1.3261219   0.4159289   2.3568885  )
        19           S   tau(  19) = (   0.5764200  -0.0177606   2.3570448  )
        20           S   tau(  20) = (   0.8265562   0.4157823   2.3566022  )
        21           S   tau(  21) = (   1.0768680  -0.0161696   1.8666985  )
        22           S   tau(  22) = (   1.3274816   0.4163980   1.8666633  )
        23           S   tau(  23) = (   0.5766672  -0.0166683   1.8664660  )
        24           S   tau(  24) = (   0.8270420   0.4165828   1.8670899  )
        25           S   tau(  25) = (   0.8079838   0.2710337   1.2752204  )
        26           S   tau(  26) = (   1.0596509   0.7032229   1.2765772  )
        27           S   tau(  27) = (   0.3087211   0.2702201   1.2753205  )
        28           S   tau(  28) = (   0.5592626   0.7051155   1.2756270  )
        29           S   tau(  29) = (   0.8076802   0.2714595   0.7859969  )
        30           S   tau(  30) = (   1.0587665   0.7041478   0.7854412  )
        31           S   tau(  31) = (   0.3080935   0.2711251   0.7861544  )
        32           S   tau(  32) = (   0.5583561   0.7052964   0.7856079  )
        33           S   tau(  33) = (   1.0910330   0.1359437   0.2534973  )
        34           S   tau(  34) = (   1.3420862   0.5683011   0.2536017  )
        35           S   tau(  35) = (   0.5914507   0.1356142   0.2535999  )
        36           S   tau(  36) = (   0.8420502   0.5693793   0.2538407  )

     number of k points=     5  Marzari-Vanderbilt smearing, width (Ry)=  0.0200
                       cart. coord. in units 2pi/alat
        k(    1) = (   0.0000000   0.0000000   0.0000000), wk =   0.2222222
        k(    2) = (   0.0000000   0.3846675   0.0057562), wk =   0.4444444
        k(    3) = (   0.3333333  -0.1922992  -0.0267756), wk =   0.4444444
        k(    4) = (   0.3333333   0.1923684  -0.0210194), wk =   0.4444444
        k(    5) = (   0.3333333  -0.5769667  -0.0325317), wk =   0.4444444

     Initial potential from superposition of free atoms

     starting charge  215.98107, renormalised to  216.00000
     Starting wfcs are  204 randomized atomic wfcs

     Self-consistent Calculation

     iteration #  1     ecut=    45.00 Ry     beta= 0.70
     Davidson diagonalization with overlap
     ethr =  1.00E-02,  avg # of iterations =  2.0

     total energy              =    -844.23387423 Ry
     Harris-Foulkes estimate   =    -846.85574347 Ry
     estimated scf accuracy    <       6.70711623 Ry

[...]

     iteration #  6     ecut=    45.00 Ry     beta= 0.70
     Davidson diagonalization with overlap
     c_bands:  1 eigenvalues not converged
     ethr =  6.93E-07,  avg # of iterations = 13.6

[...]

     total energy              =    -845.54012533 Ry
     Harris-Foulkes estimate   =    -845.54012568 Ry
     estimated scf accuracy    <       0.00000144 Ry

     iteration # 13     ecut=    45.00 Ry     beta= 0.70
     Davidson diagonalization with overlap
     ethr =  6.66E-10,  avg # of iterations =  2.8

     End of self-consistent calculation

          k = 0.0000 0.0000 0.0000 ( 24987 PWs)   bands (ev):

    -7.4941  -7.4264  -7.4209  -6.3078  -6.2655  -6.1779  -5.7498  -5.7464
    -5.7370  -5.7273  -5.7250  -5.7147  -5.7083  -5.7036  -5.6995  -5.4800
    -5.4718  -5.4669  -5.4512  -5.4499  -5.4402  -5.4344  -5.4306  -5.4231
     0.8274   0.8868   0.8920   0.9035   0.9154   0.9203   0.9354   0.9471
     0.9500   0.9553   1.1475   1.2049   1.8115   1.8216   1.8282   1.8471
     1.8631   1.8857   1.8921   1.8931   1.9178   2.4482   2.4771   2.5060
     2.5232   2.5253   2.5696   2.6146   2.6234   2.6427   3.4146   3.4157
     3.4219   3.4355   3.4404   3.4447   3.4455   3.4459   3.4525   3.9373
     3.9429   3.9520   3.9577   3.9607   3.9667   4.4672   4.5080   4.5615
     4.5744   4.5996   4.6273   4.7047   4.7593   4.7924   4.7927   4.8816
     5.0427   5.0482   5.0589   5.0653   5.0676   5.0735   5.5484   5.5503
     5.5548   5.5588   5.5839   5.5856   5.5888   5.6053   5.6066   5.6173
     5.8175   5.8507   5.8558   5.8656   5.8741   5.9142   5.9462   5.9575
     5.9623   6.2149   6.7779   6.8414   8.5349   8.5360   8.5388   8.5523
     8.5531   8.5574   8.5604   8.5613   8.5627   9.0196   9.0290   9.0424
     9.0513   9.0572   9.0705   9.0919   9.0947   9.0954   9.2036   9.2119
     9.2269   9.2369

[...]

          k = 0.3333-0.5770-0.0325 ( 25137 PWs)   bands (ev):

    -6.5171  -6.5148  -6.5119  -6.4652  -6.4626  -6.4570  -6.4534  -6.4472
    -6.4446  -5.8298  -5.8277  -5.8249  -5.7940  -5.7896  -5.7877  -5.7388
    -5.7371  -5.7365  -5.4992  -5.4864  -5.4689  -5.3062  -5.2909  -5.2736
     1.2902   1.3042   1.3188   1.5937   1.5963   1.5994   1.7569   1.7692
     1.7802   1.8178   1.8267   1.8359   2.0620   2.0776   2.0993   2.5606
     2.5711   2.5980   2.6978   2.7040   2.7084   2.7407   2.7464   2.7536
     2.7711   2.7862   2.7955   2.9499   2.9728   2.9811   2.9867   2.9877
     3.0174   3.0192   3.0220   3.0373   3.0394   3.0425   3.0661   3.3654
     3.3665   3.3832   3.4179   3.4354   3.4381   3.5595   3.5631   3.5671
     3.6685   3.6885   3.7145   4.3144   4.4096   4.4858   4.5812   4.5849
     4.5890   4.6020   4.6075   4.6105   4.6147   4.6177   4.6195   5.3494
     5.3728   5.3791   5.4200   5.4256   5.4394   5.6233   5.6281   5.6321
     5.7296   5.7335   5.7351   5.7394   5.7416   5.7491   5.7725   5.7775
     5.7782   6.4823   6.4935   6.5083   8.0906   8.1055   8.1144   8.1796
     8.1834   8.1880   8.4131   8.4269   8.4524   8.4779   8.5015   8.5062
     8.8009   8.8034   8.8045   8.8259   8.8292   8.8379   8.8556   8.8629
     8.8777   9.1029

     the Fermi energy is     6.7576 ev

!    total energy              =    -845.54012498 Ry
     Harris-Foulkes estimate   =    -845.54012554 Ry
     estimated scf accuracy    <       0.00000060 Ry

     The total energy is the sum of the following terms:

     one-electron contribution =     -60.68231364 Ry
     hartree contribution      =     155.37845043 Ry
     xc contribution           =    -334.13457600 Ry
     ewald contribution        =    -606.11634066 Ry
     smearing contrib. (-TS)   =       0.01465490 Ry

     convergence has been achieved in  13 iterations

     Forces acting on atoms (cartesian axes, Ry/au):

     atom    1 type  1   force =     0.00015728   -0.00017261    0.00099386
     atom    2 type  1   force =    -0.00009939    0.00005343    0.00040285
     atom    3 type  1   force =     0.00022489   -0.00010674    0.00084229
     atom    4 type  1   force =    -0.00014488   -0.00006669    0.00083660
     atom    5 type  1   force =     0.00055014   -0.00002061   -0.00003766
     atom    6 type  1   force =     0.00011916   -0.00031950    0.00002378
     atom    7 type  1   force =     0.00064285   -0.00056664    0.00022419
     atom    8 type  1   force =    -0.00004125   -0.00055366   -0.00062970
     atom    9 type  1   force =    -0.00015311   -0.00012838    0.00106647
     atom   10 type  1   force =     0.00017593   -0.00018566    0.00015165
     atom   11 type  1   force =    -0.00039187   -0.00007571    0.00113008
     atom   12 type  1   force =     0.00040230   -0.00030217    0.00079165
     atom   13 type  2   force =     0.00124076    0.00115014    0.00087523
     atom   14 type  2   force =    -0.00122257   -0.00036190    0.00075782
     atom   15 type  2   force =    -0.00028419    0.00197892   -0.00004383
     atom   16 type  2   force =    -0.00025532    0.00115274    0.00245823
     atom   17 type  2   force =     0.00037524    0.00171919   -0.00123488
     atom   18 type  2   force =     0.00156264    0.00041572   -0.00244696
     atom   19 type  2   force =     0.00045130    0.00126912   -0.00228105
     atom   20 type  2   force =     0.00020755    0.00083613   -0.00094484
     atom   21 type  2   force =    -0.00050662   -0.00168872    0.00147631
     atom   22 type  2   force =    -0.00187376    0.00010647    0.00149615
     atom   23 type  2   force =    -0.00002424   -0.00070741    0.00207929
     atom   24 type  2   force =    -0.00058977   -0.00043135   -0.00004857
     atom   25 type  2   force =     0.00001627    0.00024985   -0.00014322
     atom   26 type  2   force =    -0.00190719    0.00165202   -0.00414088
     atom   27 type  2   force =    -0.00019910    0.00170538   -0.00052108
     atom   28 type  2   force =    -0.00148558   -0.00166847   -0.00116463
     atom   29 type  2   force =     0.00123499   -0.00028927    0.00106134
     atom   30 type  2   force =     0.00015147   -0.00015739    0.00304557
     atom   31 type  2   force =     0.00103001   -0.00044819    0.00042623
     atom   32 type  2   force =     0.00106942   -0.00095601    0.00167804
     atom   33 type  2   force =     0.00032065   -0.00112714   -0.00185399
     atom   34 type  2   force =    -0.00032028    0.00058062   -0.00194078
     atom   35 type  2   force =     0.00011426   -0.00108243   -0.00207635
     atom   36 type  2   force =    -0.00054798   -0.00145309   -0.00230922

     Total force =     0.011728     Total SCF correction =     0.001645
     SCF correction compared to forces is large: reduce conv_thr to get better values

     General routines

     Parallel routines

   This run was terminated on:  12:20:14   6Oct2021

   JOB DONE.