     Program PWSCF v.6.4 starts on 10Nov2021 at 18: 5:50

     R & G space division:  proc/nbgrp/npool/nimage =      40
     Waiting for input...
     Reading input from standard input
Warning: card    &IONS ignored
Warning: card      ION_DYNAMICS = 'BFGS' ignored
Warning: card   / ignored
Warning: card    &CELL ignored
Warning: card      CELL_DYNAMICS = 'BFGS', ignored
Warning: card    / ignored

     Current dimensions of program PWSCF are:
     Max number of different atomic species (ntypx) = 10
     Max number of k-points (npk) =  40000
     Max angular momentum in pseudopotentials (lmaxx) =  3

     bravais-lattice index     =            0
     lattice parameter (alat)  =       6.1085  a.u.
     unit-cell volume          =     866.1159 (a.u.)^3
     number of atoms/cell      =            6
     number of atomic types    =            2
     number of electrons       =        36.00
     number of Kohn-Sham states=           22
     kinetic-energy cutoff     =      45.0000  Ry
     charge density cutoff     =     360.0000  Ry
     convergence threshold     =      1.0E-06
     mixing beta               =       0.7000
     number of iterations used =            8  local-TF  mixing
     Exchange-correlation      = SLA PW GGX GGC ( 1  4  2  2 0 0)

     celldm(1)=   6.108476  celldm(2)=   0.000000  celldm(3)=   0.000000
     celldm(4)=   0.000000  celldm(5)=   0.000000  celldm(6)=   0.000000

     crystal axes: (cart. coord. in units of alat)
               a(1) = (   1.000000   0.000000   0.000000 )
               a(2) = (  -0.497022   0.859868   0.000000 )
               a(3) = (  -0.061939  -0.089475   4.419221 )

     reciprocal axes: (cart. coord. in units 2 pi/alat)
               b(1) = (  1.000000  0.578021  0.025719 )
               b(2) = (  0.000000  1.162969  0.023546 )
               b(3) = (  0.000000  0.000000  0.226284 )

     PseudoPot. # 1 for Mo read from file:
     ~/pseudo/Mo.pw91-n-van.UPF
     MD5 check sum: Not computed, couldn't open file
     Pseudo is Ultrasoft + core correction, Zval =  6.0
     Generated by new atomic code, or converted to UPF format
     Using radial grid of  965 points,  3 beta functions with:
                l(1) =   1
                l(2) =   2
                l(3) =   2
     Q(r) pseudized with  8 coefficients,  rinner =    1.000   1.000   1.000
                                                       1.200   1.200

     PseudoPot. # 2 for S  read from file:
     ~/pseudo/S.pw91-van_ak.UPF
     MD5 check sum: Not computed, couldn't open file
     Pseudo is Ultrasoft, Zval =  6.0
     Generated by new atomic code, or converted to UPF format
     Using radial grid of  811 points,  6 beta functions with:
                l(1) =   0
                l(2) =   0
                l(3) =   1
                l(4) =   1
                l(5) =   2
                l(6) =   2
     Q(r) pseudized with  8 coefficients,  rinner =    1.100   1.100   1.100
                                                       1.100   1.100

     atomic species   valence    mass     pseudopotential
        Mo             6.00    95.50000     Mo( 1.00)
        S              6.00    32.06500     S ( 1.00)

     No symmetry found

   Cartesian axes

     site n.     atom                  positions (alat units)
         1           Mo  tau(   1) = (   0.3471615   0.6219533   3.3123088  )
         2           Mo  tau(   2) = (   0.0937011   0.1485339   1.1068289  )
         3           S   tau(   3) = (  -0.1490946   0.3376111   3.7985462  )
         4           S   tau(   4) = (   0.5900296   0.4324004   0.6204973  )
         5           S   tau(   5) = (   0.5970043   0.4354834   1.5932607  )
         6           S   tau(   6) = (  -0.1557360   0.3351629   2.8259204  )

     number of k points=    40  Marzari-Vanderbilt smearing, width (Ry)=  0.0200
                       cart. coord. in units 2pi/alat
        k(    1) = (   0.0000000   0.0000000   0.0000000), wk =   0.0277778
        k(    2) = (   0.0000000   0.0000000  -0.1131421), wk =   0.0277778
        k(    3) = (   0.0000000   0.1938282   0.0039244), wk =   0.0555556
        k(    4) = (   0.0000000   0.1938282  -0.1092177), wk =   0.0555556
        k(    5) = (   0.0000000   0.3876565   0.0078488), wk =   0.0555556
        k(    6) = (   0.0000000   0.3876565  -0.1052933), wk =   0.0555556
        k(    7) = (   0.0000000  -0.5814847  -0.0117732), wk =   0.0277778
        k(    8) = (   0.0000000  -0.5814847  -0.1249153), wk =   0.0277778
        k(    9) = (   0.1666667   0.0963368   0.0042865), wk =   0.0555556
        k(   10) = (   0.1666667   0.0963368  -0.1088556), wk =   0.0555556
        k(   11) = (   0.1666667   0.2901651   0.0082109), wk =   0.0555556
        k(   12) = (   0.1666667   0.2901651  -0.1049312), wk =   0.0555556
        k(   13) = (   0.1666667   0.4839933   0.0121353), wk =   0.0555556
        k(   14) = (   0.1666667   0.4839933  -0.1010068), wk =   0.0555556
        k(   15) = (   0.1666667  -0.4851479  -0.0074867), wk =   0.0555556
        k(   16) = (   0.1666667  -0.4851479  -0.1206288), wk =   0.0555556
        k(   17) = (   0.1666667  -0.2913196  -0.0035623), wk =   0.0555556
        k(   18) = (   0.1666667  -0.2913196  -0.1167044), wk =   0.0555556
        k(   19) = (   0.1666667  -0.0974914   0.0003621), wk =   0.0555556
        k(   20) = (   0.1666667  -0.0974914  -0.1127800), wk =   0.0555556
        k(   21) = (   0.3333333   0.1926737   0.0085730), wk =   0.0555556
        k(   22) = (   0.3333333   0.1926737  -0.1045691), wk =   0.0555556
        k(   23) = (   0.3333333   0.3865019   0.0124974), wk =   0.0555556
        k(   24) = (   0.3333333   0.3865019  -0.1006447), wk =   0.0555556
        k(   25) = (   0.3333333   0.5803302   0.0164218), wk =   0.0555556
        k(   26) = (   0.3333333   0.5803302  -0.0967203), wk =   0.0555556
        k(   27) = (   0.3333333  -0.3888110  -0.0032002), wk =   0.0555556
        k(   28) = (   0.3333333  -0.3888110  -0.1163423), wk =   0.0555556
        k(   29) = (   0.3333333  -0.1949828   0.0007242), wk =   0.0555556
        k(   30) = (   0.3333333  -0.1949828  -0.1124179), wk =   0.0555556
        k(   31) = (   0.3333333  -0.0011545   0.0046486), wk =   0.0555556
        k(   32) = (   0.3333333  -0.0011545  -0.1084935), wk =   0.0555556
        k(   33) = (  -0.5000000  -0.2890105  -0.0128595), wk =   0.0277778
        k(   34) = (  -0.5000000  -0.2890105  -0.1260016), wk =   0.0277778
        k(   35) = (  -0.5000000  -0.0951823  -0.0089351), wk =   0.0555556
        k(   36) = (  -0.5000000  -0.0951823  -0.1220772), wk =   0.0555556
        k(   37) = (  -0.5000000   0.0986459  -0.0050107), wk =   0.0555556
        k(   38) = (  -0.5000000   0.0986459  -0.1181528), wk =   0.0555556
        k(   39) = (  -0.5000000  -0.8704953  -0.0246327), wk =   0.0277778
        k(   40) = (  -0.5000000  -0.8704953  -0.1377748), wk =   0.0277778

     Initial potential from superposition of free atoms

     starting charge   35.99685, renormalised to   36.00000
     Starting wfcs are   34 randomized atomic wfcs

     Self-consistent Calculation

     iteration #  1     ecut=    45.00 Ry     beta= 0.70
     Davidson diagonalization with overlap
     ethr =  1.00E-02,  avg # of iterations =  2.0

     total energy              =    -140.70381306 Ry
     Harris-Foulkes estimate   =    -141.14252551 Ry
     estimated scf accuracy    <       1.12041634 Ry

[...]

     iteration #  6     ecut=    45.00 Ry     beta= 0.70
     Davidson diagonalization with overlap
     c_bands:  1 eigenvalues not converged
     ethr =  1.53E-06,  avg # of iterations =  5.5

[...]

     total energy              =    -140.92333392 Ry
     Harris-Foulkes estimate   =    -140.92336182 Ry
     estimated scf accuracy    <       0.00015378 Ry

     iteration #  9     ecut=    45.00 Ry     beta= 0.70
     Davidson diagonalization with overlap
     ethr =  4.27E-07,  avg # of iterations =  3.4

     End of self-consistent calculation

          k = 0.0000 0.0000 0.0000 (  4467 PWs)   bands (ev):

    -8.1490  -8.1120  -6.9484  -6.8836   0.2609   0.5261   3.2105   3.2123
     3.2861   3.2878   3.8206   4.3305   4.3321   4.4042   4.4071   4.6508
     5.6430   6.1365   8.5489   8.5556   8.5670   8.5848

[...]

          k = 0.3333-0.0012-0.1085 (  4422 PWs)   bands (ev):

[...]

          k =-0.5000-0.2890-0.0129 (  4392 PWs)   bands (ev):

[...]

          k =-0.5000-0.8705-0.1378 (  4390 PWs)   bands (ev):

    -6.4123  -6.4097  -6.1258  -6.1236   0.2453   0.2463   1.1958   1.1976
     1.8614   1.8689   2.7419   2.7455   4.0245   4.0495   4.8980   4.9040
     5.2366   5.2401   7.8691   7.8709   8.3955   8.3970

     the Fermi energy is     6.0096 ev

!    total energy              =    -140.92336144 Ry
     Harris-Foulkes estimate   =    -140.92336164 Ry
     estimated scf accuracy    <       0.00000043 Ry

     The total energy is the sum of the following terms:

     one-electron contribution =     -25.90726649 Ry
     hartree contribution      =      32.90494375 Ry
     xc contribution           =     -55.70035857 Ry
     ewald contribution        =     -92.22367190 Ry
     smearing contrib. (-TS)   =       0.00299176 Ry

     convergence has been achieved in   9 iterations

     Forces acting on atoms (cartesian axes, Ry/au):

     atom    1 type  1   force =     0.00314356    0.00058399   -0.00038674
     atom    2 type  1   force =    -0.00256439   -0.00099268    0.00027638
     atom    3 type  2   force =    -0.00527175   -0.00174581    0.00352789
     atom    4 type  2   force =     0.00518678    0.00231396   -0.00329022
     atom    5 type  2   force =    -0.00334931   -0.00131382    0.00285264
     atom    6 type  2   force =     0.00285511    0.00115437   -0.00297994

     Total force =     0.011993     Total SCF correction =     0.000844

     General routines

     Parallel routines

   This run was terminated on:  18: 6: 6  10Nov2021

   JOB DONE.