     Program PWSCF v.6.4 starts on  2Sep2021 at  9:16: 8

     R & G space division:  proc/nbgrp/npool/nimage =      40
     Waiting for input...
     Reading input from standard input
Warning: card    &IONS ignored
Warning: card      ION_DYNAMICS = 'BFGS' ignored
Warning: card   / ignored
Warning: card    &CELL ignored
Warning: card      CELL_DYNAMICS = 'BFGS', ignored
Warning: card    / ignored

     Current dimensions of program PWSCF are:
     Max number of different atomic species (ntypx) = 10
     Max number of k-points (npk) =  40000
     Max angular momentum in pseudopotentials (lmaxx) =  3

     Found symmetry operation: I + (  0.5000 -0.5000  0.0000)
     This is a supercell, fractional translations are disabled

     bravais-lattice index     =            0
     lattice parameter (alat)  =       6.0954  a.u.
     unit-cell volume          =    3817.1170 (a.u.)^3
     number of atoms/cell      =           24
     number of atomic types    =            2
     number of electrons       =       144.00
     number of Kohn-Sham states=           86
     kinetic-energy cutoff     =      45.0000  Ry
     charge density cutoff     =     360.0000  Ry
     convergence threshold     =      1.0E-06
     mixing beta               =       0.7000
     number of iterations used =            8  local-TF  mixing
     Exchange-correlation      = SLA PW GGX GGC ( 1  4  2  2 0 0)

     celldm(1)=   6.095432  celldm(2)=   0.000000  celldm(3)=   0.000000
     celldm(4)=   0.000000  celldm(5)=   0.000000  celldm(6)=   0.000000

     crystal axes: (cart. coord. in units of alat)
               a(1) = (   1.000000   0.000000   0.000000 )
               a(2) = (   0.000193   1.731862   0.000000 )
               a(3) = (  -0.205941  -0.232645   9.732151 )

     reciprocal axes: (cart. coord. in units 2 pi/alat)
               b(1) = (  1.000000 -0.000111  0.021158 )
               b(2) = (  0.000000  0.577413  0.013803 )
               b(3) = (  0.000000  0.000000  0.102752 )

     PseudoPot. # 1 for Mo read from file:
     ~/pseudo/Mo.pw91-n-van.UPF
     MD5 check sum: Not computed, couldn't open file
     Pseudo is Ultrasoft + core correction, Zval =  6.0
     Generated by new atomic code, or converted to UPF format
     Using radial grid of  965 points,  3 beta functions with:
                l(1) =   1
                l(2) =   2
                l(3) =   2
     Q(r) pseudized with  8 coefficients,  rinner =    1.000   1.000   1.000
                                                       1.200   1.200

     PseudoPot. # 2 for S  read from file:
     ~/pseudo/S.pw91-van_ak.UPF
     MD5 check sum: Not computed, couldn't open file
     Pseudo is Ultrasoft, Zval =  6.0
     Generated by new atomic code, or converted to UPF format
     Using radial grid of  811 points,  6 beta functions with:
                l(1) =   0
                l(2) =   0
                l(3) =   1
                l(4) =   1
                l(5) =   2
                l(6) =   2
     Q(r) pseudized with  8 coefficients,  rinner =    1.100   1.100   1.100
                                                       1.100   1.100

     atomic species   valence    mass     pseudopotential
        Mo             6.00    95.50000     Mo( 1.00)
        S              6.00    32.06500     S ( 1.00)

     No symmetry found

   Cartesian axes

     site n.     atom                  positions (alat units)
         1           Mo  tau(   1) = (   0.4417704   1.0969892   1.2682264  )
         2           Mo  tau(   2) = (   0.0283733   1.4799294   6.2628751  )
         3           Mo  tau(   3) = (   0.9416720   0.2310594   1.2682267  )
         4           Mo  tau(   4) = (   0.5282786   0.6139964   6.2628752  )
         5           Mo  tau(   5) = (   0.1228176   1.2433374   3.5834263  )
         6           Mo  tau(   6) = (  -0.0059192   0.9247199   8.3553927  )
         7           Mo  tau(   7) = (   0.6227203   0.3774076   3.5834267  )
         8           Mo  tau(   8) = (   0.4939859   0.0587870   8.3553922  )
         9           S   tau(   9) = (   0.9421317   0.8080132   1.7579987  )
        10           S   tau(  10) = (   0.5277725   1.1916325   6.7542628  )
        11           S   tau(  11) = (   0.4420325  -0.0579192   1.7579914  )
        12           S   tau(  12) = (   0.0276787   0.3257017   6.7542645  )
        13           S   tau(  13) = (   0.6228915   1.5319126   4.0710443  )
        14           S   tau(  14) = (   0.4937331   1.2135760   8.8426859  )
        15           S   tau(  15) = (   0.1227939   0.6659820   4.0710464  )
        16           S   tau(  16) = (  -0.0063612   0.3476450   8.8426832  )
        17           S   tau(  17) = (   0.9416764   0.8084550   0.7805425  )
        18           S   tau(  18) = (   0.5287394   1.1910328   5.7756434  )
        19           S   tau(  19) = (   0.4417699   1.6743848   0.7805511  )
        20           S   tau(  20) = (   0.0286456   0.3251025   5.7756413  )
        21           S   tau(  21) = (   0.6224703   1.5322959   3.0936376  )
        22           S   tau(  22) = (   0.4946679   1.2130336   7.8640236  )
        23           S   tau(  23) = (   0.1223727   0.6663643   3.0936378  )
        24           S   tau(  24) = (  -0.0054263   0.3471037   7.8640249  )

     number of k points=     8  Marzari-Vanderbilt smearing, width (Ry)=  0.0200
                       cart. coord. in units 2pi/alat
        k(    1) = (   0.0000000   0.0000000   0.0000000), wk =   0.1333333
        k(    2) = (   0.0000000   0.1924711   0.0046010), wk =   0.2666667
        k(    3) = (   0.2000000  -0.0000223   0.0042316), wk =   0.2666667
        k(    4) = (   0.2000000   0.1924488   0.0088326), wk =   0.2666667
        k(    5) = (   0.2000000  -0.1924934  -0.0003693), wk =   0.2666667
        k(    6) = (   0.4000000  -0.0000446   0.0084633), wk =   0.2666667
        k(    7) = (   0.4000000   0.1924265   0.0130643), wk =   0.2666667
        k(    8) = (   0.4000000  -0.1925156   0.0038623), wk =   0.2666667

     Initial potential from superposition of free atoms

     starting charge  143.98738, renormalised to  144.00000
     Starting wfcs are  136 randomized atomic wfcs

     Self-consistent Calculation

     iteration #  1     ecut=    45.00 Ry     beta= 0.70
     Davidson diagonalization with overlap
     ethr =  1.00E-02,  avg # of iterations =  2.0

     total energy              =    -562.79989407 Ry
     Harris-Foulkes estimate   =    -564.57651237 Ry
     estimated scf accuracy    <       4.54255211 Ry

[...]

     iteration #  6     ecut=    45.00 Ry     beta= 0.70
     Davidson diagonalization with overlap
     c_bands:  1 eigenvalues not converged
     c_bands:  1 eigenvalues not converged
     c_bands:  3 eigenvalues not converged
     ethr =  1.39E-06,  avg # of iterations = 11.5

[...]

     total energy              =    -563.68909800 Ry
     Harris-Foulkes estimate   =    -563.68909830 Ry
     estimated scf accuracy    <       0.00000164 Ry

     iteration # 12     ecut=    45.00 Ry     beta= 0.70
     Davidson diagonalization with overlap
     ethr =  1.14E-09,  avg # of iterations =  2.4

     End of self-consistent calculation

          k = 0.0000 0.0000 0.0000 ( 19493 PWs)   bands (ev):

    -9.2272  -9.1778  -9.1775  -9.1679  -8.0538  -7.9843  -7.9718  -7.9669
    -7.5151  -7.4720  -7.4658  -7.4596  -7.2408  -7.1897  -7.1888  -7.1806
    -0.8496  -0.8237  -0.8145  -0.8008  -0.7995  -0.6923  -0.6110  -0.5559
     0.0939   0.1204   0.1367   0.1551   0.6900   0.8032   0.8307   0.8661
     1.6576   1.6697   1.6897   1.6906   2.1792   2.1812   2.1835   2.1854
     2.1996   2.1999   2.2019   2.2022   2.7314   2.7676   2.9124   2.9933
     3.0224   3.0785   3.2689   3.2747   3.2775   3.2834   3.2856   3.3020
     3.3032   3.3088   3.3092   3.4535   3.7842   3.8173   3.8287   3.8315
     4.0545   4.1281   4.1799   4.2075   4.5983   4.7212   4.8830   5.0055
     6.7576   6.7666   6.7868   6.7877   7.2399   7.2919   7.2979   7.3048
     7.4040   7.4130   7.4526   7.4552   7.4702   7.4726

[...]

          k = 0.4000-0.1925 0.0039 ( 19386 PWs)   bands (ev):

    -7.7836  -7.7384  -7.7346  -7.7278  -7.4666  -7.4237  -7.4176  -7.4111
    -7.3624  -7.3066  -7.3056  -7.2969  -7.2019  -7.1511  -7.1500  -7.1416
    -0.5880  -0.5558  -0.5474  -0.5388  -0.5321  -0.5128  -0.5109  -0.4949
    -0.0492  -0.0189  -0.0079   0.0038   0.3855   0.4442   0.4489   0.4625
     0.7687   0.7980   0.8869   0.8992   0.9263   0.9514   0.9602   0.9756
     1.6311   1.6831   1.6851   1.6946   1.7921   1.8069   1.8218   1.8265
     2.7100   2.8307   2.8412   2.8517   2.8710   2.8783   2.9469   3.0317
     3.0779   3.1017   3.1306   3.2352   3.4889   3.5269   3.5280   3.5374
     3.8956   3.9525   3.9684   3.9843   4.3308   4.3695   4.3744   4.3882
     6.7455   6.7573   6.7801   6.7900   6.7951   6.7981   6.8015   6.8119
     7.0043   7.0874   7.1523   7.1793   7.3519   7.3955

     the Fermi energy is     4.8241 ev

!    total energy              =    -563.68909794 Ry
     Harris-Foulkes estimate   =    -563.68909816 Ry
     estimated scf accuracy    <       0.00000029 Ry

     The total energy is the sum of the following terms:

     one-electron contribution =    -319.06063486 Ry
     hartree contribution      =     233.57047710 Ry
     xc contribution           =    -222.68276330 Ry
     ewald contribution        =    -255.53298557 Ry
     smearing contrib. (-TS)   =       0.01680869 Ry

     convergence has been achieved in  12 iterations

     Forces acting on atoms (cartesian axes, Ry/au):

     atom    1 type  1   force =     0.00047629   -0.00000329    0.00475247
     atom    2 type  1   force =    -0.00015829   -0.00109020    0.00990503
     atom    3 type  1   force =     0.00047620    0.00000362    0.00475348
     atom    4 type  1   force =    -0.00016159   -0.00108488    0.00990552
     atom    5 type  1   force =    -0.00025334   -0.00001646   -0.00439896
     atom    6 type  1   force =     0.00026731    0.00052638   -0.00967674
     atom    7 type  1   force =    -0.00025252   -0.00001217   -0.00440283
     atom    8 type  1   force =     0.00026585    0.00052592   -0.00967195
     atom    9 type  2   force =    -0.00051226    0.00055963   -0.00405683
     atom   10 type  2   force =     0.00083277   -0.00026348   -0.01123627
     atom   11 type  2   force =    -0.00051122    0.00056152   -0.00404412
     atom   12 type  2   force =     0.00083079   -0.00026404   -0.01123745
     atom   13 type  2   force =    -0.00019439   -0.00001936    0.00048265
     atom   14 type  2   force =     0.00036328   -0.00028630    0.00144815
     atom   15 type  2   force =    -0.00019425    0.00000367    0.00048850
     atom   16 type  2   force =     0.00036268   -0.00029237    0.00144954
     atom   17 type  2   force =    -0.00003647    0.00019136   -0.00066302
     atom   18 type  2   force =    -0.00060261    0.00055030   -0.00164336
     atom   19 type  2   force =    -0.00003498    0.00019317   -0.00067858
     atom   20 type  2   force =    -0.00060417    0.00055153   -0.00164078
     atom   21 type  2   force =     0.00049135   -0.00053399    0.00394766
     atom   22 type  2   force =    -0.00067074    0.00035702    0.01113949
     atom   23 type  2   force =     0.00049216   -0.00051429    0.00394377
     atom   24 type  2   force =    -0.00067185    0.00035672    0.01113463

     Total force =     0.032455     Total SCF correction =     0.001599

     General routines

     Parallel routines

   This run was terminated on:   9:17: 3   2Sep2021

   JOB DONE.