     Program PWSCF v.6.4 starts on  3Dec2021 at 22:44:53

     R & G space division:  proc/nbgrp/npool/nimage =      40
     Waiting for input...
     Reading input from standard input
Warning: card    &IONS ignored
Warning: card      ION_DYNAMICS = 'BFGS' ignored
Warning: card   / ignored
Warning: card    &CELL ignored
Warning: card      CELL_DYNAMICS = 'BFGS', ignored
Warning: card    / ignored

     Current dimensions of program PWSCF are:
     Max number of different atomic species (ntypx) = 10
     Max number of k-points (npk) =  40000
     Max angular momentum in pseudopotentials (lmaxx) =  3

     bravais-lattice index     =            0
     lattice parameter (alat)  =      11.7552  a.u.
     unit-cell volume          =   26664.5498 (a.u.)^3
     number of atoms/cell      =           36
     number of atomic types    =            2
     number of electrons       =       216.00
     number of Kohn-Sham states=          130
     kinetic-energy cutoff     =      45.0000  Ry
     charge density cutoff     =     360.0000  Ry
     convergence threshold     =      1.0E-06
     mixing beta               =       0.7000
     number of iterations used =            8  local-TF  mixing
     Exchange-correlation      = SLA PW GGX GGC ( 1  4  2  2 0 0)

     celldm(1)=  11.755204  celldm(2)=   0.000000  celldm(3)=   0.000000
     celldm(4)=   0.000000  celldm(5)=   0.000000  celldm(6)=   0.000000

     crystal axes: (cart. coord. in units of alat)
               a(1) = (   1.000000   0.000000   0.000000 )
               a(2) = (   0.246053   1.842292   0.000000 )
               a(3) = (   0.414490  -0.068961   8.910157 )

     reciprocal axes: (cart. coord. in units 2 pi/alat)
               b(1) = (  1.000000 -0.133558 -0.047553 )
               b(2) = (  0.000000  0.542802  0.004201 )
               b(3) = (  0.000000  0.000000  0.112231 )

     PseudoPot. # 1 for Mo read from file:
     ~/pseudo/Mo.pw91-n-van.UPF
     MD5 check sum: Not computed, couldn't open file
     Pseudo is Ultrasoft + core correction, Zval =  6.0
     Generated by new atomic code, or converted to UPF format
     Using radial grid of  965 points,  3 beta functions with:
                l(1) =   1
                l(2) =   2
                l(3) =   2
     Q(r) pseudized with  8 coefficients,  rinner =    1.000   1.000   1.000
                                                       1.200   1.200

     PseudoPot. # 2 for S  read from file:
     ~/pseudo/S.pw91-van_ak.UPF
     MD5 check sum: Not computed, couldn't open file
     Pseudo is Ultrasoft, Zval =  6.0
     Generated by new atomic code, or converted to UPF format
     Using radial grid of  811 points,  6 beta functions with:
                l(1) =   0
                l(2) =   0
                l(3) =   1
                l(4) =   1
                l(5) =   2
                l(6) =   2
     Q(r) pseudized with  8 coefficients,  rinner =    1.100   1.100   1.100
                                                       1.100   1.100

     atomic species   valence    mass     pseudopotential
        Mo             6.00    95.50000     Mo( 1.00)
        S              6.00    32.06500     S ( 1.00)

     No symmetry found

   Cartesian axes

     site n.     atom                  positions (alat units)
         1           Mo  tau(   1) = (   0.5867236   0.2277470   6.6274076  )
         2           Mo  tau(   2) = (   1.3362694   0.6613806   6.6792756  )
         3           Mo  tau(   3) = (   1.0868698   0.2275305   6.6275241  )
         4           Mo  tau(   4) = (   0.8361948   0.6614680   6.6780620  )
         5           Mo  tau(   5) = (   1.3368470   1.1819631   6.5000654  )
         6           Mo  tau(   6) = (   0.8367141   1.1818289   6.5003750  )
         7           Mo  tau(   7) = (   1.0852586   1.6131333   6.5584330  )
         8           Mo  tau(   8) = (   0.5852308   1.6132862   6.5583570  )
         9           Mo  tau(   9) = (   1.3354328   1.5485529   8.0753292  )
        10           Mo  tau(  10) = (   0.8358225   1.5451618   8.0803179  )
        11           Mo  tau(  11) = (   0.8001056   1.8527105   1.4157085  )
        12           Mo  tau(  12) = (   1.0530126   0.0087669   1.4150482  )
        13           S   tau(  13) = (   1.3362354   0.3403082   6.9027861  )
        14           S   tau(  14) = (   0.8347606   1.7343420   6.8317112  )
        15           S   tau(  15) = (   0.8364504   0.3405465   6.9020989  )
        16           S   tau(  16) = (   1.3347015   1.7341031   6.8316277  )
        17           S   tau(  17) = (   0.8042111   0.2214845   1.5838563  )
        18           S   tau(  18) = (   0.3031723   0.1716924   1.1999123  )
        19           S   tau(  19) = (   1.3366150   0.4078950   6.3880710  )
        20           S   tau(  20) = (   0.5895081  -0.0351880   6.3323486  )
        21           S   tau(  21) = (   0.8364715   0.4073328   6.3868603  )
        22           S   tau(  22) = (   1.0892821  -0.0350819   6.3325975  )
        23           S   tau(  23) = (   1.0490035   1.6427305   1.2429535  )
        24           S   tau(  24) = (   0.5502131   1.6910090   1.6322145  )
        25           S   tau(  25) = (   1.0862383   0.7887425   6.9380722  )
        26           S   tau(  26) = (   0.5871155   0.7894365   6.9377728  )
        27           S   tau(  27) = (   1.0864719   0.8686241   6.4376589  )
        28           S   tau(  28) = (   0.5860636   0.8688973   6.4378182  )
        29           S   tau(  29) = (   1.0866071   1.3574335   6.2538540  )
        30           S   tau(  30) = (   0.5868934   1.3580943   6.2540041  )
        31           S   tau(  31) = (   0.5896819   1.7724536   7.9294541  )
        32           S   tau(  32) = (   1.0879201   1.6982588   8.3020457  )
        33           S   tau(  33) = (   1.0867766   1.2812971   6.7755399  )
        34           S   tau(  34) = (   0.5866203   1.2816198   6.7758180  )
        35           S   tau(  35) = (   1.5813492   1.3218244   8.2274847  )
        36           S   tau(  36) = (   1.0831306   1.3958594   7.8535403  )

     number of k points=     4  Marzari-Vanderbilt smearing, width (Ry)=  0.0200
                       cart. coord. in units 2pi/alat
        k(    1) = (   0.0000000   0.0000000   0.0000000), wk =   0.3333333
        k(    2) = (   0.0000000  -0.2714011  -0.0021005), wk =   0.3333333
        k(    3) = (   0.3333333  -0.0445195  -0.0158508), wk =   0.6666667
        k(    4) = (   0.3333333  -0.3159206  -0.0179514), wk =   0.6666667

     Initial potential from superposition of free atoms

     starting charge  215.98107, renormalised to  216.00000

     negative rho (up, down):  3.687E-03 0.000E+00
     Starting wfcs are  204 randomized atomic wfcs

     Self-consistent Calculation

     iteration #  1     ecut=    45.00 Ry     beta= 0.70
     Davidson diagonalization with overlap
     ethr =  1.00E-02,  avg # of iterations =  2.5

     negative rho (up, down):  1.077E-03 0.000E+00

     total energy              =    -843.42368794 Ry
     Harris-Foulkes estimate   =    -846.10634437 Ry
     estimated scf accuracy    <       7.05689290 Ry

[...]

     iteration #  5     ecut=    45.00 Ry     beta= 0.70
     Davidson diagonalization with overlap
     c_bands:  1 eigenvalues not converged
     ethr =  3.29E-05,  avg # of iterations = 16.0

[...]

     total energy              =    -844.76411762 Ry
     Harris-Foulkes estimate   =    -844.76411716 Ry
     estimated scf accuracy    <       0.00000112 Ry

     iteration # 25     ecut=    45.00 Ry     beta= 0.70
     Davidson diagonalization with overlap
     ethr =  5.20E-10,  avg # of iterations =  1.0

[...]

     End of self-consistent calculation

          k = 0.0000 0.0000 0.0000 (135991 PWs)   bands (ev):

   -17.7819 -17.1169 -17.0382 -16.5756 -16.3360 -16.2101 -16.1128 -16.1119
   -16.1089 -16.0137 -15.9540 -15.9477 -15.8825 -15.7799 -15.7198 -15.6281
   -15.5151 -15.5064 -15.5014 -15.4941 -15.4360 -15.4004 -15.4000 -14.7738
    -9.6632  -9.5531  -9.2473  -9.0902  -9.0839  -8.8426  -8.8000  -8.7572
    -8.5887  -8.5669  -8.3727  -8.1488  -8.1429  -8.1413  -8.0950  -7.9963
    -7.8191  -7.8142  -7.7640  -7.5765  -7.5691  -7.5140  -7.1447  -7.0690
    -7.0229  -7.0227  -7.0148  -7.0099  -6.9773  -6.9763  -6.9655  -6.9097
    -6.7427  -6.7403  -6.5948  -6.5362  -6.5322  -6.5210  -6.5108  -6.4969
    -6.4907  -6.4862  -6.3671  -6.3332  -6.3235  -6.1358  -5.9570  -5.9147
    -5.9004  -5.8235  -5.8215  -5.7307  -5.7250  -5.7091  -5.6103  -5.4153
    -5.3952  -5.3645  -5.3085  -5.2198  -5.0507  -5.0454  -5.0334  -5.0253
    -5.0167  -4.9048  -4.8961  -4.5745  -4.5632  -4.5535  -4.4932  -4.4785
    -4.4651  -4.4539  -4.3077  -4.1614  -3.9632  -3.6840  -3.6281  -3.4171
    -3.4091  -3.4082  -3.4073  -3.4070  -3.1658  -3.1635  -2.7982  -2.7449
    -2.3314  -2.1602  -1.7492  -1.7208  -1.7082  -1.6862  -1.6481  -1.6371
    -1.4767  -1.4492  -1.3714  -1.3224  -1.2817  -1.2770  -1.2759  -1.1990
    -1.1089  -1.0012

[...]

          k = 0.3333-0.3159-0.0180 (135871 PWs)   bands (ev):

   -17.3535 -17.2265 -16.6445 -16.5010 -16.4308 -16.4021 -16.2413 -16.1853
   -16.1097 -16.0388 -15.9284 -15.9283 -15.9276 -15.8841 -15.8469 -15.6624
   -15.5719 -15.5717 -15.5042 -15.4988 -15.4961 -15.4915 -15.2847 -14.9455
    -9.1120  -9.0087  -8.9286  -8.7984  -8.7721  -8.7149  -8.7093  -8.6300
    -8.4848  -8.3017  -8.2567  -8.1140  -7.9672  -7.7089  -7.6700  -7.6693
    -7.6609  -7.5240  -7.4889  -7.4353  -7.3981  -7.3798  -7.0891  -7.0500
    -7.0221  -7.0195  -6.9298  -6.9216  -6.9147  -6.9080  -6.9054  -6.8652
    -6.8626  -6.8548  -6.8534  -6.7934  -6.7561  -6.7293  -6.6705  -6.6217
    -6.4744  -6.4728  -6.4006  -6.3771  -6.3625  -6.3608  -6.3435  -6.3071
    -6.1952  -6.1916  -6.1124  -6.0201  -5.8749  -5.8545  -5.7964  -5.7225
    -5.6687  -5.5673  -5.5519  -5.5395  -5.5316  -5.5261  -5.3455  -5.3438
    -5.3266  -5.2354  -5.2185  -5.0779  -5.0545  -4.8808  -4.7035  -4.5436
    -4.4425  -4.4269  -4.1980  -4.0957  -3.9705  -3.8805  -3.3727  -3.2943
    -3.2922  -3.1789  -3.1614  -3.1599  -2.8673  -2.7363  -2.3924  -2.3914
    -2.2846  -2.1788  -1.8436  -1.7994  -1.6992  -1.6560  -1.6217  -1.4756
    -1.4334  -1.4129  -1.4031  -1.3890  -1.3882  -1.3782  -1.3578  -1.3535
    -1.2789  -1.2730

     the Fermi energy is    -3.0714 ev

!    total energy              =    -844.76411641 Ry
     Harris-Foulkes estimate   =    -844.76411767 Ry
     estimated scf accuracy    <       0.00000038 Ry

     The total energy is the sum of the following terms:

     one-electron contribution =  -14224.30317428 Ry
     hartree contribution      =    7156.98078504 Ry
     xc contribution           =    -333.45217139 Ry
     ewald contribution        =    6556.00753523 Ry
     smearing contrib. (-TS)   =       0.00290899 Ry

     convergence has been achieved in  25 iterations

     negative rho (up, down):  5.284E-03 0.000E+00

     Forces acting on atoms (cartesian axes, Ry/au):

     atom    1 type  1   force =     0.00102614   -0.02670723   -0.02189655
     atom    2 type  1   force =     0.00121428    0.04813394    0.02525646
     atom    3 type  1   force =    -0.00055416   -0.02550578   -0.02276654
     atom    4 type  1   force =     0.00169390    0.04702472    0.02590371
     atom    5 type  1   force =     0.00001678   -0.02575851   -0.00955244
     atom    6 type  1   force =    -0.00054661   -0.02584146   -0.01036952
     atom    7 type  1   force =    -0.00044482    0.02816195    0.00148616
     atom    8 type  1   force =     0.00042888    0.02829380    0.00223511
     atom    9 type  1   force =     0.00033958   -0.00149336   -0.00076101
     atom   10 type  1   force =    -0.00002870    0.00241905    0.00182334
     atom   11 type  1   force =     0.00075672   -0.00009998   -0.00179149
     atom   12 type  1   force =     0.00087354    0.00182039    0.00119175
     atom   13 type  2   force =     0.00085746    0.00555394   -0.00201112
     atom   14 type  2   force =     0.00009243   -0.00553066    0.00638172
     atom   15 type  2   force =    -0.00006778    0.00587435   -0.00131509
     atom   16 type  2   force =     0.00023804   -0.00524438    0.00704596
     atom   17 type  2   force =     0.00084875    0.02384626    0.01643056
     atom   18 type  2   force =    -0.00005414    0.02033833   -0.02243816
     atom   19 type  2   force =    -0.00034289   -0.01029661   -0.00637281
     atom   20 type  2   force =    -0.00205145   -0.00359592   -0.00335264
     atom   21 type  2   force =     0.00036178   -0.01034156   -0.00384737
     atom   22 type  2   force =    -0.00147777   -0.00395460   -0.00438988
     atom   23 type  2   force =    -0.00085180   -0.02488535   -0.01381951
     atom   24 type  2   force =    -0.00073861   -0.02086547    0.02126796
     atom   25 type  2   force =    -0.00013298   -0.00232255    0.00984514
     atom   26 type  2   force =    -0.00123084   -0.00294940    0.01030517
     atom   27 type  2   force =    -0.00017104   -0.01514921   -0.01985666
     atom   28 type  2   force =     0.00038134   -0.01550331   -0.02036933
     atom   29 type  2   force =    -0.00012488    0.00218910    0.00913530
     atom   30 type  2   force =    -0.00050601    0.00106106    0.00882454
     atom   31 type  2   force =    -0.00210414    0.02423377   -0.01743562
     atom   32 type  2   force =    -0.00244496    0.01493201    0.02371151
     atom   33 type  2   force =    -0.00037895    0.00577916    0.01062987
     atom   34 type  2   force =    -0.00038251    0.00550553    0.00982298
     atom   35 type  2   force =     0.00259091   -0.02346651    0.01611724
     atom   36 type  2   force =     0.00291448   -0.01565551   -0.02506872

     Total force =     0.143849     Total SCF correction =     0.000855

     General routines

     Parallel routines

   This run was terminated on:  23: 3:35   3Dec2021

   JOB DONE.