     Program PWSCF v.6.4 starts on  6Oct2021 at 12:22: 0

     R & G space division:  proc/nbgrp/npool/nimage =      40
     Waiting for input...
     Reading input from standard input
Warning: card    &IONS ignored
Warning: card      ION_DYNAMICS = 'BFGS' ignored
Warning: card   / ignored
Warning: card    &CELL ignored
Warning: card      CELL_DYNAMICS = 'BFGS', ignored
Warning: card    / ignored

     Current dimensions of program PWSCF are:
     Max number of different atomic species (ntypx) = 10
     Max number of k-points (npk) =  40000
     Max angular momentum in pseudopotentials (lmaxx) =  3

     bravais-lattice index     =            0
     lattice parameter (alat)  =      12.1688  a.u.
     unit-cell volume          =    6043.0395 (a.u.)^3
     number of atoms/cell      =           36
     number of atomic types    =            2
     number of electrons       =       216.00
     number of Kohn-Sham states=          130
     kinetic-energy cutoff     =      45.0000  Ry
     charge density cutoff     =     360.0000  Ry
     convergence threshold     =      1.0E-06
     mixing beta               =       0.7000
     number of iterations used =            8  local-TF  mixing
     Exchange-correlation      = SLA PW GGX GGC ( 1  4  2  2 0 0)

     celldm(1)=  12.168791  celldm(2)=   0.000000  celldm(3)=   0.000000
     celldm(4)=   0.000000  celldm(5)=   0.000000  celldm(6)=   0.000000

     crystal axes: (cart. coord. in units of alat)
               a(1) = (   1.000000   0.000000   0.000000 )
               a(2) = (   0.499067   0.862953   0.000000 )
               a(3) = (   0.353083  -0.126918   3.886209 )

     reciprocal axes: (cart. coord. in units 2 pi/alat)
               b(1) = (  1.000000 -0.578325 -0.109743 )
               b(2) = (  0.000000  1.158812  0.037845 )
               b(3) = (  0.000000  0.000000  0.257320 )

     PseudoPot. # 1 for Mo read from file:
     ~/pseudo/Mo.pw91-n-van.UPF
     MD5 check sum: Not computed, couldn't open file
     Pseudo is Ultrasoft + core correction, Zval =  6.0
     Generated by new atomic code, or converted to UPF format
     Using radial grid of  965 points,  3 beta functions with:
                l(1) =   1
                l(2) =   2
                l(3) =   2
     Q(r) pseudized with  8 coefficients,  rinner =    1.000   1.000   1.000
                                                       1.200   1.200

     PseudoPot. # 2 for S  read from file:
     ~/pseudo/S.pw91-van_ak.UPF
     MD5 check sum: Not computed, couldn't open file
     Pseudo is Ultrasoft, Zval =  6.0
     Generated by new atomic code, or converted to UPF format
     Using radial grid of  811 points,  6 beta functions with:
                l(1) =   0
                l(2) =   0
                l(3) =   1
                l(4) =   1
                l(5) =   2
                l(6) =   2
     Q(r) pseudized with  8 coefficients,  rinner =    1.100   1.100   1.100
                                                       1.100   1.100

     atomic species   valence    mass     pseudopotential
        Mo             6.00    95.50000     Mo( 1.00)
        S              6.00    32.06500     S ( 1.00)

     No symmetry found

   Cartesian axes

     site n.     atom                  positions (alat units)
         1           Mo  tau(   1) = (   0.8591477   0.6158875   1.1856259  )
         2           Mo  tau(   2) = (   1.3597419   0.6166589   1.1857741  )
         3           Mo  tau(   3) = (   0.6098633   0.1844930   1.1844006  )
         4           Mo  tau(   4) = (   1.1116405   0.1837943   1.1860785  )
         5           Mo  tau(   5) = (   1.3644319   0.7531435   2.6788203  )
         6           Mo  tau(   6) = (   0.8652630   0.7521372   2.6814402  )
         7           Mo  tau(   7) = (   1.1161245   0.3232499   2.6822780  )
         8           Mo  tau(   8) = (   0.6157557   0.3208055   2.6807896  )
         9           Mo  tau(   9) = (   0.8727986   0.6618712   0.0182706  )
        10           Mo  tau(  10) = (   1.3747724   0.6653147   0.0189335  )
        11           Mo  tau(  11) = (   0.6224664   0.2297014   0.0171036  )
        12           Mo  tau(  12) = (   1.1235281   0.2321273   0.0173746  )
        13           S   tau(  13) = (   0.1262392  -0.0554161   0.2648660  )
        14           S   tau(  14) = (   0.6237668  -0.0583417   0.2642437  )
        15           S   tau(  15) = (   0.3736885   0.3759101   0.2618262  )
        16           S   tau(  16) = (   0.8718843   0.3724118   0.2617927  )
        17           S   tau(  17) = (   0.8609432   0.3284574   0.9408151  )
        18           S   tau(  18) = (   0.3595940   0.3300190   0.9398886  )
        19           S   tau(  19) = (   1.1088354   0.7604130   0.9395972  )
        20           S   tau(  20) = (   0.6091048   0.7603332   0.9405866  )
        21           S   tau(  21) = (   0.8606663   0.3259682   1.4292155  )
        22           S   tau(  22) = (   0.3614770   0.3282457   1.4309277  )
        23           S   tau(  23) = (   1.1092741   0.7589032   1.4300867  )
        24           S   tau(  24) = (   0.6095948   0.7582088   1.4327983  )
        25           S   tau(  25) = (   1.1165229   0.0357505   2.4371720  )
        26           S   tau(  26) = (   0.6154578   0.0329696   2.4334328  )
        27           S   tau(  27) = (   1.3667095   0.4648770   2.4343502  )
        28           S   tau(  28) = (   0.8663071   0.4644463   2.4369889  )
        29           S   tau(  29) = (   1.1146115   0.0340257   2.9245939  )
        30           S   tau(  30) = (   0.6156335   0.0329150   2.9249617  )
        31           S   tau(  31) = (   1.3659114   0.4665519   2.9256160  )
        32           S   tau(  32) = (   0.8644078   0.4642194   2.9286472  )
        33           S   tau(  33) = (   0.9775357   0.6815992   3.6586479  )
        34           S   tau(  34) = (   1.4753299   0.6781074   3.6591098  )
        35           S   tau(  35) = (   0.7265719   0.2513022   3.6599908  )
        36           S   tau(  36) = (   1.2247722   0.2478096   3.6579499  )

     number of k points=     5  Marzari-Vanderbilt smearing, width (Ry)=  0.0200
                       cart. coord. in units 2pi/alat
        k(    1) = (   0.0000000   0.0000000   0.0000000), wk =   0.2222222
        k(    2) = (   0.0000000   0.3862707   0.0126150), wk =   0.4444444
        k(    3) = (   0.3333333  -0.1927751  -0.0365808), wk =   0.4444444
        k(    4) = (   0.3333333   0.1934955  -0.0239658), wk =   0.4444444
        k(    5) = (   0.3333333  -0.5790458  -0.0491958), wk =   0.4444444

     Initial potential from superposition of free atoms

     starting charge  215.98107, renormalised to  216.00000
     Starting wfcs are  204 randomized atomic wfcs

     Self-consistent Calculation

     iteration #  1     ecut=    45.00 Ry     beta= 0.70
     Davidson diagonalization with overlap
     ethr =  1.00E-02,  avg # of iterations =  2.0

     total energy              =    -844.24875329 Ry
     Harris-Foulkes estimate   =    -846.85483135 Ry
     estimated scf accuracy    <       6.65425700 Ry

[...]

     total energy              =    -845.54121552 Ry
     Harris-Foulkes estimate   =    -845.54121576 Ry
     estimated scf accuracy    <       0.00000121 Ry

     iteration # 16     ecut=    45.00 Ry     beta= 0.70
     Davidson diagonalization with overlap
     ethr =  4.79E-10,  avg # of iterations =  2.2

     End of self-consistent calculation

          k = 0.0000 0.0000 0.0000 ( 30747 PWs)   bands (ev):

    -9.8019  -9.7900  -9.7838  -8.6086  -8.5917  -8.5861  -8.0728  -8.0605
    -8.0560  -8.0531  -8.0477  -8.0463  -8.0379  -8.0365  -8.0306  -7.8020
    -7.7948  -7.7903  -7.7863  -7.7839  -7.7830  -7.7782  -7.7726  -7.7651
    -1.4390  -1.4312  -1.4288  -1.4234  -1.4196  -1.4173  -1.4124  -1.4122
    -1.4081  -1.3181  -1.2627  -1.2292  -0.4970  -0.4925  -0.4902  -0.4759
    -0.4745  -0.4708  -0.4691  -0.4677  -0.4637   0.1737   0.1844   0.1901
     0.2080   0.2210   0.2215   0.2270   0.2322   0.2383   1.0743   1.0820
     1.0895   1.1045   1.1131   1.1182   1.1201   1.1252   1.1330   1.5968
     1.6048   1.6117   1.6352   1.6422   1.6495   2.2781   2.3070   2.3121
     2.3490   2.3568   2.3596   2.3846   2.3923   2.4144   2.4192   2.5110
     2.6834   2.7226   2.7300   2.7379   2.7463   2.7545   2.7621   3.2396
     3.2474   3.2533   3.2593   3.2759   3.2798   3.2887   3.2945   3.3054
     3.5150   3.5282   3.5414   3.5540   3.5624   3.5721   3.5790   3.5826
     3.5924   4.0683   4.1995   4.2841   6.2120   6.2206   6.2245   6.2252
     6.2303   6.2311   6.2375   6.2416   6.2448   6.7308   6.7357   6.7415
     6.7524   6.7590   6.7603   6.7634   6.7662   6.7670   6.9005   6.9089
     6.9178   6.9192

[...]

          k = 0.3333-0.5790-0.0492 ( 30867 PWs)   bands (ev):

    -8.8268  -8.8222  -8.8152  -8.8131  -8.8093  -8.8077  -8.7995  -8.7974
    -8.7940  -8.1405  -8.1382  -8.1303  -8.1278  -8.1231  -8.1209  -8.1175
    -8.1159  -8.1097  -7.8158  -7.8061  -7.7990  -7.6298  -7.6203  -7.6133
    -1.0514  -1.0418  -1.0348  -0.6245  -0.6193  -0.6158  -0.5929  -0.5855
    -0.5828  -0.5762  -0.5704  -0.5685  -0.2666  -0.2535  -0.2472   0.2282
     0.2420   0.2478   0.4034   0.4147   0.4240   0.4323   0.4421   0.4473
     0.4571   0.4639   0.4687   0.6393   0.6437   0.6503   0.6547   0.6611
     0.6660   0.6717   0.6763   0.6782   0.6825   0.6882   0.7030   1.0625
     1.0793   1.0800   1.0997   1.1056   1.1150   1.1260   1.1325   1.1379
     1.3461   1.3651   1.3667   2.0166   2.0712   2.1015   2.2585   2.2654
     2.2711   2.2715   2.2824   2.2869   2.2896   2.2938   2.3063   3.0804
     3.0897   3.1047   3.1410   3.1503   3.1691   3.1881   3.1992   3.2090
     3.3871   3.3992   3.4020   3.4073   3.4096   3.4165   3.4205   3.4255
     3.4287   4.1499   4.1607   4.1670   5.7872   5.7959   5.8032   5.9711
     5.9805   5.9852   6.0474   6.0526   6.0690   6.0955   6.1135   6.1170
     6.4899   6.4996   6.5098   6.5212   6.5351   6.5464   6.5538   6.5628
     6.5749   6.7143

     the Fermi energy is     4.2803 ev

!    total energy              =    -845.54121543 Ry
     Harris-Foulkes estimate   =    -845.54121560 Ry
     estimated scf accuracy    <       0.00000018 Ry

     The total energy is the sum of the following terms:

     one-electron contribution =    -703.52605498 Ry
     hartree contribution      =     458.27825207 Ry
     xc contribution           =    -334.16083925 Ry
     ewald contribution        =    -266.15570767 Ry
     smearing contrib. (-TS)   =       0.02313440 Ry

     convergence has been achieved in  16 iterations

     Forces acting on atoms (cartesian axes, Ry/au):

     atom    1 type  1   force =     0.00145275   -0.00122235    0.00040188
     atom    2 type  1   force =    -0.00086264   -0.00123188   -0.00034250
     atom    3 type  1   force =     0.00153168    0.00039195    0.00254949
     atom    4 type  1   force =    -0.00343035    0.00212751   -0.00037612
     atom    5 type  1   force =     0.00218866    0.00054381    0.00360035
     atom    6 type  1   force =    -0.00195484    0.00226211   -0.00107766
     atom    7 type  1   force =    -0.00094908   -0.00433039   -0.00269641
     atom    8 type  1   force =    -0.00066790    0.00081311   -0.00032898
     atom    9 type  1   force =     0.00055079    0.00091535   -0.00102967
     atom   10 type  1   force =    -0.00325417   -0.00530632   -0.00249932
     atom   11 type  1   force =     0.00034243    0.00359252    0.00124555
     atom   12 type  1   force =     0.00076015    0.00088176    0.00032747
     atom   13 type  2   force =    -0.00203941    0.00127539   -0.00330061
     atom   14 type  2   force =    -0.00035123    0.00349309   -0.00211519
     atom   15 type  2   force =     0.00041912   -0.00019406    0.00316205
     atom   16 type  2   force =     0.00115578    0.00271986    0.00294421
     atom   17 type  2   force =     0.00029644   -0.00176485   -0.00201855
     atom   18 type  2   force =     0.00103099   -0.00298165    0.00034420
     atom   19 type  2   force =     0.00047808   -0.00263072    0.00077409
     atom   20 type  2   force =     0.00155697   -0.00169306   -0.00079336
     atom   21 type  2   force =    -0.00106294    0.00366222    0.00432249
     atom   22 type  2   force =    -0.00137295    0.00006388    0.00023813
     atom   23 type  2   force =    -0.00069389    0.00277701    0.00182059
     atom   24 type  2   force =     0.00089359    0.00271518   -0.00363100
     atom   25 type  2   force =     0.00073994   -0.00218115   -0.00451205
     atom   26 type  2   force =    -0.00212327    0.00100279    0.00346998
     atom   27 type  2   force =    -0.00215064   -0.00045506    0.00195811
     atom   28 type  2   force =    -0.00140022    0.00114656   -0.00308548
     atom   29 type  2   force =     0.00182021   -0.00101287    0.00422327
     atom   30 type  2   force =     0.00113042   -0.00004739    0.00285365
     atom   31 type  2   force =     0.00159842   -0.00034017    0.00190692
     atom   32 type  2   force =     0.00129159    0.00188899   -0.00414745
     atom   33 type  2   force =    -0.00108152   -0.00270362    0.00001159
     atom   34 type  2   force =     0.00205594    0.00040783   -0.00129765
     atom   35 type  2   force =     0.00008928   -0.00330325   -0.00378843
     atom   36 type  2   force =     0.00201183   -0.00128216    0.00088640

     Total force =     0.021968     Total SCF correction =     0.001106

     General routines

     Parallel routines

   This run was terminated on:  12:23:56   6Oct2021

   JOB DONE.