     Program PWSCF v.6.4 starts on 24Dec2021 at  1: 8: 1

     R & G space division:  proc/nbgrp/npool/nimage =      40
     Waiting for input...
     Reading input from standard input
Warning: card    &IONS ignored
Warning: card      ION_DYNAMICS = 'BFGS' ignored
Warning: card   / ignored
Warning: card    &CELL ignored
Warning: card      CELL_DYNAMICS = 'BFGS', ignored
Warning: card    / ignored

     Current dimensions of program PWSCF are:
     Max number of different atomic species (ntypx) = 10
     Max number of k-points (npk) =  40000
     Max angular momentum in pseudopotentials (lmaxx) =  3

     bravais-lattice index     =            0
     lattice parameter (alat)  =      12.0659  a.u.
     unit-cell volume          =   21252.3268 (a.u.)^3
     number of atoms/cell      =           21
     number of atomic types    =            2
     number of electrons       =       126.00
     number of Kohn-Sham states=           76
     kinetic-energy cutoff     =      45.0000  Ry
     charge density cutoff     =     360.0000  Ry
     convergence threshold     =      1.0E-06
     mixing beta               =       0.7000
     number of iterations used =            8  local-TF  mixing
     Exchange-correlation      = SLA PW GGX GGC ( 1  4  2  2 0 0)

     celldm(1)=  12.065871  celldm(2)=   0.000000  celldm(3)=   0.000000
     celldm(4)=   0.000000  celldm(5)=   0.000000  celldm(6)=   0.000000

     crystal axes: (cart. coord. in units of alat)
               a(1) = (   1.000000   0.000000   0.000000 )
               a(2) = (   0.153279   1.818687   0.000000 )
               a(3) = (   0.429684   0.089407   6.652311 )

     reciprocal axes: (cart. coord. in units 2 pi/alat)
               b(1) = (  1.000000 -0.084280 -0.063459 )
               b(2) = (  0.000000  0.549847 -0.007390 )
               b(3) = (  0.000000  0.000000  0.150324 )

     PseudoPot. # 1 for Mo read from file:
     ~/pseudo/Mo.pw91-n-van.UPF
     MD5 check sum: Not computed, couldn't open file
     Pseudo is Ultrasoft + core correction, Zval =  6.0
     Generated by new atomic code, or converted to UPF format
     Using radial grid of  965 points,  3 beta functions with:
                l(1) =   1
                l(2) =   2
                l(3) =   2
     Q(r) pseudized with  8 coefficients,  rinner =    1.000   1.000   1.000
                                                       1.200   1.200

     PseudoPot. # 2 for S  read from file:
     ~/pseudo/S.pw91-van_ak.UPF
     MD5 check sum: Not computed, couldn't open file
     Pseudo is Ultrasoft, Zval =  6.0
     Generated by new atomic code, or converted to UPF format
     Using radial grid of  811 points,  6 beta functions with:
                l(1) =   0
                l(2) =   0
                l(3) =   1
                l(4) =   1
                l(5) =   2
                l(6) =   2
     Q(r) pseudized with  8 coefficients,  rinner =    1.100   1.100   1.100
                                                       1.100   1.100

     atomic species   valence    mass     pseudopotential
        Mo             6.00    95.50000     Mo( 1.00)
        S              6.00    32.06500     S ( 1.00)

     No symmetry found

   Cartesian axes

     site n.     atom                  positions (alat units)
         1           Mo  tau(   1) = (   0.6649979   1.7091246   4.1283855  )
         2           Mo  tau(   2) = (   0.3984133   1.3004025   4.0069225  )
         3           Mo  tau(   3) = (   1.2745154   0.2911952   4.2115832  )
         4           Mo  tau(   4) = (   0.7484329   0.2931980   4.2125931  )
         5           Mo  tau(   5) = (   1.1664524   1.7124971   4.1246586  )
         6           Mo  tau(   6) = (   0.9153287   1.2631399   4.0335529  )
         7           Mo  tau(   7) = (   0.5735183   0.9153095   4.0508048  )
         8           S   tau(   8) = (   0.5093201   0.5922964   4.2698660  )
         9           S   tau(   9) = (   0.7995400   1.0150239   4.3116648  )
        10           S   tau(  10) = (   0.5113394   0.1136709   4.4498139  )
        11           S   tau(  11) = (   1.2289873   1.0126608   4.1786940  )
        12           S   tau(  12) = (   0.4178256   1.4959751   4.3318334  )
        13           S   tau(  13) = (   0.9198029   1.4989153   4.3339977  )
        14           S   tau(  14) = (   0.6558269   1.1601730   3.7782745  )
        15           S   tau(  15) = (   1.0109160   0.2449681   3.9402135  )
        16           S   tau(  16) = (   0.6535577   0.6777864   3.7762925  )
        17           S   tau(  17) = (   1.1506074   1.1892745   3.7432008  )
        18           S   tau(  18) = (   0.5112321   0.2294179   3.9207491  )
        19           S   tau(  19) = (   0.4153204   1.6361989   3.8367389  )
        20           S   tau(  20) = (   1.0109464   0.1350653   4.4368973  )
        21           S   tau(  21) = (   0.9106655   1.6128228   3.8503072  )

     number of k points=     4  Marzari-Vanderbilt smearing, width (Ry)=  0.0200
                       cart. coord. in units 2pi/alat
        k(    1) = (   0.0000000   0.0000000   0.0000000), wk =   0.3333333
        k(    2) = (   0.0000000  -0.2749236   0.0036950), wk =   0.3333333
        k(    3) = (   0.3333333  -0.0280933  -0.0211530), wk =   0.6666667
        k(    4) = (   0.3333333  -0.3030169  -0.0174580), wk =   0.6666667

     Initial potential from superposition of free atoms

     starting charge  125.98896, renormalised to  126.00000

     negative rho (up, down):  3.575E-03 0.000E+00
     Starting wfcs are  119 randomized atomic wfcs

     Self-consistent Calculation

     iteration #  1     ecut=    45.00 Ry     beta= 0.70
     Davidson diagonalization with overlap
     ethr =  1.00E-02,  avg # of iterations =  2.0

     negative rho (up, down):  3.386E-03 0.000E+00

     total energy              =    -491.59357340 Ry
     Harris-Foulkes estimate   =    -493.54385767 Ry
     estimated scf accuracy    <       5.53914958 Ry

[...]

     total energy              =    -492.61211404 Ry
     Harris-Foulkes estimate   =    -492.61211044 Ry
     estimated scf accuracy    <       0.00000225 Ry

     iteration # 24     ecut=    45.00 Ry     beta= 0.70
     Davidson diagonalization with overlap
     ethr =  1.78E-09,  avg # of iterations =  1.0

[...]

     End of self-consistent calculation

          k = 0.0000 0.0000 0.0000 (108311 PWs)   bands (ev):

   -17.9775 -17.3374 -17.0495 -16.9679 -16.7234 -16.6008 -16.5409 -16.5121
   -16.4995 -16.3316 -16.2067 -15.9359 -15.5568 -15.1275  -9.7675  -9.6396
    -9.4485  -9.4233  -9.0424  -8.9890  -8.9002  -8.8022  -8.5974  -8.5870
    -8.4668  -8.4020  -8.1596  -8.0906  -7.9918  -7.8233  -7.7907  -7.6075
    -7.4385  -7.3333  -7.2818  -7.2074  -7.0753  -6.9943  -6.8606  -6.7296
    -6.6856  -6.5854  -6.5544  -6.3343  -6.3134  -6.2270  -6.0707  -5.9887
    -5.9302  -5.8715  -5.6726  -5.5076  -5.3078  -5.2859  -5.1454  -5.0249
    -4.9744  -4.6674  -4.5571  -4.4366  -4.4101  -4.1412  -4.0200  -3.7217
    -3.6418  -3.4261  -3.2547  -2.8761  -2.6933  -2.6533  -2.3970  -2.3301
    -2.1348  -2.0323  -1.9832  -1.8725

[...]

          k = 0.3333-0.3030-0.0175 (108308 PWs)   bands (ev):

   -17.6951 -17.2521 -17.0578 -16.9462 -16.8126 -16.6713 -16.6360 -16.5807
   -16.4973 -16.3882 -16.3000 -15.9917 -15.6081 -15.1245  -9.4434  -9.2342
    -9.1609  -9.0996  -9.0196  -8.8668  -8.7432  -8.6405  -8.5207  -8.4398
    -8.3821  -8.3125  -8.2287  -8.0970  -7.9280  -7.7979  -7.7273  -7.5934
    -7.5071  -7.4423  -7.3815  -7.3263  -7.2398  -7.1384  -7.0759  -6.9036
    -6.7697  -6.7069  -6.6431  -6.5711  -6.4145  -6.3373  -6.2293  -6.1005
    -5.9873  -5.8173  -5.7783  -5.6206  -5.5349  -5.3201  -5.2256  -5.0504
    -4.8689  -4.7793  -4.7075  -4.4747  -4.2719  -4.1839  -3.9720  -3.8195
    -3.5554  -3.3828  -3.3218  -2.9191  -2.7359  -2.6438  -2.5898  -2.4604
    -2.3350  -2.2433  -2.0904  -2.0560

     the Fermi energy is    -3.8956 ev

!    total energy              =    -492.61211196 Ry
     Harris-Foulkes estimate   =    -492.61211410 Ry
     estimated scf accuracy    <       0.00000091 Ry

     The total energy is the sum of the following terms:

     one-electron contribution =   -7840.27054523 Ry
     hartree contribution      =    3943.25659618 Ry
     xc contribution           =    -193.96645854 Ry
     ewald contribution        =    3598.36493773 Ry
     smearing contrib. (-TS)   =       0.00335790 Ry

     convergence has been achieved in  24 iterations

     negative rho (up, down):  4.811E-03 0.000E+00

     Forces acting on atoms (cartesian axes, Ry/au):

     atom    1 type  1   force =    -0.00530293   -0.00805998   -0.00638866
     atom    2 type  1   force =    -0.01217274   -0.00667547   -0.02526924
     atom    3 type  1   force =     0.06866243    0.02440401    0.00437036
     atom    4 type  1   force =    -0.05952403    0.03700232   -0.00865639
     atom    5 type  1   force =    -0.00303771   -0.02890957   -0.00649698
     atom    6 type  1   force =     0.00105735   -0.03122687   -0.02489385
     atom    7 type  1   force =     0.01757118   -0.03217872    0.00077073
     atom    8 type  2   force =    -0.00968377   -0.02602823    0.00848687
     atom    9 type  2   force =    -0.01742518    0.00083848   -0.01044858
     atom   10 type  2   force =     0.00059520   -0.01002150   -0.02692607
     atom   11 type  2   force =     0.02086828   -0.00348327    0.01336384
     atom   12 type  2   force =    -0.01520045    0.02017831   -0.02544614
     atom   13 type  2   force =     0.00567005    0.02560278   -0.02093354
     atom   14 type  2   force =     0.01971507    0.02146419   -0.01431546
     atom   15 type  2   force =    -0.00300852   -0.01464259    0.02511308
     atom   16 type  2   force =    -0.01210760    0.02793163    0.04911298
     atom   17 type  2   force =    -0.00638538    0.03179854    0.01150432
     atom   18 type  2   force =     0.00322689   -0.01841543    0.02147912
     atom   19 type  2   force =    -0.00466513    0.00490659    0.02130363
     atom   20 type  2   force =    -0.00083116   -0.00541174   -0.01968456
     atom   21 type  2   force =     0.01197815   -0.00907346    0.03395454

     Total force =     0.172535     Total SCF correction =     0.002214

     General routines

     Parallel routines

   This run was terminated on:   1:14:35  24Dec2021

   JOB DONE.