     Program PWSCF v.6.4 starts on  8Sep2021 at 11:33:46

     R & G space division:  proc/nbgrp/npool/nimage =      40
     Waiting for input...
     Reading input from standard input
Warning: card    &IONS ignored
Warning: card      ION_DYNAMICS = 'BFGS' ignored
Warning: card   / ignored
Warning: card    &CELL ignored
Warning: card      CELL_DYNAMICS = 'BFGS', ignored
Warning: card    / ignored

     Current dimensions of program PWSCF are:
     Max number of different atomic species (ntypx) = 10
     Max number of k-points (npk) =  40000
     Max angular momentum in pseudopotentials (lmaxx) =  3

     bravais-lattice index     =            0
     lattice parameter (alat)  =      12.5679  a.u.
     unit-cell volume          =    3539.9728 (a.u.)^3
     number of atoms/cell      =           24
     number of atomic types    =            2
     number of electrons       =       144.00
     number of Kohn-Sham states=           86
     kinetic-energy cutoff     =      45.0000  Ry
     charge density cutoff     =     360.0000  Ry
     convergence threshold     =      1.0E-06
     mixing beta               =       0.7000
     number of iterations used =            8  local-TF  mixing
     Exchange-correlation      = SLA PW GGX GGC ( 1  4  2  2 0 0)

     celldm(1)=  12.567878  celldm(2)=   0.000000  celldm(3)=   0.000000
     celldm(4)=   0.000000  celldm(5)=   0.000000  celldm(6)=   0.000000

     crystal axes: (cart. coord. in units of alat)
               a(1) = (   0.999596   0.027306   0.007899 )
               a(2) = (  -0.238938   0.426510  -0.003516 )
               a(3) = (   0.125095   1.356976   4.115593 )

     reciprocal axes: (cart. coord. in units 2 pi/alat)
               b(1) = (  0.987020  0.551201 -0.211741 )
               b(2) = ( -0.057009  2.306421 -0.758731 )
               b(3) = ( -0.001943  0.000913  0.242737 )

     PseudoPot. # 1 for Mo read from file:
     ~/pseudo/Mo.pw91-n-van.UPF
     MD5 check sum: Not computed, couldn't open file
     Pseudo is Ultrasoft + core correction, Zval =  6.0
     Generated by new atomic code, or converted to UPF format
     Using radial grid of  965 points,  3 beta functions with:
                l(1) =   1
                l(2) =   2
                l(3) =   2
     Q(r) pseudized with  8 coefficients,  rinner =    1.000   1.000   1.000
                                                       1.200   1.200

     PseudoPot. # 2 for S  read from file:
     ~/pseudo/S.pw91-van_ak.UPF
     MD5 check sum: Not computed, couldn't open file
     Pseudo is Ultrasoft, Zval =  6.0
     Generated by new atomic code, or converted to UPF format
     Using radial grid of  811 points,  6 beta functions with:
                l(1) =   0
                l(2) =   0
                l(3) =   1
                l(4) =   1
                l(5) =   2
                l(6) =   2
     Q(r) pseudized with  8 coefficients,  rinner =    1.100   1.100   1.100
                                                       1.100   1.100

     atomic species   valence    mass     pseudopotential
        Mo             6.00    95.50000     Mo( 1.00)
        S              6.00    32.06500     S ( 1.00)

      2 Sym. Ops., with inversion, found

   Cartesian axes

     site n.     atom                  positions (alat units)
         1           Mo  tau(   1) = (   0.0874233   0.6430535   1.5225153  )
         2           Mo  tau(   2) = (   0.0732452   1.2801910   3.5984841  )
         3           Mo  tau(   3) = (   0.5105020   0.6153272   1.5444401  )
         4           Mo  tau(   4) = (   0.6497880   1.3352310   3.5844410  )
         5           Mo  tau(   5) = (   0.0518502   0.0767851   0.5171094  )
         6           Mo  tau(   6) = (   0.0376721   0.7139227   2.5930782  )
         7           Mo  tau(   7) = (   0.4749033   0.0490511   0.5390511  )
         8           Mo  tau(   8) = (   0.6141893   0.7689548   2.5790521  )
         9           S   tau(   9) = (   0.3055882   0.7766544   1.7907650  )
        10           S   tau(  10) = (   0.3591552   1.4414443   3.7833028  )
        11           S   tau(  11) = (   0.7964124   0.7766170   1.7292500  )
        12           S   tau(  12) = (   0.8679150   1.4687830   3.8527305  )
        13           S   tau(  13) = (   0.0178379   0.3420087   0.2672457  )
        14           S   tau(  14) = (   0.0893404   1.0341747   2.3907262  )
        15           S   tau(  15) = (   0.5265976   0.3693474   0.3366734  )
        16           S   tau(  16) = (   0.5801646   1.0341373   2.3292111  )
        17           S   tau(  17) = (   0.0371176   0.6476893   0.7798822  )
        18           S   tau(  18) = (   0.0855335   1.3273255   2.7867618  )
        19           S   tau(  19) = (   0.5227400   0.6624653   0.7327056  )
        20           S   tau(  20) = (   0.5994808   1.3398608   2.8418035  )
        21           S   tau(  21) = (   0.2862721   0.4709308   1.2781727  )
        22           S   tau(  22) = (   0.3630128   1.1483263   3.3872705  )
        23           S   tau(  23) = (   0.8002193   0.4834662   1.3332143  )
        24           S   tau(  24) = (   0.8486353   1.1631024   3.3400939  )

     number of k points=    10  Marzari-Vanderbilt smearing, width (Ry)=  0.0200
                       cart. coord. in units 2pi/alat
        k(    1) = (   0.0000000   0.0000000   0.0000000), wk =   0.1111111
        k(    2) = (  -0.0095015   0.3844035  -0.1264551), wk =   0.2222222
        k(    3) = (  -0.0190030   0.7688069  -0.2529102), wk =   0.2222222
        k(    4) = (   0.0285045  -1.1532104   0.3793653), wk =   0.1111111
        k(    5) = (   0.3290068   0.1837337  -0.0705802), wk =   0.2222222
        k(    6) = (   0.3195053   0.5681372  -0.1970353), wk =   0.2222222
        k(    7) = (   0.3100038   0.9525407  -0.3234904), wk =   0.2222222
        k(    8) = (   0.3575112  -0.9694767   0.3087851), wk =   0.2222222
        k(    9) = (   0.3480097  -0.5850732   0.1823300), wk =   0.2222222
        k(   10) = (   0.3385082  -0.2006697   0.0558749), wk =   0.2222222

     Initial potential from superposition of free atoms

     starting charge  143.98738, renormalised to  144.00000
     Starting wfcs are  136 randomized atomic wfcs

     Self-consistent Calculation

     iteration #  1     ecut=    45.00 Ry     beta= 0.70
     Davidson diagonalization with overlap
     ethr =  1.00E-02,  avg # of iterations =  2.0

     total energy              =    -562.31776337 Ry
     Harris-Foulkes estimate   =    -564.29468047 Ry
     estimated scf accuracy    <       5.15809016 Ry

[...]

     total energy              =    -563.34029176 Ry
     Harris-Foulkes estimate   =    -563.34029217 Ry
     estimated scf accuracy    <       0.00000194 Ry

     iteration # 13     ecut=    45.00 Ry     beta= 0.70
     Davidson diagonalization with overlap
     ethr =  1.10E-09,  avg # of iterations =  1.6

     End of self-consistent calculation

          k = 0.0000 0.0000 0.0000 ( 18103 PWs)   bands (ev):

    -8.1283  -8.1099  -8.0826  -8.0614  -7.1927  -7.1694  -7.1177  -7.0982
    -6.4711  -6.4515  -6.4447  -6.4283  -6.3901  -6.3835  -6.3637  -6.3590
     0.0164   0.0203   0.0603   0.0657   0.3835   0.4976   0.6045   0.7661
     1.2940   1.3236   1.3892   1.4246   1.4599   1.5007   1.6389   1.6464
     2.3409   2.3417   2.3541   2.3551   2.4326   2.4339   2.4387   2.4391
     2.8422   2.8522   2.8921   2.8921   3.3465   3.4418   3.4875   3.5595
     3.8247   4.0479   4.1570   4.3189   4.5017   4.5144   4.5670   4.6073
     4.6191   4.6309   4.6541   4.7070   5.2642   5.3704   5.4301   5.4887
     5.5157   5.5366   5.6018   5.6473   5.6692   5.6882   5.7460   5.7679
     6.0287   6.0607   6.0632   6.1048   6.3929   6.4013   6.4077   6.4086
     7.3959   7.4087   7.4092   7.4190   7.7106   7.7152

          k =-0.0095 0.3844-0.1265 ( 18077 PWs)   bands (ev):

[...]

          k =-0.0190 0.7688-0.2529 ( 18021 PWs)   bands (ev):

[...]

          k = 0.3385-0.2007 0.0559 ( 18061 PWs)   bands (ev):

    -7.7599  -7.7468  -7.7120  -7.6964  -7.0709  -7.0559  -7.0016  -6.9900
    -6.5272  -6.5202  -6.5056  -6.5002  -6.2874  -6.2814  -6.2731  -6.2677
     0.4846   0.4985   0.5573   0.5650   0.8344   0.8384   0.9601   0.9905
     1.0527   1.0611   1.1593   1.2417   1.5502   1.6146   1.6943   1.7204
     2.1810   2.1838   2.2788   2.3040   2.4143   2.4616   2.5072   2.5240
     2.6343   2.6346   2.6619   2.6627   3.0967   3.1011   3.1236   3.1294
     3.3790   3.4419   3.4589   3.5202   3.7693   3.7880   3.7958   3.8117
     4.4099   4.4265   4.4766   4.4816   4.7931   4.8790   4.9667   5.0122
     5.0496   5.0549   5.0589   5.2071   5.4172   5.5326   5.6734   5.6880
     6.1335   6.1819   6.2173   6.2685   6.8206   6.8343   6.8602   6.8704
     7.6530   7.6750   7.6815   7.7039   7.8608   7.8723

     the Fermi energy is     5.7953 ev

!    total energy              =    -563.34029176 Ry
     Harris-Foulkes estimate   =    -563.34029191 Ry
     estimated scf accuracy    <       0.00000016 Ry

     The total energy is the sum of the following terms:

     one-electron contribution =     -82.76797470 Ry
     hartree contribution      =     119.97793062 Ry
     xc contribution           =    -222.26696080 Ry
     ewald contribution        =    -378.29207226 Ry
     smearing contrib. (-TS)   =       0.00878538 Ry

     convergence has been achieved in  13 iterations

     Forces acting on atoms (cartesian axes, Ry/au):

     atom    1 type  1   force =     0.00430130    0.00015720    0.00677573
     atom    2 type  1   force =    -0.01057306   -0.02481672   -0.02029558
     atom    3 type  1   force =    -0.01159413   -0.02525519   -0.02012957
     atom    4 type  1   force =     0.00472186    0.00047075    0.00678680
     atom    5 type  1   force =     0.01057306    0.02481672    0.02029558
     atom    6 type  1   force =    -0.00430130   -0.00015720   -0.00677573
     atom    7 type  1   force =    -0.00472186   -0.00047075   -0.00678680
     atom    8 type  1   force =     0.01159413    0.02525519    0.02012957
     atom    9 type  2   force =    -0.01237151   -0.00450879    0.01076704
     atom   10 type  2   force =    -0.00423645    0.00861429    0.01275361
     atom   11 type  2   force =    -0.00382392    0.00831243    0.01271621
     atom   12 type  2   force =    -0.01210985   -0.00464520    0.01062881
     atom   13 type  2   force =     0.01210985    0.00464520   -0.01062881
     atom   14 type  2   force =     0.00382392   -0.00831243   -0.01271621
     atom   15 type  2   force =     0.00423645   -0.00861429   -0.01275361
     atom   16 type  2   force =     0.01237151    0.00450879   -0.01076704
     atom   17 type  2   force =    -0.01839210   -0.00769476    0.01486104
     atom   18 type  2   force =    -0.00427691   -0.01486226   -0.00664258
     atom   19 type  2   force =    -0.00476939   -0.01452810   -0.00688857
     atom   20 type  2   force =    -0.01845367   -0.00740636    0.01472210
     atom   21 type  2   force =     0.01845367    0.00740636   -0.01472210
     atom   22 type  2   force =     0.00476939    0.01452810    0.00688857
     atom   23 type  2   force =     0.00427691    0.01486226    0.00664258
     atom   24 type  2   force =     0.01839210    0.00769476   -0.01486104

     Total force =     0.103110     Total SCF correction =     0.000904

     General routines

     Parallel routines

   This run was terminated on:  11:34:49   8Sep2021

   JOB DONE.