     Program PWSCF v.6.4 starts on  2Sep2021 at 21: 9:13

     R & G space division:  proc/nbgrp/npool/nimage =      40
     Waiting for input...
     Reading input from standard input
Warning: card    &IONS ignored
Warning: card      ION_DYNAMICS = 'BFGS' ignored
Warning: card   / ignored
Warning: card    &CELL ignored
Warning: card      CELL_DYNAMICS = 'BFGS', ignored
Warning: card    / ignored

     Current dimensions of program PWSCF are:
     Max number of different atomic species (ntypx) = 10
     Max number of k-points (npk) =  40000
     Max angular momentum in pseudopotentials (lmaxx) =  3

     bravais-lattice index     =            0
     lattice parameter (alat)  =       6.1057  a.u.
     unit-cell volume          =    3617.3988 (a.u.)^3
     number of atoms/cell      =           24
     number of atomic types    =            2
     number of electrons       =       144.00
     number of Kohn-Sham states=           86
     kinetic-energy cutoff     =      45.0000  Ry
     charge density cutoff     =     360.0000  Ry
     convergence threshold     =      1.0E-06
     mixing beta               =       0.7000
     number of iterations used =            8  local-TF  mixing
     Exchange-correlation      = SLA PW GGX GGC ( 1  4  2  2 0 0)

     celldm(1)=   6.105711  celldm(2)=   0.000000  celldm(3)=   0.000000
     celldm(4)=   0.000000  celldm(5)=   0.000000  celldm(6)=   0.000000

     crystal axes: (cart. coord. in units of alat)
               a(1) = (   1.000000   0.000000   0.000000 )
               a(2) = (  -0.006579   1.728366   0.000000 )
               a(3) = (  -1.011098   0.311591   9.195004 )

     reciprocal axes: (cart. coord. in units 2 pi/alat)
               b(1) = (  1.000000  0.003806  0.109833 )
               b(2) = (  0.000000  0.578581 -0.019606 )
               b(3) = (  0.000000  0.000000  0.108755 )

     PseudoPot. # 1 for Mo read from file:
     ~/pseudo/Mo.pw91-n-van.UPF
     MD5 check sum: Not computed, couldn't open file
     Pseudo is Ultrasoft + core correction, Zval =  6.0
     Generated by new atomic code, or converted to UPF format
     Using radial grid of  965 points,  3 beta functions with:
                l(1) =   1
                l(2) =   2
                l(3) =   2
     Q(r) pseudized with  8 coefficients,  rinner =    1.000   1.000   1.000
                                                       1.200   1.200

     PseudoPot. # 2 for S  read from file:
     ~/pseudo/S.pw91-van_ak.UPF
     MD5 check sum: Not computed, couldn't open file
     Pseudo is Ultrasoft, Zval =  6.0
     Generated by new atomic code, or converted to UPF format
     Using radial grid of  811 points,  6 beta functions with:
                l(1) =   0
                l(2) =   0
                l(3) =   1
                l(4) =   1
                l(5) =   2
                l(6) =   2
     Q(r) pseudized with  8 coefficients,  rinner =    1.100   1.100   1.100
                                                       1.100   1.100

     atomic species   valence    mass     pseudopotential
        Mo             6.00    95.50000     Mo( 1.00)
        S              6.00    32.06500     S ( 1.00)

     No symmetry found

   Cartesian axes

     site n.     atom                  positions (alat units)
         1           Mo  tau(   1) = (   0.0408372   1.2683710   1.3641545  )
         2           Mo  tau(   2) = (  -0.5857628   1.7082863   5.6344144  )
         3           Mo  tau(   3) = (   0.5351703   0.3520846   1.2943476  )
         4           Mo  tau(   4) = (  -0.0879439   0.8656651   5.6148681  )
         5           Mo  tau(   5) = (  -0.1529519   1.5575397   3.3634905  )
         6           Mo  tau(   6) = (  -0.3436898   1.3437627   8.0951658  )
         7           Mo  tau(   7) = (   0.3403338   0.6442354   3.3917506  )
         8           Mo  tau(   8) = (   0.1784295   0.4496386   8.0336242  )
         9           S   tau(   9) = (   0.5429314   0.9195493   1.8047590  )
        10           S   tau(  10) = (  -0.0878875   1.4263735   6.1254606  )
        11           S   tau(  11) = (   0.0369102   0.1313657   1.8343312  )
        12           S   tau(  12) = (  -0.5896388   0.5753383   6.1013935  )
        13           S   tau(  13) = (   0.3454093   1.8057074   3.8795464  )
        14           S   tau(  14) = (   0.1618581   1.6431703   8.5798146  )
        15           S   tau(  15) = (  -0.1612488   0.9778436   3.8491538  )
        16           S   tau(  16) = (  -0.3147603   0.7274042   8.5294212  )
        17           S   tau(  17) = (   0.5426335   0.9823212   0.8753998  )
        18           S   tau(  18) = (  -0.0824191   1.4414874   5.1289597  )
        19           S   tau(  19) = (   0.0302592   1.7912544   0.8075382  )
        20           S   tau(  20) = (  -0.5857851   0.5555062   5.1402498  )
        21           S   tau(  21) = (   0.3453349   1.8213693   2.8539688  )
        22           S   tau(  22) = (   0.1511791   1.5827761   7.5769018  )
        23           S   tau(  23) = (  -0.1617629   0.9470596   2.9129354  )
        24           S   tau(  24) = (  -0.3286776   0.7797026   7.5790505  )

     number of k points=     8  Marzari-Vanderbilt smearing, width (Ry)=  0.0200
                       cart. coord. in units 2pi/alat
        k(    1) = (   0.0000000   0.0000000   0.0000000), wk =   0.1333333
        k(    2) = (   0.0000000   0.1928604  -0.0065355), wk =   0.2666667
        k(    3) = (   0.2000000   0.0007613   0.0219665), wk =   0.2666667
        k(    4) = (   0.2000000   0.1936216   0.0154311), wk =   0.2666667
        k(    5) = (   0.2000000  -0.1920991   0.0285020), wk =   0.2666667
        k(    6) = (   0.4000000   0.0015225   0.0439331), wk =   0.2666667
        k(    7) = (   0.4000000   0.1943829   0.0373976), wk =   0.2666667
        k(    8) = (   0.4000000  -0.1913378   0.0504685), wk =   0.2666667

     Initial potential from superposition of free atoms

     starting charge  143.98738, renormalised to  144.00000
     Starting wfcs are  136 randomized atomic wfcs

     Self-consistent Calculation

     iteration #  1     ecut=    45.00 Ry     beta= 0.70
     Davidson diagonalization with overlap
     ethr =  1.00E-02,  avg # of iterations =  2.0

     total energy              =    -562.72253369 Ry
     Harris-Foulkes estimate   =    -564.51500826 Ry
     estimated scf accuracy    <       4.60416510 Ry

[...]

     iteration #  8     ecut=    45.00 Ry     beta= 0.70
     Davidson diagonalization with overlap
     c_bands:  1 eigenvalues not converged
     ethr =  1.37E-06,  avg # of iterations =  9.6

[...]

     iteration # 10     ecut=    45.00 Ry     beta= 0.70
     Davidson diagonalization with overlap
     c_bands:  1 eigenvalues not converged
     c_bands:  1 eigenvalues not converged
     ethr =  1.10E-06,  avg # of iterations =  6.5

[...]

     total energy              =    -563.62136551 Ry
     Harris-Foulkes estimate   =    -563.62136605 Ry
     estimated scf accuracy    <       0.00000214 Ry

     iteration # 16     ecut=    45.00 Ry     beta= 0.70
     Davidson diagonalization with overlap
     ethr =  1.49E-09,  avg # of iterations =  3.0

     End of self-consistent calculation

          k = 0.0000 0.0000 0.0000 ( 18481 PWs)   bands (ev):

    -8.7770  -8.6613  -8.5348  -8.4335  -7.6277  -7.4722  -7.3735  -7.2558
    -7.0064  -6.9477  -6.7704  -6.7224  -6.6838  -6.6182  -6.4667  -6.4398
    -0.3843  -0.3131  -0.2434  -0.1089  -0.0608  -0.0433   0.0013   0.1077
     0.6085   0.6735   0.8400   0.8739   1.1754   1.3678   1.4765   1.5515
     2.1428   2.2086   2.3557   2.4196   2.6496   2.6721   2.7299   2.7585
     2.8574   2.8777   2.9022   2.9279   2.9712   3.4222   3.4708   3.5332
     3.6179   3.7690   3.8077   3.8289   3.8431   3.9381   3.9408   3.9586
     4.0334   4.0826   4.0927   4.1694   4.2398   4.3432   4.4615   4.5333
     4.5475   4.7109   4.8338   4.8821   5.1319   5.4324   5.4603   5.5922
     7.1232   7.2235   7.3638   7.4930   7.5075   7.5984   7.8367   7.8788
     7.9157   7.9626   7.9746   8.0001   8.0191   8.0579

[...]

          k = 0.4000-0.1913 0.0505 ( 18376 PWs)   bands (ev):

    -7.3693  -7.2709  -7.1085  -7.0085  -7.0012  -6.9112  -6.8678  -6.7984
    -6.7916  -6.6753  -6.6247  -6.6174  -6.5888  -6.5643  -6.4357  -6.3932
    -0.1465  -0.0853  -0.0297   0.0562   0.0939   0.1726   0.1938   0.2436
     0.4019   0.5213   0.6294   0.7274   0.7891   0.9291   1.0492   1.1773
     1.2698   1.3531   1.4794   1.5786   1.5954   1.6267   1.6691   1.6960
     2.1489   2.1663   2.3356   2.3927   2.4156   2.4344   2.5164   2.6031
     3.0353   3.1700   3.3326   3.3772   3.4372   3.5363   3.5768   3.6272
     3.7626   3.8852   3.9170   3.9429   3.9694   3.9977   4.2475   4.2810
     4.3676   4.4120   4.6157   4.6597   4.9083   4.9962   5.0891   5.1221
     6.9693   7.0467   7.2835   7.3237   7.3974   7.4073   7.4896   7.5599
     7.6068   7.6400   7.7301   7.8200   7.8403   7.9837

     the Fermi energy is     5.6142 ev

!    total energy              =    -563.62136543 Ry
     Harris-Foulkes estimate   =    -563.62136577 Ry
     estimated scf accuracy    <       0.00000036 Ry

     The total energy is the sum of the following terms:

     one-electron contribution =    -222.24242670 Ry
     hartree contribution      =     188.32813078 Ry
     xc contribution           =    -222.60389777 Ry
     ewald contribution        =    -307.11359890 Ry
     smearing contrib. (-TS)   =       0.01042717 Ry

     convergence has been achieved in  16 iterations

     Forces acting on atoms (cartesian axes, Ry/au):

     atom    1 type  1   force =    -0.00199282   -0.04154833   -0.03335977
     atom    2 type  1   force =    -0.00340855    0.02180334   -0.01427994
     atom    3 type  1   force =     0.00734547    0.04951170    0.04512509
     atom    4 type  1   force =     0.00161166   -0.02039162    0.00895648
     atom    5 type  1   force =    -0.00778176   -0.04657272    0.00385669
     atom    6 type  1   force =     0.01249858   -0.02919781   -0.02645144
     atom    7 type  1   force =     0.00293663    0.04754038   -0.02759448
     atom    8 type  1   force =    -0.00861050    0.02223316    0.03833045
     atom    9 type  2   force =    -0.00361047    0.02366863    0.01879309
     atom   10 type  2   force =     0.00256638   -0.00018071   -0.00991448
     atom   11 type  2   force =    -0.00097445   -0.02977276   -0.03984126
     atom   12 type  2   force =     0.00330447   -0.00357582    0.00292820
     atom   13 type  2   force =    -0.00006999    0.00996031   -0.01642014
     atom   14 type  2   force =    -0.00450488   -0.01240739   -0.01902709
     atom   15 type  2   force =     0.00273062   -0.01919926    0.01915534
     atom   16 type  2   force =    -0.01105961    0.01336910    0.00555440
     atom   17 type  2   force =    -0.00282544   -0.01381153   -0.01730391
     atom   18 type  2   force =    -0.00375263   -0.00686273    0.01428098
     atom   19 type  2   force =     0.00001084    0.01033322    0.01957689
     atom   20 type  2   force =    -0.00070050    0.00897346   -0.00181813
     atom   21 type  2   force =     0.00125732    0.00816988    0.03788098
     atom   22 type  2   force =     0.00729795    0.02274254    0.01258810
     atom   23 type  2   force =     0.00351596    0.00072550   -0.00998411
     atom   24 type  2   force =     0.00421570   -0.01551053   -0.01103195

     Total force =     0.164851     Total SCF correction =     0.001683

     General routines

     Parallel routines

   This run was terminated on:  21:10:23   2Sep2021

   JOB DONE.