     Program PWSCF v.6.4 starts on 10Nov2021 at 18:20:54

     R & G space division:  proc/nbgrp/npool/nimage =      40
     Waiting for input...
     Reading input from standard input
Warning: card    &IONS ignored
Warning: card      ION_DYNAMICS = 'BFGS' ignored
Warning: card   / ignored
Warning: card    &CELL ignored
Warning: card      CELL_DYNAMICS = 'BFGS', ignored
Warning: card    / ignored

     Current dimensions of program PWSCF are:
     Max number of different atomic species (ntypx) = 10
     Max number of k-points (npk) =  40000
     Max angular momentum in pseudopotentials (lmaxx) =  3

     bravais-lattice index     =            0
     lattice parameter (alat)  =       6.1144  a.u.
     unit-cell volume          =    1168.9029 (a.u.)^3
     number of atoms/cell      =            6
     number of atomic types    =            2
     number of electrons       =        36.00
     number of Kohn-Sham states=           22
     kinetic-energy cutoff     =      45.0000  Ry
     charge density cutoff     =     360.0000  Ry
     convergence threshold     =      1.0E-06
     mixing beta               =       0.7000
     number of iterations used =            8  local-TF  mixing
     Exchange-correlation      = SLA PW GGX GGC ( 1  4  2  2 0 0)

     celldm(1)=   6.114424  celldm(2)=   0.000000  celldm(3)=   0.000000
     celldm(4)=   0.000000  celldm(5)=   0.000000  celldm(6)=   0.000000

     crystal axes: (cart. coord. in units of alat)
               a(1) = (   1.000000   0.000000   0.000000 )
               a(2) = (  -0.502627   0.860962   0.000000 )
               a(3) = (   0.824608  -0.601740   5.939201 )

     reciprocal axes: (cart. coord. in units 2 pi/alat)
               b(1) = (  1.000000  0.583798 -0.079693 )
               b(2) = (  0.000000  1.161492  0.117679 )
               b(3) = (  0.000000  0.000000  0.168373 )

     PseudoPot. # 1 for Mo read from file:
     ~/pseudo/Mo.pw91-n-van.UPF
     MD5 check sum: Not computed, couldn't open file
     Pseudo is Ultrasoft + core correction, Zval =  6.0
     Generated by new atomic code, or converted to UPF format
     Using radial grid of  965 points,  3 beta functions with:
                l(1) =   1
                l(2) =   2
                l(3) =   2
     Q(r) pseudized with  8 coefficients,  rinner =    1.000   1.000   1.000
                                                       1.200   1.200

     PseudoPot. # 2 for S  read from file:
     ~/pseudo/S.pw91-van_ak.UPF
     MD5 check sum: Not computed, couldn't open file
     Pseudo is Ultrasoft, Zval =  6.0
     Generated by new atomic code, or converted to UPF format
     Using radial grid of  811 points,  6 beta functions with:
                l(1) =   0
                l(2) =   0
                l(3) =   1
                l(4) =   1
                l(5) =   2
                l(6) =   2
     Q(r) pseudized with  8 coefficients,  rinner =    1.100   1.100   1.100
                                                       1.100   1.100

     atomic species   valence    mass     pseudopotential
        Mo             6.00    95.50000     Mo( 1.00)
        S              6.00    32.06500     S ( 1.00)

     No symmetry found

   Cartesian axes

     site n.     atom                  positions (alat units)
         1           Mo  tau(   1) = (   1.4277160  -0.2637077   4.7550967  )
         2           Mo  tau(   2) = (  -0.1057860   0.5225004   1.1841985  )
         3           S   tau(   3) = (   0.9203116   0.0282037   4.2668767  )
         4           S   tau(   4) = (   0.3933786   0.2378443   0.6952929  )
         5           S   tau(   5) = (   0.9305404   0.0205303   5.2440116  )
         6           S   tau(   6) = (   0.3996732   0.2310172   1.6725892  )

     number of k points=    20  Marzari-Vanderbilt smearing, width (Ry)=  0.0200
                       cart. coord. in units 2pi/alat
        k(    1) = (   0.0000000   0.0000000   0.0000000), wk =   0.0555556
        k(    2) = (   0.0000000   0.1935820   0.0196131), wk =   0.1111111
        k(    3) = (   0.0000000   0.3871640   0.0392262), wk =   0.1111111
        k(    4) = (   0.0000000  -0.5807460  -0.0588393), wk =   0.0555556
        k(    5) = (   0.1666667   0.0972996  -0.0132822), wk =   0.1111111
        k(    6) = (   0.1666667   0.2908816   0.0063309), wk =   0.1111111
        k(    7) = (   0.1666667   0.4844636   0.0259440), wk =   0.1111111
        k(    8) = (   0.1666667  -0.4834464  -0.0721215), wk =   0.1111111
        k(    9) = (   0.1666667  -0.2898644  -0.0525084), wk =   0.1111111
        k(   10) = (   0.1666667  -0.0962824  -0.0328953), wk =   0.1111111
        k(   11) = (   0.3333333   0.1945992  -0.0265644), wk =   0.1111111
        k(   12) = (   0.3333333   0.3881812  -0.0069513), wk =   0.1111111
        k(   13) = (   0.3333333   0.5817632   0.0126618), wk =   0.1111111
        k(   14) = (   0.3333333  -0.3861469  -0.0854037), wk =   0.1111111
        k(   15) = (   0.3333333  -0.1925649  -0.0657906), wk =   0.1111111
        k(   16) = (   0.3333333   0.0010172  -0.0461775), wk =   0.1111111
        k(   17) = (  -0.5000000  -0.2918988   0.0398466), wk =   0.0555556
        k(   18) = (  -0.5000000  -0.0983167   0.0594597), wk =   0.1111111
        k(   19) = (  -0.5000000   0.0952653   0.0790728), wk =   0.1111111
        k(   20) = (  -0.5000000  -0.8726448  -0.0189927), wk =   0.0555556

     Initial potential from superposition of free atoms

     starting charge   35.99685, renormalised to   36.00000

     negative rho (up, down):  3.829E-06 0.000E+00
     Starting wfcs are   34 randomized atomic wfcs

     Self-consistent Calculation

     iteration #  1     ecut=    45.00 Ry     beta= 0.70
     Davidson diagonalization with overlap
     ethr =  1.00E-02,  avg # of iterations =  2.0

     total energy              =    -140.69695502 Ry
     Harris-Foulkes estimate   =    -141.14581046 Ry
     estimated scf accuracy    <       1.15009835 Ry

[...]

     iteration #  6     ecut=    45.00 Ry     beta= 0.70
     Davidson diagonalization with overlap
     c_bands:  1 eigenvalues not converged
     ethr =  1.93E-06,  avg # of iterations =  5.8

[...]

     negative rho (up, down):  3.511E-06 0.000E+00

[...]

     total energy              =    -140.92278475 Ry
     Harris-Foulkes estimate   =    -140.92278901 Ry
     estimated scf accuracy    <       0.00001989 Ry

     iteration # 12     ecut=    45.00 Ry     beta= 0.70
     Davidson diagonalization with overlap
     ethr =  5.53E-08,  avg # of iterations =  3.0

[...]

     End of self-consistent calculation

          k = 0.0000 0.0000 0.0000 (  6041 PWs)   bands (ev):

   -11.1528 -11.1464  -9.9720  -9.9608  -2.6619  -2.6014   0.1822   0.1853
     0.2641   0.2662   1.0218   1.2411   1.3153   1.3165   1.3461   1.3528
     2.7188   2.8653   5.4156   5.4194   5.5127   5.5200

[...]

          k = 0.3333 0.0010-0.0462 (  5970 PWs)   bands (ev):

[...]

          k =-0.5000-0.2919 0.0398 (  5914 PWs)   bands (ev):

[...]

          k =-0.5000-0.8726-0.0190 (  5920 PWs)   bands (ev):

    -9.4596  -9.4584  -9.1776  -9.1763  -2.7846  -2.7769  -1.8500  -1.8363
    -1.1858  -1.1689  -0.2613  -0.2593   0.9467   0.9893   1.8753   1.8768
     2.1502   2.1643   4.7893   4.7902   5.2909   5.3049

     the Fermi energy is     2.8727 ev

!    total energy              =    -140.92278731 Ry
     Harris-Foulkes estimate   =    -140.92278765 Ry
     estimated scf accuracy    <       0.00000045 Ry

     The total energy is the sum of the following terms:

     one-electron contribution =    -250.33755553 Ry
     hartree contribution      =     141.06406335 Ry
     xc contribution           =     -55.65370580 Ry
     ewald contribution        =      24.00051071 Ry
     smearing contrib. (-TS)   =       0.00389996 Ry

     convergence has been achieved in  12 iterations

     negative rho (up, down):  1.577E-05 0.000E+00

     Forces acting on atoms (cartesian axes, Ry/au):

     atom    1 type  1   force =    -0.00359475    0.00397263    0.00132677
     atom    2 type  1   force =     0.00370923   -0.00398249   -0.00090092
     atom    3 type  2   force =     0.00755554   -0.00661207    0.00265352
     atom    4 type  2   force =     0.00139055   -0.00140173    0.00436410
     atom    5 type  2   force =    -0.00354077    0.00191192   -0.00422628
     atom    6 type  2   force =    -0.00551981    0.00611174   -0.00321719

     Total force =     0.017433     Total SCF correction =     0.002065
     SCF correction compared to forces is large: reduce conv_thr to get better values

     General routines

     Parallel routines

   This run was terminated on:  18:21: 9  10Nov2021

   JOB DONE.