     Program PWSCF v.6.4 starts on  3Aug2021 at 21:33:22

     R & G space division:  proc/nbgrp/npool/nimage =      40
     Waiting for input...
     Reading input from standard input
Warning: card    &IONS ignored
Warning: card      ION_DYNAMICS = 'BFGS' ignored
Warning: card   / ignored
Warning: card    &CELL ignored
Warning: card      CELL_DYNAMICS = 'BFGS', ignored
Warning: card    / ignored

     Current dimensions of program PWSCF are:
     Max number of different atomic species (ntypx) = 10
     Max number of k-points (npk) =  40000
     Max angular momentum in pseudopotentials (lmaxx) =  3

     bravais-lattice index     =            0
     lattice parameter (alat)  =      12.0589  a.u.
     unit-cell volume          =    5073.3462 (a.u.)^3
     number of atoms/cell      =           36
     number of atomic types    =            2
     number of electrons       =       216.00
     number of Kohn-Sham states=          130
     kinetic-energy cutoff     =      45.0000  Ry
     charge density cutoff     =     360.0000  Ry
     convergence threshold     =      1.0E-06
     mixing beta               =       0.7000
     number of iterations used =            8  local-TF  mixing
     Exchange-correlation      = SLA PW GGX GGC ( 1  4  2  2 0 0)

     celldm(1)=  12.058887  celldm(2)=   0.000000  celldm(3)=   0.000000
     celldm(4)=   0.000000  celldm(5)=   0.000000  celldm(6)=   0.000000

     crystal axes: (cart. coord. in units of alat)
               a(1) = (   1.000000   0.000000   0.000000 )
               a(2) = (  -0.500000   0.866025   0.000000 )
               a(3) = (   0.000000   0.000000   3.340736 )

     reciprocal axes: (cart. coord. in units 2 pi/alat)
               b(1) = (  1.000000  0.577350  0.000000 )
               b(2) = (  0.000000  1.154700  0.000000 )
               b(3) = (  0.000000  0.000000  0.299335 )

     PseudoPot. # 1 for Mo read from file:
     ~/pseudo/Mo.pw91-n-van.UPF
     MD5 check sum: Not computed, couldn't open file
     Pseudo is Ultrasoft + core correction, Zval =  6.0
     Generated by new atomic code, or converted to UPF format
     Using radial grid of  965 points,  3 beta functions with:
                l(1) =   1
                l(2) =   2
                l(3) =   2
     Q(r) pseudized with  8 coefficients,  rinner =    1.000   1.000   1.000
                                                       1.200   1.200

     PseudoPot. # 2 for S  read from file:
     ~/pseudo/S.pw91-van_ak.UPF
     MD5 check sum: Not computed, couldn't open file
     Pseudo is Ultrasoft, Zval =  6.0
     Generated by new atomic code, or converted to UPF format
     Using radial grid of  811 points,  6 beta functions with:
                l(1) =   0
                l(2) =   0
                l(3) =   1
                l(4) =   1
                l(5) =   2
                l(6) =   2
     Q(r) pseudized with  8 coefficients,  rinner =    1.100   1.100   1.100
                                                       1.100   1.100

     atomic species   valence    mass     pseudopotential
        Mo             6.00    95.50000     Mo( 1.00)
        S              6.00    32.06500     S ( 1.00)

     No symmetry found

   Cartesian axes

     site n.     atom                  positions (alat units)
         1           Mo  tau(   1) = (   0.2423087   0.1253529   1.0891108  )
         2           Mo  tau(   2) = (  -0.0208469   0.5590653   1.0982258  )
         3           Mo  tau(   3) = (   0.7395358   0.1668073   1.1320133  )
         4           Mo  tau(   4) = (   0.5151511   0.5759796   1.1402347  )
         5           Mo  tau(   5) = (   0.0273100   0.2865694   2.2416457  )
         6           Mo  tau(   6) = (  -0.2673346   0.7143619   2.2013508  )
         7           Mo  tau(   7) = (   0.5028366   0.3019383   2.2546686  )
         8           Mo  tau(   8) = (   0.2480732   0.7190199   2.1952452  )
         9           Mo  tau(   9) = (  -0.0109502   0.0178182   3.3166480  )
        10           Mo  tau(  10) = (  -0.2388557   0.4167607   3.3156196  )
        11           Mo  tau(  11) = (   0.5005908  -0.0063271   3.3706819  )
        12           Mo  tau(  12) = (   0.2762864   0.4310182   3.3569424  )
        13           S   tau(  13) = (   0.0286749   0.3000952   0.2499911  )
        14           S   tau(  14) = (  -0.2380159   0.6936167   0.2516671  )
        15           S   tau(  15) = (   0.4888823   0.2933633   0.2156224  )
        16           S   tau(  16) = (   0.2482501   0.7232508   0.2758023  )
        17           S   tau(  17) = (   0.0055329   0.0059029   0.8372697  )
        18           S   tau(  18) = (  -0.2543672   0.4277305   0.8981322  )
        19           S   tau(  19) = (   0.5112874   0.0176696   0.8908446  )
        20           S   tau(  20) = (   0.2758687   0.4153628   0.8662886  )
        21           S   tau(  21) = (   0.0292111  -0.0061433   1.3485728  )
        22           S   tau(  22) = (  -0.2469129   0.4634465   1.3649494  )
        23           S   tau(  23) = (   0.4941396  -0.0083767   1.3877536  )
        24           S   tau(  24) = (   0.2628687   0.4488656   1.3819040  )
        25           S   tau(  25) = (   0.2330670   0.1466724   2.0073967  )
        26           S   tau(  26) = (   0.0261705   0.5601525   1.9798388  )
        27           S   tau(  27) = (   0.7434690   0.1590906   2.0079965  )
        28           S   tau(  28) = (   0.5205535   0.5555467   1.9719361  )
        29           S   tau(  29) = (   0.2702283   0.1679073   2.4675102  )
        30           S   tau(  30) = (   0.0058380   0.5907383   2.4439734  )
        31           S   tau(  31) = (   0.7783324   0.1575795   2.4737611  )
        32           S   tau(  32) = (   0.4962859   0.5723220   2.5024157  )
        33           S   tau(  33) = (   0.0113107   0.2798718   3.0668356  )
        34           S   tau(  34) = (  -0.2808827   0.7231373   3.0998529  )
        35           S   tau(  35) = (   0.4818586   0.3108588   3.0820156  )
        36           S   tau(  36) = (   0.2456039   0.7298554   3.1246455  )

     number of k points=     5  Marzari-Vanderbilt smearing, width (Ry)=  0.0200
                       cart. coord. in units 2pi/alat
        k(    1) = (   0.0000000   0.0000000   0.0000000), wk =   0.2222222
        k(    2) = (   0.0000000   0.3849001   0.0000000), wk =   0.4444444
        k(    3) = (   0.3333333   0.5773502   0.0000000), wk =   0.4444444
        k(    4) = (  -0.3333333   0.1924501   0.0000000), wk =   0.4444444
        k(    5) = (   0.3333333   0.1924501   0.0000000), wk =   0.4444444

     Initial potential from superposition of free atoms

     starting charge  215.98107, renormalised to  216.00000
     Starting wfcs are  204 randomized atomic wfcs

     Self-consistent Calculation

     iteration #  1     ecut=    45.00 Ry     beta= 0.70
     Davidson diagonalization with overlap
     ethr =  1.00E-02,  avg # of iterations =  2.0

     total energy              =    -843.48945641 Ry
     Harris-Foulkes estimate   =    -845.82840957 Ry
     estimated scf accuracy    <       5.96127911 Ry

[...]

     total energy              =    -844.63823916 Ry
     Harris-Foulkes estimate   =    -844.63823940 Ry
     estimated scf accuracy    <       0.00000278 Ry

     iteration # 13     ecut=    45.00 Ry     beta= 0.70
     Davidson diagonalization with overlap
     ethr =  1.29E-09,  avg # of iterations =  4.6

     End of self-consistent calculation

          k = 0.0000 0.0000 0.0000 ( 25845 PWs)   bands (ev):

    -8.2762  -8.1690  -8.0265  -7.0336  -6.8873  -6.8458  -6.6347  -6.6017
    -6.5182  -6.3907  -6.3360  -6.3212  -6.2904  -6.1293  -5.9867  -5.9670
    -5.9548  -5.8853  -5.8204  -5.8143  -5.7301  -5.7125  -5.6087  -5.4093
     0.0047   0.0974   0.1785   0.2018   0.2211   0.2589   0.2689   0.3803
     0.4642   0.5994   0.6755   0.7717   1.0683   1.1240   1.1998   1.2518
     1.2697   1.3238   1.3628   1.3815   1.5671   1.6561   1.7243   1.9665
     1.9881   2.0322   2.1486   2.1686   2.3680   2.4267   2.4755   2.6051
     2.6307   2.6524   2.6871   2.7887   2.8299   3.0466   3.0971   3.1641
     3.1899   3.4603   3.4665   3.5594   3.7023   3.7495   3.8282   3.9165
     3.9561   3.9854   4.0573   4.1321   4.2101   4.2444   4.3153   4.4276
     4.4588   4.5518   4.5775   4.6532   4.7709   4.9042   4.9561   4.9672
     5.0043   5.0242   5.1368   5.2120   5.2818   5.3109   5.3656   5.6220
     5.6400   5.6889   5.7124   5.7811   5.8153   5.8448   5.9769   6.1001
     6.1317   6.1826   6.4881   6.5912   7.5607   7.6228   7.6251   7.8876
     7.8952   7.9375   8.0124   8.0495   8.0517   8.1860   8.1928   8.3559
     8.4226   8.4377   8.4488   8.4862   8.5155   8.5558   8.6702   8.6822
     8.8124   8.9609

[...]

          k =-0.3333 0.1925 0.0000 ( 25864 PWs)   bands (ev):

[...]

          k = 0.3333 0.1925 0.0000 ( 25864 PWs)   bands (ev):

    -7.9167  -7.8652  -7.7065  -7.0542  -7.0029  -6.8539  -6.7431  -6.7135
    -6.6275  -6.6064  -6.3821  -6.3529  -6.3354  -6.2248  -6.1237  -6.1154
    -6.0501  -5.9939  -5.8733  -5.8557  -5.8151  -5.7922  -5.6332  -5.3724
     0.3156   0.3691   0.5098   0.5353   0.5677   0.6797   0.7444   0.7605
     0.8727   0.9156   0.9683   0.9848   1.1207   1.1706   1.2147   1.2317
     1.3472   1.4149   1.6976   1.7548   1.8566   1.9177   1.9721   2.0709
     2.1722   2.1945   2.2739   2.2858   2.5017   2.5140   2.5316   2.5486
     2.6380   2.7013   2.8140   2.8413   2.8690   2.9966   3.0227   3.0625
     3.1915   3.1991   3.2454   3.3091   3.3385   3.3506   3.4622   3.5762
     3.6812   3.8020   3.8174   3.8967   4.0128   4.0497   4.0978   4.1615
     4.2279   4.2544   4.3652   4.3778   4.4854   4.5268   4.5625   4.6229
     4.6452   4.6988   4.7613   4.8172   4.9401   5.0646   5.1959   5.2189
     5.3016   5.4075   5.5691   5.6304   5.6774   5.7840   5.8188   5.8841
     6.0956   6.1233   6.2673   6.3149   7.6831   7.7389   7.7700   7.8053
     7.8764   7.9080   7.9872   8.0797   8.1052   8.2038   8.2355   8.2887
     8.3235   8.3747   8.3928   8.4543   8.5017   8.6241   8.6694   8.7605
     8.8222   8.8684

     the Fermi energy is     6.5496 ev

!    total energy              =    -844.63823934 Ry
     Harris-Foulkes estimate   =    -844.63823962 Ry
     estimated scf accuracy    <       0.00000041 Ry

     The total energy is the sum of the following terms:

     one-electron contribution =    -154.56406320 Ry
     hartree contribution      =     199.21432802 Ry
     xc contribution           =    -335.49874352 Ry
     ewald contribution        =    -553.80811875 Ry
     smearing contrib. (-TS)   =       0.01835811 Ry

     convergence has been achieved in  13 iterations

     Forces acting on atoms (cartesian axes, Ry/au):

     atom    1 type  1   force =     0.04001599    0.10714497    0.13698365
     atom    2 type  1   force =     0.26718278    0.15096280    0.15587476
     atom    3 type  1   force =     0.07785514   -0.16904032    0.08406176
     atom    4 type  1   force =    -0.15810860    0.01970984   -0.16937274
     atom    5 type  1   force =    -0.19025522    0.08483756   -0.01798490
     atom    6 type  1   force =     0.12202914    0.00939461    0.18216521
     atom    7 type  1   force =     0.07291943   -0.01852833   -0.12070024
     atom    8 type  1   force =     0.12989713    0.02701398    0.18047951
     atom    9 type  1   force =     0.07569645   -0.03198192    0.23842666
     atom   10 type  1   force =    -0.01872397    0.05152840    0.07043837
     atom   11 type  1   force =    -0.04301485   -0.01744551   -0.14367272
     atom   12 type  1   force =    -0.26430120    0.14652412   -0.20154398
     atom   13 type  2   force =    -0.07021723   -0.03677011   -0.00978223
     atom   14 type  2   force =    -0.05346599    0.00827789   -0.01515413
     atom   15 type  2   force =     0.23554918   -0.06600809    0.26069527
     atom   16 type  2   force =     0.03520067    0.01643297   -0.02527109
     atom   17 type  2   force =    -0.04406655   -0.02777130    0.04800939
     atom   18 type  2   force =    -0.08770798   -0.00492196   -0.23944658
     atom   19 type  2   force =     0.02297109   -0.08835389   -0.11176827
     atom   20 type  2   force =    -0.04487396    0.05626344   -0.00097178
     atom   21 type  2   force =    -0.08362634    0.08268876    0.08940888
     atom   22 type  2   force =     0.05060533   -0.08754113    0.12990625
     atom   23 type  2   force =     0.00493096    0.01126856   -0.07397670
     atom   24 type  2   force =    -0.04575338   -0.05032393   -0.04861008
     atom   25 type  2   force =     0.12568935   -0.00903070   -0.17800981
     atom   26 type  2   force =    -0.09976152   -0.01044678   -0.09858504
     atom   27 type  2   force =     0.02768565    0.02196482   -0.08723009
     atom   28 type  2   force =    -0.08505971   -0.00559701   -0.06166447
     atom   29 type  2   force =    -0.04281297   -0.13461977    0.15813139
     atom   30 type  2   force =    -0.02292300    0.02505481    0.06164030
     atom   31 type  2   force =    -0.04230170   -0.05483126    0.03950433
     atom   32 type  2   force =     0.00460752    0.06401314   -0.05678836
     atom   33 type  2   force =     0.01246859    0.05554337    0.00242752
     atom   34 type  2   force =     0.10872202   -0.01357752   -0.05172451
     atom   35 type  2   force =     0.05575384   -0.07257809   -0.02306729
     atom   36 type  2   force =    -0.07280607   -0.03925643   -0.10282824

     Total force =     1.061568     Total SCF correction =     0.001035

     General routines

     Parallel routines

   This run was terminated on:  21:34:44   3Aug2021

   JOB DONE.