     Program PWSCF v.6.4 starts on 24Dec2021 at 21: 2: 4

     R & G space division:  proc/nbgrp/npool/nimage =      40
     Waiting for input...
     Reading input from standard input
Warning: card    &IONS ignored
Warning: card      ION_DYNAMICS = 'BFGS' ignored
Warning: card   / ignored
Warning: card    &CELL ignored
Warning: card      CELL_DYNAMICS = 'BFGS', ignored
Warning: card    / ignored

     Current dimensions of program PWSCF are:
     Max number of different atomic species (ntypx) = 10
     Max number of k-points (npk) =  40000
     Max angular momentum in pseudopotentials (lmaxx) =  3

     bravais-lattice index     =            0
     lattice parameter (alat)  =      19.2268  a.u.
     unit-cell volume          =    9220.9977 (a.u.)^3
     number of atoms/cell      =           42
     number of atomic types    =            2
     number of electrons       =       252.00
     number of Kohn-Sham states=          151
     kinetic-energy cutoff     =      45.0000  Ry
     charge density cutoff     =     360.0000  Ry
     convergence threshold     =      1.0E-06
     mixing beta               =       0.7000
     number of iterations used =            8  local-TF  mixing
     Exchange-correlation      = SLA PW GGX GGC ( 1  4  2  2 0 0)

     celldm(1)=  19.226818  celldm(2)=   0.000000  celldm(3)=   0.000000
     celldm(4)=   0.000000  celldm(5)=   0.000000  celldm(6)=   0.000000

     crystal axes: (cart. coord. in units of alat)
               a(1) = (   1.000000   0.000000   0.000000 )
               a(2) = (  -0.087252   1.038301   0.000000 )
               a(3) = (  -0.231102  -0.587530   1.249489 )

     reciprocal axes: (cart. coord. in units 2 pi/alat)
               b(1) = (  1.000000  0.084033  0.224471 )
               b(2) = (  0.000000  0.963112  0.452871 )
               b(3) = (  0.000000  0.000000  0.800327 )

     PseudoPot. # 1 for Mo read from file:
     ~/pseudo/Mo.pw91-n-van.UPF
     MD5 check sum: Not computed, couldn't open file
     Pseudo is Ultrasoft + core correction, Zval =  6.0
     Generated by new atomic code, or converted to UPF format
     Using radial grid of  965 points,  3 beta functions with:
                l(1) =   1
                l(2) =   2
                l(3) =   2
     Q(r) pseudized with  8 coefficients,  rinner =    1.000   1.000   1.000
                                                       1.200   1.200

     PseudoPot. # 2 for S  read from file:
     ~/pseudo/S.pw91-van_ak.UPF
     MD5 check sum: Not computed, couldn't open file
     Pseudo is Ultrasoft, Zval =  6.0
     Generated by new atomic code, or converted to UPF format
     Using radial grid of  811 points,  6 beta functions with:
                l(1) =   0
                l(2) =   0
                l(3) =   1
                l(4) =   1
                l(5) =   2
                l(6) =   2
     Q(r) pseudized with  8 coefficients,  rinner =    1.100   1.100   1.100
                                                       1.100   1.100

     atomic species   valence    mass     pseudopotential
        Mo             6.00    95.50000     Mo( 1.00)
        S              6.00    32.06500     S ( 1.00)

     No symmetry found

   Cartesian axes

     site n.     atom                  positions (alat units)
         1           Mo  tau(   1) = (   0.7075963   0.3397566   0.8155364  )
         2           Mo  tau(   2) = (   0.7154731   0.1244238   1.0066320  )
         3           Mo  tau(   3) = (  -0.0750987   0.3258266   0.9896602  )
         4           Mo  tau(   4) = (  -0.0437614   0.1652772   0.7944122  )
         5           Mo  tau(   5) = (   0.3212788  -0.2511259   0.8008785  )
         6           Mo  tau(   6) = (   0.3324041  -0.4382099   1.0005040  )
         7           Mo  tau(   7) = (   0.5082764  -0.2128659   0.9986461  )
         8           Mo  tau(   8) = (   0.4499597   0.5935606   0.8119586  )
         9           Mo  tau(   9) = (   0.2194328   0.1575392   0.6404408  )
        10           Mo  tau(  10) = (   0.4687296   0.3471248   0.6336145  )
        11           Mo  tau(  11) = (   0.4797896   0.0267905   1.2070469  )
        12           Mo  tau(  12) = (   0.7120743  -0.1119823   1.1896097  )
        13           Mo  tau(  13) = (   0.6499896   0.5522459   0.6186399  )
        14           Mo  tau(  14) = (   0.0738034  -0.0639046   0.5880255  )
        15           S   tau(  15) = (   0.7046941   0.3555512   1.0589096  )
        16           S   tau(  16) = (   0.7337287   0.0986084   0.7721848  )
        17           S   tau(  17) = (   0.1817636   0.2278103   0.8570715  )
        18           S   tau(  18) = (   0.1199928   0.3947302   0.0735568  )
        19           S   tau(  19) = (   0.4898850   0.0380624   0.9735499  )
        20           S   tau(  20) = (   0.4598530   0.3482011   0.8599278  )
        21           S   tau(  21) = (   0.0712235  -0.1259836   0.3690526  )
        22           S   tau(  22) = (   0.2698176  -0.2269127   1.0200222  )
        23           S   tau(  23) = (   0.2106643   0.5516751   0.7811558  )
        24           S   tau(  24) = (   0.6893128   0.5840545   0.8369394  )
        25           S   tau(  25) = (   0.7512038  -0.1479553   0.9852834  )
        26           S   tau(  26) = (   0.4588464   0.1067432   0.6256865  )
        27           S   tau(  27) = (   0.0682037  -0.2403642   0.7466201  )
        28           S   tau(  28) = (   0.2602437   0.1042385   1.1891879  )
        29           S   tau(  29) = (  -0.0677952   0.3887532   0.7690274  )
        30           S   tau(  30) = (   0.2841973   0.3058028   0.4831722  )
        31           S   tau(  31) = (   0.6970518   0.1129083   1.2466028  )
        32           S   tau(  32) = (   0.6826992   0.3284236   0.5669562  )
        33           S   tau(  33) = (  -0.0043847   0.1484480   0.5556357  )
        34           S   tau(  34) = (  -0.0525186   0.0958812   1.0283001  )
        35           S   tau(  35) = (   0.6474222   0.6574464   0.1948735  )
        36           S   tau(  36) = (   0.5470757  -0.2165990   0.7613205  )
        37           S   tau(  37) = (   0.7718629   0.6892968   0.4905406  )
        38           S   tau(  38) = (   0.0916544   0.4559788   1.0987016  )
        39           S   tau(  39) = (   0.2769966  -0.0674487   0.6839211  )
        40           S   tau(  40) = (   0.4308929   0.5784357   0.5733275  )
        41           S   tau(  41) = (   0.5143503  -0.1935208   1.2493421  )
        42           S   tau(  42) = (   0.5575898  -0.4384749   1.0558255  )

     number of k points=     8  Marzari-Vanderbilt smearing, width (Ry)=  0.0200
                       cart. coord. in units 2pi/alat
        k(    1) = (   0.0000000   0.0000000   0.0000000), wk =   0.2500000
        k(    2) = (   0.0000000   0.0000000  -0.4001637), wk =   0.2500000
        k(    3) = (   0.0000000  -0.4815559  -0.2264356), wk =   0.2500000
        k(    4) = (   0.0000000  -0.4815559  -0.6265993), wk =   0.2500000
        k(    5) = (  -0.5000000  -0.0420165  -0.1122356), wk =   0.2500000
        k(    6) = (  -0.5000000  -0.0420165  -0.5123993), wk =   0.2500000
        k(    7) = (  -0.5000000  -0.5235724  -0.3386712), wk =   0.2500000
        k(    8) = (  -0.5000000  -0.5235724  -0.7388349), wk =   0.2500000

     Initial potential from superposition of free atoms

     starting charge  251.97792, renormalised to  252.00000

     negative rho (up, down):  3.622E-08 0.000E+00
     Starting wfcs are  238 randomized atomic wfcs

     Self-consistent Calculation

     iteration #  1     ecut=    45.00 Ry     beta= 0.70
     Davidson diagonalization with overlap
     ethr =  1.00E-02,  avg # of iterations =  2.0

     negative rho (up, down):  2.088E-06 0.000E+00

     total energy              =    -982.88453969 Ry
     Harris-Foulkes estimate   =    -986.47492916 Ry
     estimated scf accuracy    <      10.32858333 Ry

[...]

     iteration #  6     ecut=    45.00 Ry     beta= 0.70
     Davidson diagonalization with overlap
     c_bands:  1 eigenvalues not converged
     ethr =  1.24E-05,  avg # of iterations = 12.2

[...]

     total energy              =    -984.81243394 Ry
     Harris-Foulkes estimate   =    -984.81243354 Ry
     estimated scf accuracy    <       0.00000510 Ry

     iteration # 13     ecut=    45.00 Ry     beta= 0.70
     Davidson diagonalization with overlap
     ethr =  2.02E-09,  avg # of iterations =  2.0

[...]

     End of self-consistent calculation

          k = 0.0000 0.0000 0.0000 ( 47021 PWs)   bands (ev):

   -12.0374 -11.7081 -11.5290 -11.4424 -11.2328 -11.1549 -11.1356 -11.0567
   -11.0145 -10.9327 -10.8756 -10.8266 -10.7839 -10.7554 -10.6722 -10.6465
   -10.6306 -10.4777 -10.2338 -10.0054  -9.9371  -9.6419  -9.4048  -9.3133
    -9.2293  -9.0545  -8.7177  -8.6402  -3.8589  -3.7356  -3.7046  -3.5845
    -3.5326  -3.2740  -3.2391  -3.1569  -3.0748  -2.9746  -2.9241  -2.8799
    -2.7906  -2.7349  -2.6971  -2.6600  -2.6261  -2.5728  -2.4797  -2.4572
    -2.3891  -2.3529  -2.3091  -2.2593  -2.2088  -2.1483  -2.0784  -2.0616
    -2.0375  -1.9270  -1.8813  -1.8137  -1.8013  -1.7390  -1.7342  -1.6850
    -1.5968  -1.5122  -1.4035  -1.3716  -1.3373  -1.3145  -1.2549  -1.2370
    -1.2230  -1.1946  -1.1065  -1.0572  -0.9939  -0.9400  -0.9248  -0.8704
    -0.8319  -0.7258  -0.6234  -0.5944  -0.5371  -0.4839  -0.4478  -0.3997
    -0.3429  -0.3301  -0.2205  -0.1801  -0.1313  -0.1010  -0.0077   0.0517
     0.1267   0.1784   0.2975   0.3625   0.4500   0.4911   0.5002   0.5429
     0.6302   0.6739   0.7957   0.9732   0.9957   1.0500   1.1175   1.1896
     1.1974   1.2254   1.3278   1.3794   1.4222   1.4954   1.6034   1.6823
     1.7826   1.8773   1.9176   2.0209   2.1431   2.1722   2.3107   2.3958
     2.4617   2.5349   2.7006   2.7702   3.0525   3.1027   3.1382   3.1737
     3.1956   3.2668   3.2966   3.3691   3.4159   3.4925   3.5925   3.6474
     3.6850   3.7482   3.7925   3.8344   3.8438   3.9836   4.0165

[...]

          k = 0.0000-0.4816-0.6266 ( 46984 PWs)   bands (ev):

[...]

          k =-0.5000-0.0420-0.1122 ( 46988 PWs)   bands (ev):

[...]

          k =-0.5000-0.5236-0.7388 ( 46952 PWs)   bands (ev):

   -11.8601 -11.8154 -11.6814 -11.4354 -11.2429 -11.1751 -11.0970 -11.0574
   -11.0067 -10.9169 -10.8625 -10.8212 -10.8040 -10.7690 -10.6956 -10.6335
   -10.6019 -10.4584 -10.1932 -10.0158  -9.9330  -9.6433  -9.4043  -9.3096
    -9.2279  -9.0538  -8.7173  -8.6405  -3.7594  -3.7455  -3.6412  -3.5024
    -3.3916  -3.3581  -3.3257  -3.2690  -3.1684  -3.0122  -2.9987  -2.8912
    -2.8611  -2.8061  -2.7618  -2.6722  -2.5848  -2.5786  -2.4997  -2.4230
    -2.3797  -2.3705  -2.2933  -2.2683  -2.2031  -2.1824  -2.1594  -2.1331
    -2.0517  -2.0262  -1.9225  -1.8496  -1.8217  -1.6853  -1.6120  -1.5961
    -1.5632  -1.4825  -1.4271  -1.4037  -1.3350  -1.2998  -1.2882  -1.1641
    -1.1339  -1.0951  -1.0494  -1.0126  -0.9947  -0.9360  -0.8953  -0.7986
    -0.7675  -0.7418  -0.6386  -0.5826  -0.5485  -0.4888  -0.4392  -0.3838
    -0.3469  -0.2651  -0.2274  -0.1552  -0.1387  -0.0677  -0.0275   0.0570
     0.1806   0.2480   0.3126   0.3818   0.4190   0.4976   0.5143   0.5779
     0.6914   0.7581   0.8339   0.8424   0.9140   1.0444   1.0662   1.1126
     1.1707   1.2530   1.2816   1.3380   1.3945   1.5443   1.6291   1.7819
     1.7924   1.8426   1.9159   2.0057   2.0662   2.1101   2.3027   2.3619
     2.4673   2.5370   2.6574   2.8609   2.8962   2.9238   3.1186   3.1882
     3.2800   3.2983   3.3403   3.3912   3.4754   3.4897   3.5913   3.6164
     3.6395   3.7098   3.7613   3.7950   3.8234   3.9119   4.0185

     the Fermi energy is     2.2211 ev

!    total energy              =    -984.81243388 Ry
     Harris-Foulkes estimate   =    -984.81243443 Ry
     estimated scf accuracy    <       0.00000086 Ry

     The total energy is the sum of the following terms:

     one-electron contribution =   -1077.96390083 Ry
     hartree contribution      =     641.51795569 Ry
     xc contribution           =    -388.57009593 Ry
     ewald contribution        =    -159.80238878 Ry
     smearing contrib. (-TS)   =       0.00599598 Ry

     convergence has been achieved in  13 iterations

     negative rho (up, down):  1.524E-06 0.000E+00

     Forces acting on atoms (cartesian axes, Ry/au):

     atom    1 type  1   force =     0.00791256   -0.03832089    0.00419729
     atom    2 type  1   force =     0.01248025   -0.02605342   -0.00101695
     atom    3 type  1   force =     0.00980955    0.04883545    0.06665614
     atom    4 type  1   force =     0.01476246   -0.04594715   -0.01641130
     atom    5 type  1   force =    -0.03761252   -0.09618596   -0.00846040
     atom    6 type  1   force =    -0.01512879   -0.06752976    0.02978019
     atom    7 type  1   force =     0.02340363    0.00567018    0.00409318
     atom    8 type  1   force =    -0.04659593    0.00282214    0.02280782
     atom    9 type  1   force =     0.02876809   -0.01644009    0.04524697
     atom   10 type  1   force =    -0.06595251   -0.02045693    0.00309414
     atom   11 type  1   force =    -0.06421597    0.05996968    0.07306137
     atom   12 type  1   force =     0.17092423   -0.03002543    0.17927587
     atom   13 type  1   force =     0.07530460    0.03488179   -0.06660473
     atom   14 type  1   force =    -0.01450795   -0.10211754   -0.07704307
     atom   15 type  2   force =     0.00394527   -0.00398395   -0.01852400
     atom   16 type  2   force =    -0.03214607   -0.00660147   -0.01557992
     atom   17 type  2   force =     0.01082771   -0.03159199   -0.02482326
     atom   18 type  2   force =    -0.10108531    0.04119642   -0.06741722
     atom   19 type  2   force =    -0.01493823    0.00172804   -0.01586052
     atom   20 type  2   force =     0.02000388   -0.00090798   -0.00761621
     atom   21 type  2   force =     0.01591984    0.02383286    0.09802878
     atom   22 type  2   force =    -0.01768292    0.07243005    0.03213198
     atom   23 type  2   force =     0.00827391    0.00819695    0.00098208
     atom   24 type  2   force =     0.01895761    0.01233401    0.00761685
     atom   25 type  2   force =     0.01545234   -0.00394306   -0.09884947
     atom   26 type  2   force =    -0.00719508    0.03496075   -0.02326482
     atom   27 type  2   force =    -0.00238919    0.01821815   -0.01502641
     atom   28 type  2   force =     0.04685966   -0.01435515    0.03406023
     atom   29 type  2   force =     0.01497347    0.04756389   -0.00833302
     atom   30 type  2   force =     0.00221970    0.02453397    0.00514514
     atom   31 type  2   force =    -0.00189975   -0.01593405    0.00692961
     atom   32 type  2   force =     0.03789537    0.00912660   -0.00091790
     atom   33 type  2   force =    -0.01262453    0.02520734    0.00153721
     atom   34 type  2   force =     0.02570671    0.01825619   -0.00866198
     atom   35 type  2   force =    -0.00921272    0.00577895   -0.07942539
     atom   36 type  2   force =     0.01269257    0.03600764    0.01163606
     atom   37 type  2   force =    -0.03938114   -0.03959768    0.01558269
     atom   38 type  2   force =    -0.00606522    0.00474571   -0.01159474
     atom   39 type  2   force =    -0.01342428    0.07762069   -0.04437208
     atom   40 type  2   force =    -0.01193959   -0.01030552   -0.02725533
     atom   41 type  2   force =    -0.04885350   -0.03722694    0.00404288
     atom   42 type  2   force =    -0.01424217   -0.00639251   -0.00884774

     Total force =     0.478542     Total SCF correction =     0.001804

     General routines

     Parallel routines

   This run was terminated on:  21: 6:35  24Dec2021

   JOB DONE.