     Program PWSCF v.6.4 starts on 23Dec2021 at 23:41: 5

     R & G space division:  proc/nbgrp/npool/nimage =      40
     Waiting for input...
     Reading input from standard input
Warning: card    &IONS ignored
Warning: card      ION_DYNAMICS = 'BFGS' ignored
Warning: card   / ignored
Warning: card    &CELL ignored
Warning: card      CELL_DYNAMICS = 'BFGS', ignored
Warning: card    / ignored

     Current dimensions of program PWSCF are:
     Max number of different atomic species (ntypx) = 10
     Max number of k-points (npk) =  40000
     Max angular momentum in pseudopotentials (lmaxx) =  3

     bravais-lattice index     =            0
     lattice parameter (alat)  =      17.7252  a.u.
     unit-cell volume          =    6260.5231 (a.u.)^3
     number of atoms/cell      =           27
     number of atomic types    =            2
     number of electrons       =       162.00
     number of Kohn-Sham states=           97
     kinetic-energy cutoff     =      45.0000  Ry
     charge density cutoff     =     360.0000  Ry
     convergence threshold     =      1.0E-06
     mixing beta               =       0.7000
     number of iterations used =            8  local-TF  mixing
     Exchange-correlation      = SLA PW GGX GGC ( 1  4  2  2 0 0)

     celldm(1)=  17.725166  celldm(2)=   0.000000  celldm(3)=   0.000000
     celldm(4)=   0.000000  celldm(5)=   0.000000  celldm(6)=   0.000000

     crystal axes: (cart. coord. in units of alat)
               a(1) = (   1.000000   0.000000   0.000000 )
               a(2) = (   0.219695   1.037455   0.000000 )
               a(3) = (   0.049219   0.272544   1.083604 )

     reciprocal axes: (cart. coord. in units 2 pi/alat)
               b(1) = (  1.000000 -0.211763  0.007840 )
               b(2) = (  0.000000  0.963897 -0.242436 )
               b(3) = (  0.000000  0.000000  0.922847 )

     PseudoPot. # 1 for Mo read from file:
     ~/pseudo/Mo.pw91-n-van.UPF
     MD5 check sum: Not computed, couldn't open file
     Pseudo is Ultrasoft + core correction, Zval =  6.0
     Generated by new atomic code, or converted to UPF format
     Using radial grid of  965 points,  3 beta functions with:
                l(1) =   1
                l(2) =   2
                l(3) =   2
     Q(r) pseudized with  8 coefficients,  rinner =    1.000   1.000   1.000
                                                       1.200   1.200

     PseudoPot. # 2 for S  read from file:
     ~/pseudo/S.pw91-van_ak.UPF
     MD5 check sum: Not computed, couldn't open file
     Pseudo is Ultrasoft, Zval =  6.0
     Generated by new atomic code, or converted to UPF format
     Using radial grid of  811 points,  6 beta functions with:
                l(1) =   0
                l(2) =   0
                l(3) =   1
                l(4) =   1
                l(5) =   2
                l(6) =   2
     Q(r) pseudized with  8 coefficients,  rinner =    1.100   1.100   1.100
                                                       1.100   1.100

     atomic species   valence    mass     pseudopotential
        Mo             6.00    95.50000     Mo( 1.00)
        S              6.00    32.06500     S ( 1.00)

     No symmetry found

   Cartesian axes

     site n.     atom                  positions (alat units)
         1           Mo  tau(   1) = (   0.4876523   0.7845551   0.8235465  )
         2           Mo  tau(   2) = (   0.3734006   0.5021425   0.7714405  )
         3           Mo  tau(   3) = (   1.1299244   0.6727549   0.5998222  )
         4           Mo  tau(   4) = (   0.8230439   0.7138255   0.6687336  )
         5           Mo  tau(   5) = (   0.5186507   0.2881472   0.9679402  )
         6           Mo  tau(   6) = (   0.7645844   0.8844004   0.8925791  )
         7           Mo  tau(   7) = (   0.8310778   0.9583821   0.1124643  )
         8           Mo  tau(   8) = (   0.9446355   0.8301888   0.3897710  )
         9           Mo  tau(   9) = (   0.6546283   0.5800961   0.9501074  )
        10           S   tau(  10) = (   0.8851662   1.1108838   0.9284666  )
        11           S   tau(  11) = (   0.5834892   0.9609363   0.0899341  )
        12           S   tau(  12) = (   0.8717445   1.0652639   0.3380599  )
        13           S   tau(  13) = (   0.6494207   0.9195049   0.6792007  )
        14           S   tau(  14) = (   0.9649919   0.4940111   0.6222695  )
        15           S   tau(  15) = (   0.5953680   0.5736816   0.6990492  )
        16           S   tau(  16) = (   0.7598343   0.3648254   1.0383165  )
        17           S   tau(  17) = (   0.9408373   0.7295386   0.1512311  )
        18           S   tau(  18) = (   0.3855372   0.2439791   0.7625203  )
        19           S   tau(  19) = (   0.5956007   0.7975590   1.0589484  )
        20           S   tau(  20) = (   0.3029618   0.5023981   0.5164485  )
        21           S   tau(  21) = (   0.1982463   0.7926569   0.3762795  )
        22           S   tau(  22) = (   0.3484361   1.0092778   0.9142042  )
        23           S   tau(  23) = (   0.8946255   0.6718855   0.9198326  )
        24           S   tau(  24) = (   0.4052388   0.5139570   1.0273664  )
        25           S   tau(  25) = (   0.2296629   0.7079661   0.8200782  )
        26           S   tau(  26) = (   1.0090873   0.9059809   0.6288834  )
        27           S   tau(  27) = (   0.7454610   0.6746790   0.4214924  )

     number of k points=     8  Marzari-Vanderbilt smearing, width (Ry)=  0.0200
                       cart. coord. in units 2pi/alat
        k(    1) = (   0.0000000   0.0000000   0.0000000), wk =   0.2500000
        k(    2) = (   0.0000000   0.0000000  -0.4614233), wk =   0.2500000
        k(    3) = (   0.0000000  -0.4819487   0.1212179), wk =   0.2500000
        k(    4) = (   0.0000000  -0.4819487  -0.3402054), wk =   0.2500000
        k(    5) = (  -0.5000000   0.1058815  -0.0039200), wk =   0.2500000
        k(    6) = (  -0.5000000   0.1058815  -0.4653433), wk =   0.2500000
        k(    7) = (  -0.5000000  -0.3760672   0.1172978), wk =   0.2500000
        k(    8) = (  -0.5000000  -0.3760672  -0.3441254), wk =   0.2500000

     Initial potential from superposition of free atoms

     starting charge  161.98581, renormalised to  162.00000
     Starting wfcs are  153 randomized atomic wfcs

     Self-consistent Calculation

     iteration #  1     ecut=    45.00 Ry     beta= 0.70
     Davidson diagonalization with overlap
     ethr =  1.00E-02,  avg # of iterations =  2.0

     total energy              =    -631.67373400 Ry
     Harris-Foulkes estimate   =    -634.25061958 Ry
     estimated scf accuracy    <       7.18950895 Ry

[...]

     negative rho (up, down):  1.071E-08 0.000E+00

     total energy              =    -633.04459959 Ry
     Harris-Foulkes estimate   =    -633.04459969 Ry
     estimated scf accuracy    <       0.00000108 Ry

     iteration # 15     ecut=    45.00 Ry     beta= 0.70
     Davidson diagonalization with overlap
     ethr =  6.64E-10,  avg # of iterations =  3.2

[...]

     End of self-consistent calculation

          k = 0.0000 0.0000 0.0000 ( 31871 PWs)   bands (ev):

   -12.3409 -11.7560 -11.4787 -11.3039 -11.2227 -11.0900 -10.9959 -10.9736
   -10.6961 -10.5398 -10.5139 -10.4809 -10.4645 -10.2823 -10.2031  -9.9763
    -9.9568  -8.9940  -4.1642  -3.9602  -3.5850  -3.5651  -3.3991  -3.3270
    -3.0845  -2.9803  -2.8569  -2.7857  -2.7000  -2.6580  -2.6129  -2.4800
    -2.4059  -2.3737  -2.3383  -2.2866  -2.2395  -2.2003  -2.0336  -1.9340
    -1.8381  -1.8163  -1.7307  -1.6758  -1.6326  -1.5742  -1.5071  -1.4533
    -1.3983  -1.3384  -1.3202  -1.2288  -1.1805  -1.1585  -0.9693  -0.8470
    -0.7840  -0.7225  -0.5561  -0.4992  -0.4715  -0.3295  -0.2411  -0.0327
     0.0244   0.0381   0.2925   0.4214   0.4958   0.6119   0.6527   0.7133
     0.9385   1.1337   1.1878   1.3502   1.4479   1.4793   1.4958   1.5446
     1.6694   1.8179   1.9333   2.0738   2.2884   2.3294   2.4100   2.5137
     2.6276   2.8452   3.0216   3.0452   3.1188   3.1666   3.3071   3.4512
     3.4990

[...]

          k = 0.0000-0.4819-0.3402 ( 31908 PWs)   bands (ev):

[...]

          k =-0.5000 0.1059-0.0039 ( 31904 PWs)   bands (ev):

[...]

          k =-0.5000-0.3761-0.3441 ( 31972 PWs)   bands (ev):

   -12.3121 -11.6732 -11.6023 -11.4043 -11.2022 -11.0721 -11.0277 -10.8965
   -10.6910 -10.5637 -10.5130 -10.5026 -10.3794 -10.3125 -10.1891  -9.9671
    -9.9595  -8.9912  -4.1803  -3.8263  -3.8034  -3.5935  -3.3070  -3.2589
    -3.1019  -2.9255  -2.8475  -2.8275  -2.7741  -2.6783  -2.5162  -2.5053
    -2.4688  -2.3843  -2.3343  -2.2862  -2.2197  -2.1756  -2.0713  -2.0400
    -1.9289  -1.8300  -1.7647  -1.6943  -1.6200  -1.6021  -1.5365  -1.4281
    -1.3752  -1.3301  -1.2294  -1.1196  -1.0646  -1.0503  -0.9967  -0.9484
    -0.6928  -0.6820  -0.5706  -0.5187  -0.4535  -0.2927  -0.2559  -0.1245
     0.0048   0.1974   0.2841   0.3194   0.5410   0.6476   0.6706   0.8622
     0.9218   1.0576   1.1509   1.2166   1.3141   1.4239   1.4816   1.5042
     1.7140   1.7761   2.0014   2.0978   2.2773   2.2957   2.4830   2.5753
     2.6923   2.7922   2.9005   2.9934   3.1201   3.2715   3.3324   3.4214
     3.5161

     the Fermi energy is     1.7483 ev

!    total energy              =    -633.04459956 Ry
     Harris-Foulkes estimate   =    -633.04459978 Ry
     estimated scf accuracy    <       0.00000035 Ry

     The total energy is the sum of the following terms:

     one-electron contribution =    -496.21227844 Ry
     hartree contribution      =     311.99226039 Ry
     xc contribution           =    -249.24454812 Ry
     ewald contribution        =    -199.58724676 Ry
     smearing contrib. (-TS)   =       0.00721337 Ry

     convergence has been achieved in  15 iterations

     negative rho (up, down):  3.291E-08 0.000E+00

     Forces acting on atoms (cartesian axes, Ry/au):

     atom    1 type  1   force =    -0.04188945    0.14081912    0.06457455
     atom    2 type  1   force =     0.00197442   -0.01736114   -0.06171030
     atom    3 type  1   force =    -0.00155619   -0.02980614   -0.02911411
     atom    4 type  1   force =     0.03739394    0.03029243   -0.04691057
     atom    5 type  1   force =    -0.03648291    0.07494178   -0.05302366
     atom    6 type  1   force =     0.01280560    0.03241721    0.05158977
     atom    7 type  1   force =     0.03155671   -0.08922853    0.06640528
     atom    8 type  1   force =    -0.05292259   -0.01993464   -0.01462288
     atom    9 type  1   force =    -0.04805015   -0.05268203   -0.06360881
     atom   10 type  2   force =    -0.01216548   -0.03144121   -0.00394367
     atom   11 type  2   force =     0.01965121   -0.00419389    0.00967431
     atom   12 type  2   force =     0.00092209   -0.01672968   -0.01569375
     atom   13 type  2   force =    -0.01220599   -0.00052754   -0.02953956
     atom   14 type  2   force =     0.00483255    0.01709770   -0.00170745
     atom   15 type  2   force =     0.02135909   -0.02152567    0.01112982
     atom   16 type  2   force =     0.01933944   -0.01184285    0.00315271
     atom   17 type  2   force =    -0.01389198    0.06056031   -0.00811274
     atom   18 type  2   force =     0.00387799    0.00745403    0.00849998
     atom   19 type  2   force =    -0.02277224    0.02370131   -0.00871279
     atom   20 type  2   force =    -0.00111132    0.00149780    0.03139949
     atom   21 type  2   force =    -0.03075667   -0.02539863    0.01017938
     atom   22 type  2   force =     0.04837419   -0.07407982   -0.04043593
     atom   23 type  2   force =     0.02484162   -0.00066835    0.01510542
     atom   24 type  2   force =     0.00487353   -0.00852558    0.04148470
     atom   25 type  2   force =     0.00419651    0.01361287    0.04769350
     atom   26 type  2   force =    -0.01143723   -0.02782732    0.02197799
     atom   27 type  2   force =     0.04924332    0.02937845   -0.00573070

     Total force =     0.328595     Total SCF correction =     0.001078

     General routines

     Parallel routines

   This run was terminated on:  23:43: 5  23Dec2021

   JOB DONE.