     Program PWSCF v.6.4 starts on  3Aug2021 at 21:17: 1

     R & G space division:  proc/nbgrp/npool/nimage =      40
     Waiting for input...
     Reading input from standard input
Warning: card    &IONS ignored
Warning: card      ION_DYNAMICS = 'BFGS' ignored
Warning: card   / ignored
Warning: card    &CELL ignored
Warning: card      CELL_DYNAMICS = 'BFGS', ignored
Warning: card    / ignored

     Current dimensions of program PWSCF are:
     Max number of different atomic species (ntypx) = 10
     Max number of k-points (npk) =  40000
     Max angular momentum in pseudopotentials (lmaxx) =  3

     bravais-lattice index     =            0
     lattice parameter (alat)  =      12.6618  a.u.
     unit-cell volume          =    5873.0324 (a.u.)^3
     number of atoms/cell      =           36
     number of atomic types    =            2
     number of electrons       =       216.00
     number of Kohn-Sham states=          130
     kinetic-energy cutoff     =      45.0000  Ry
     charge density cutoff     =     360.0000  Ry
     convergence threshold     =      1.0E-06
     mixing beta               =       0.7000
     number of iterations used =            8  local-TF  mixing
     Exchange-correlation      = SLA PW GGX GGC ( 1  4  2  2 0 0)

     celldm(1)=  12.661831  celldm(2)=   0.000000  celldm(3)=   0.000000
     celldm(4)=   0.000000  celldm(5)=   0.000000  celldm(6)=   0.000000

     crystal axes: (cart. coord. in units of alat)
               a(1) = (   1.000000   0.000000   0.000000 )
               a(2) = (  -0.500000   0.866025   0.000000 )
               a(3) = (   0.000000   0.000000   3.340736 )

     reciprocal axes: (cart. coord. in units 2 pi/alat)
               b(1) = (  1.000000  0.577350  0.000000 )
               b(2) = (  0.000000  1.154700  0.000000 )
               b(3) = (  0.000000  0.000000  0.299335 )

     PseudoPot. # 1 for Mo read from file:
     ~/pseudo/Mo.pw91-n-van.UPF
     MD5 check sum: Not computed, couldn't open file
     Pseudo is Ultrasoft + core correction, Zval =  6.0
     Generated by new atomic code, or converted to UPF format
     Using radial grid of  965 points,  3 beta functions with:
                l(1) =   1
                l(2) =   2
                l(3) =   2
     Q(r) pseudized with  8 coefficients,  rinner =    1.000   1.000   1.000
                                                       1.200   1.200

     PseudoPot. # 2 for S  read from file:
     ~/pseudo/S.pw91-van_ak.UPF
     MD5 check sum: Not computed, couldn't open file
     Pseudo is Ultrasoft, Zval =  6.0
     Generated by new atomic code, or converted to UPF format
     Using radial grid of  811 points,  6 beta functions with:
                l(1) =   0
                l(2) =   0
                l(3) =   1
                l(4) =   1
                l(5) =   2
                l(6) =   2
     Q(r) pseudized with  8 coefficients,  rinner =    1.100   1.100   1.100
                                                       1.100   1.100

     atomic species   valence    mass     pseudopotential
        Mo             6.00    95.50000     Mo( 1.00)
        S              6.00    32.06500     S ( 1.00)

     No symmetry found

   Cartesian axes

     site n.     atom                  positions (alat units)
         1           Mo  tau(   1) = (   0.2652027   0.1680603   1.1029795  )
         2           Mo  tau(   2) = (   0.0275763   0.5725267   1.1024756  )
         3           Mo  tau(   3) = (   0.7596027   0.1290524   1.0890601  )
         4           Mo  tau(   4) = (   0.5188718   0.5676521   1.0918378  )
         5           Mo  tau(   5) = (  -0.0215985   0.2970930   2.2076085  )
         6           Mo  tau(   6) = (  -0.2498637   0.7197625   2.1966269  )
         7           Mo  tau(   7) = (   0.4805975   0.2758518   2.2451241  )
         8           Mo  tau(   8) = (   0.2723019   0.7385313   2.2159306  )
         9           Mo  tau(   9) = (  -0.0175364   0.0027924   3.3159985  )
        10           Mo  tau(  10) = (  -0.2570120   0.4240731   3.3123889  )
        11           Mo  tau(  11) = (   0.4910730   0.0227653   3.3228733  )
        12           Mo  tau(  12) = (   0.2426363   0.4460651   3.3141768  )
        13           S   tau(  13) = (  -0.0105638   0.2833946   0.2171351  )
        14           S   tau(  14) = (  -0.2600248   0.7092636   0.2193272  )
        15           S   tau(  15) = (   0.4989513   0.2889167   0.2147188  )
        16           S   tau(  16) = (   0.2512445   0.7015182   0.2225804  )
        17           S   tau(  17) = (   0.0070539  -0.0012833   0.8965244  )
        18           S   tau(  18) = (  -0.2499660   0.4329422   0.8377000  )
        19           S   tau(  19) = (   0.4929645   0.0208064   0.8877622  )
        20           S   tau(  20) = (   0.2618012   0.4115413   0.8504998  )
        21           S   tau(  21) = (   0.0116029  -0.0235130   1.3438615  )
        22           S   tau(  22) = (  -0.2442074   0.4120043   1.3377286  )
        23           S   tau(  23) = (   0.4833229  -0.0016635   1.3334264  )
        24           S   tau(  24) = (   0.2478499   0.4181890   1.3839450  )
        25           S   tau(  25) = (   0.2653705   0.1642230   1.9650241  )
        26           S   tau(  26) = (  -0.0091148   0.5599849   1.9586248  )
        27           S   tau(  27) = (   0.7509262   0.1612890   2.0056779  )
        28           S   tau(  28) = (   0.5072913   0.5988481   1.9617450  )
        29           S   tau(  29) = (   0.2229432   0.1384219   2.4828348  )
        30           S   tau(  30) = (   0.0066208   0.5600266   2.4483151  )
        31           S   tau(  31) = (   0.7486635   0.1330247   2.4441138  )
        32           S   tau(  32) = (   0.5249335   0.5727397   2.4874535  )
        33           S   tau(  33) = (   0.0098106   0.3085015   3.1147488  )
        34           S   tau(  34) = (  -0.2512307   0.7219657   3.1245302  )
        35           S   tau(  35) = (   0.5078130   0.3041227   3.0703910  )
        36           S   tau(  36) = (   0.2611211   0.7122228   3.0686751  )

     number of k points=     5  Marzari-Vanderbilt smearing, width (Ry)=  0.0200
                       cart. coord. in units 2pi/alat
        k(    1) = (   0.0000000   0.0000000   0.0000000), wk =   0.2222222
        k(    2) = (   0.0000000   0.3849001   0.0000000), wk =   0.4444444
        k(    3) = (   0.3333333   0.5773502   0.0000000), wk =   0.4444444
        k(    4) = (  -0.3333333   0.1924501   0.0000000), wk =   0.4444444
        k(    5) = (   0.3333333   0.1924501   0.0000000), wk =   0.4444444

     Initial potential from superposition of free atoms

     starting charge  215.98107, renormalised to  216.00000
     Starting wfcs are  204 randomized atomic wfcs

     Self-consistent Calculation

     iteration #  1     ecut=    45.00 Ry     beta= 0.70
     Davidson diagonalization with overlap
     ethr =  1.00E-02,  avg # of iterations =  2.0

     total energy              =    -843.04181603 Ry
     Harris-Foulkes estimate   =    -846.43885122 Ry
     estimated scf accuracy    <       9.06668727 Ry

[...]

     iteration #  6     ecut=    45.00 Ry     beta= 0.70
     Davidson diagonalization with overlap
     c_bands:  1 eigenvalues not converged
     ethr =  5.81E-06,  avg # of iterations =  9.0

[...]

     total energy              =    -844.85296354 Ry
     Harris-Foulkes estimate   =    -844.85296363 Ry
     estimated scf accuracy    <       0.00000104 Ry

     iteration # 17     ecut=    45.00 Ry     beta= 0.70
     Davidson diagonalization with overlap
     ethr =  4.81E-10,  avg # of iterations =  1.0

     End of self-consistent calculation

          k = 0.0000 0.0000 0.0000 ( 29989 PWs)   bands (ev):

    -9.2427  -9.0338  -9.0222  -8.1174  -8.0030  -7.9555  -7.9536  -7.8591
    -7.7955  -7.7721  -7.6105  -7.5762  -7.4597  -7.4071  -7.3523  -7.3513
    -7.2629  -7.2385  -7.1317  -7.1307  -7.0520  -7.0370  -6.9765  -6.9315
    -0.8806  -0.8359  -0.7003  -0.6934  -0.6761  -0.6601  -0.6487  -0.6150
    -0.4702  -0.4380  -0.3808  -0.2418   0.1360   0.2148   0.2476   0.2515
     0.2727   0.2838   0.3767   0.4862   0.5160   0.5571   0.6873   0.7603
     0.7720   0.7955   0.9529   1.0797   1.0905   1.1664   1.2459   1.2518
     1.3679   1.4237   1.4327   1.5798   1.6576   1.6674   1.6991   1.9211
     2.0141   2.0945   2.1362   2.1546   2.2026   2.4598   2.4787   2.5757
     2.6322   2.6900   2.7110   2.8431   2.8819   2.8963   2.9271   2.9784
     3.0829   3.1320   3.1729   3.2197   3.2389   3.2534   3.3158   3.3338
     3.3642   3.4429   3.5143   3.5174   3.5805   3.6265   3.7401   3.8792
     3.9752   4.0412   4.0556   4.1134   4.1255   4.2455   4.2648   4.3015
     4.3265   4.8270   4.9425   5.0095   5.8735   5.8769   5.9589   5.9771
     6.0032   6.0502   6.0910   6.1394   6.2634   6.2783   6.3188   6.3332
     6.4114   6.4512   6.4656   6.4804   6.4980   6.5590   6.5833   6.5968
     6.7081   6.7900

[...]

          k =-0.3333 0.1925 0.0000 ( 29950 PWs)   bands (ev):

[...]

          k = 0.3333 0.1925 0.0000 ( 29950 PWs)   bands (ev):

    -8.9647  -8.8262  -8.7622  -8.2286  -8.2031  -8.0952  -7.9380  -7.8588
    -7.8260  -7.7244  -7.6229  -7.5844  -7.5360  -7.5152  -7.4373  -7.4251
    -7.3305  -7.2377  -7.2330  -7.1650  -7.1221  -7.0631  -7.0189  -7.0134
    -0.5811  -0.5002  -0.4415  -0.4146  -0.3860  -0.2999  -0.2390  -0.1846
    -0.1141  -0.0524  -0.0108   0.0948   0.1623   0.1655   0.2144   0.2571
     0.3297   0.4502   0.5013   0.7330   0.7382   0.7609   0.8234   0.8808
     0.9000   0.9765   1.0257   1.1388   1.1878   1.2208   1.2974   1.3371
     1.3782   1.4292   1.4707   1.4929   1.6121   1.6213   1.7148   1.8294
     1.8528   1.9181   2.0007   2.1032   2.1385   2.1997   2.2074   2.2392
     2.3077   2.3194   2.4470   2.5069   2.5476   2.5988   2.6876   2.7080
     2.7469   2.7998   2.8565   2.8635   2.8883   3.0044   3.0927   3.1300
     3.1548   3.1981   3.2196   3.3670   3.3963   3.4766   3.5275   3.6378
     3.7882   3.8243   3.8410   3.8994   4.0248   4.0463   4.3018   4.3080
     4.3691   4.4886   4.5901   4.6564   5.8223   5.8315   5.9311   5.9955
     6.0164   6.0415   6.0944   6.1787   6.2208   6.2509   6.3000   6.3123
     6.3614   6.3794   6.3948   6.4203   6.4871   6.5161   6.5547   6.6316
     6.7107   6.7539

     the Fermi energy is     4.9150 ev

!    total energy              =    -844.85296306 Ry
     Harris-Foulkes estimate   =    -844.85296358 Ry
     estimated scf accuracy    <       0.00000055 Ry

     The total energy is the sum of the following terms:

     one-electron contribution =    -215.52592266 Ry
     hartree contribution      =     217.24789549 Ry
     xc contribution           =    -331.94121928 Ry
     ewald contribution        =    -514.65235038 Ry
     smearing contrib. (-TS)   =       0.01863375 Ry

     convergence has been achieved in  17 iterations

     Forces acting on atoms (cartesian axes, Ry/au):

     atom    1 type  1   force =    -0.09201972   -0.07828277    0.10238076
     atom    2 type  1   force =    -0.07936803   -0.01402159    0.01326899
     atom    3 type  1   force =    -0.03738733    0.07798625    0.12172054
     atom    4 type  1   force =    -0.03525965   -0.04099426    0.06520308
     atom    5 type  1   force =     0.14835769   -0.02160238    0.07080158
     atom    6 type  1   force =     0.01405736    0.01898412    0.07169869
     atom    7 type  1   force =     0.03777989    0.06528416   -0.03913460
     atom    8 type  1   force =    -0.05412669   -0.12061636   -0.00669985
     atom    9 type  1   force =     0.04139435   -0.02020966    0.07707748
     atom   10 type  1   force =     0.00323709    0.04064544    0.11532899
     atom   11 type  1   force =     0.05257693   -0.09257536    0.01713507
     atom   12 type  1   force =     0.09088021   -0.02787393    0.08446939
     atom   13 type  2   force =     0.00426138    0.00914843   -0.02978322
     atom   14 type  2   force =    -0.00140189    0.02863953   -0.04151598
     atom   15 type  2   force =    -0.01719405    0.02511527   -0.02352926
     atom   16 type  2   force =    -0.02541100    0.06458196   -0.04485152
     atom   17 type  2   force =     0.05137350   -0.00666347   -0.08511535
     atom   18 type  2   force =     0.03689361   -0.00925008    0.07365072
     atom   19 type  2   force =     0.04115558   -0.06891433   -0.06630439
     atom   20 type  2   force =     0.00645330    0.07449409    0.03446864
     atom   21 type  2   force =    -0.00290247    0.02672739   -0.05395482
     atom   22 type  2   force =     0.02427687    0.01072162   -0.07359886
     atom   23 type  2   force =     0.06650541   -0.00725614   -0.01499025
     atom   24 type  2   force =     0.01975287    0.03492280   -0.11673773
     atom   25 type  2   force =    -0.03574187   -0.02919706    0.08053383
     atom   26 type  2   force =     0.02050572    0.05314934    0.05201367
     atom   27 type  2   force =    -0.09511852   -0.03939574   -0.07347355
     atom   28 type  2   force =    -0.01686344   -0.02864197    0.06841710
     atom   29 type  2   force =     0.01916653   -0.00265238   -0.10552710
     atom   30 type  2   force =    -0.00331040    0.06347106   -0.04884618
     atom   31 type  2   force =    -0.00791845    0.03723415    0.04136271
     atom   32 type  2   force =    -0.02632867    0.00462086   -0.11163636
     atom   33 type  2   force =    -0.05869243   -0.07055748   -0.11969599
     atom   34 type  2   force =    -0.01659272    0.02387232   -0.09695065
     atom   35 type  2   force =    -0.03449556   -0.02508076    0.02836092
     atom   36 type  2   force =    -0.03849539    0.04418695    0.03445349

     Total force =     0.597322     Total SCF correction =     0.001715

     General routines

     Parallel routines

   This run was terminated on:  21:18:56   3Aug2021

   JOB DONE.