     Program PWSCF v.6.4 starts on 19Nov2021 at 20: 5:40

     R & G space division:  proc/nbgrp/npool/nimage =      40
     Waiting for input...
     Reading input from standard input
Warning: card    &IONS ignored
Warning: card      ION_DYNAMICS = 'BFGS' ignored
Warning: card   / ignored
Warning: card    &CELL ignored
Warning: card      CELL_DYNAMICS = 'BFGS', ignored
Warning: card    / ignored

     Current dimensions of program PWSCF are:
     Max number of different atomic species (ntypx) = 10
     Max number of k-points (npk) =  40000
     Max angular momentum in pseudopotentials (lmaxx) =  3

     bravais-lattice index     =            0
     lattice parameter (alat)  =      11.7611  a.u.
     unit-cell volume          =    6571.8167 (a.u.)^3
     number of atoms/cell      =           36
     number of atomic types    =            2
     number of electrons       =       216.00
     number of Kohn-Sham states=          130
     kinetic-energy cutoff     =      45.0000  Ry
     charge density cutoff     =     360.0000  Ry
     convergence threshold     =      1.0E-06
     mixing beta               =       0.7000
     number of iterations used =            8  local-TF  mixing
     Exchange-correlation      = SLA PW GGX GGC ( 1  4  2  2 0 0)

     celldm(1)=  11.761066  celldm(2)=   0.000000  celldm(3)=   0.000000
     celldm(4)=   0.000000  celldm(5)=   0.000000  celldm(6)=   0.000000

     crystal axes: (cart. coord. in units of alat)
               a(1) = (   1.000000   0.000000   0.000000 )
               a(2) = (  -0.001666   1.816256   0.000000 )
               a(3) = (   0.095416   0.706575   2.224172 )

     reciprocal axes: (cart. coord. in units 2 pi/alat)
               b(1) = (  1.000000  0.000917 -0.043191 )
               b(2) = (  0.000000  0.550583 -0.174909 )
               b(3) = (  0.000000  0.000000  0.449606 )

     PseudoPot. # 1 for Mo read from file:
     ~/pseudo/Mo.pw91-n-van.UPF
     MD5 check sum: Not computed, couldn't open file
     Pseudo is Ultrasoft + core correction, Zval =  6.0
     Generated by new atomic code, or converted to UPF format
     Using radial grid of  965 points,  3 beta functions with:
                l(1) =   1
                l(2) =   2
                l(3) =   2
     Q(r) pseudized with  8 coefficients,  rinner =    1.000   1.000   1.000
                                                       1.200   1.200

     PseudoPot. # 2 for S  read from file:
     ~/pseudo/S.pw91-van_ak.UPF
     MD5 check sum: Not computed, couldn't open file
     Pseudo is Ultrasoft, Zval =  6.0
     Generated by new atomic code, or converted to UPF format
     Using radial grid of  811 points,  6 beta functions with:
                l(1) =   0
                l(2) =   0
                l(3) =   1
                l(4) =   1
                l(5) =   2
                l(6) =   2
     Q(r) pseudized with  8 coefficients,  rinner =    1.100   1.100   1.100
                                                       1.100   1.100

     atomic species   valence    mass     pseudopotential
        Mo             6.00    95.50000     Mo( 1.00)
        S              6.00    32.06500     S ( 1.00)

     No symmetry found

   Cartesian axes

     site n.     atom                  positions (alat units)
         1           Mo  tau(   1) = (   0.7499549   0.6249085   0.7679401  )
         2           Mo  tau(   2) = (   0.9952798   1.0778465   0.7672958  )
         3           Mo  tau(   3) = (   0.2495783   0.6265967   0.7687091  )
         4           Mo  tau(   4) = (   0.4949327   1.0792684   0.7674322  )
         5           Mo  tau(   5) = (   0.2478614   1.5345321   0.7707291  )
         6           Mo  tau(   6) = (   0.7484400   1.5334179   0.7694774  )
         7           Mo  tau(   7) = (   0.5022388   1.9867354   0.7700073  )
         8           Mo  tau(   8) = (   1.0010748   1.9866469   0.7705650  )
         9           Mo  tau(   9) = (   1.0064848   0.6430013   1.7464271  )
        10           Mo  tau(  10) = (   0.5427233   0.6381045   1.7464805  )
        11           Mo  tau(  11) = (   1.0016581   1.5529930   1.7934115  )
        12           Mo  tau(  12) = (   0.5276115   1.5753044   1.7858674  )
        13           S   tau(  13) = (   0.9990366   0.7787584   0.5101358  )
        14           S   tau(  14) = (   0.7541428   0.3249332   0.5130787  )
        15           S   tau(  15) = (   0.4988915   0.7802174   0.5108899  )
        16           S   tau(  16) = (   0.2536396   0.3264804   0.5143795  )
        17           S   tau(  17) = (   0.7384819   1.2744068   1.7847927  )
        18           S   tau(  18) = (   0.2592791   1.5498494   1.5299832  )
        19           S   tau(  19) = (   0.9976449   0.7805612   1.0237396  )
        20           S   tau(  20) = (   0.7534355   0.3266312   1.0262855  )
        21           S   tau(  21) = (   0.5002843   0.7817793   1.0229023  )
        22           S   tau(  22) = (   0.2536244   0.3273490   1.0238042  )
        23           S   tau(  23) = (   0.7903670   1.8566968   1.7664921  )
        24           S   tau(  24) = (   0.2691638   1.5788326   2.0554632  )
        25           S   tau(  25) = (   0.2446019   1.2367031   0.5126071  )
        26           S   tau(  26) = (   0.7449607   1.2346818   0.5121698  )
        27           S   tau(  27) = (   0.2439000   1.2336606   1.0239825  )
        28           S   tau(  28) = (   0.7450791   1.2327830   1.0236149  )
        29           S   tau(  29) = (   0.4999721   1.6886578   1.0261914  )
        30           S   tau(  30) = (   0.9975226   1.6883569   1.0269395  )
        31           S   tau(  31) = (   0.7711288   0.9363380   1.7815057  )
        32           S   tau(  32) = (   0.2721757   2.4131051   2.0076902  )
        33           S   tau(  33) = (   0.4985372   1.6877285   0.5128703  )
        34           S   tau(  34) = (   0.9992697   1.6881956   0.5128515  )
        35           S   tau(  35) = (   0.7759564   2.1737028   1.6503686  )
        36           S   tau(  36) = (   0.2747114   0.7111974   1.5021512  )

     number of k points=     8  Marzari-Vanderbilt smearing, width (Ry)=  0.0200
                       cart. coord. in units 2pi/alat
        k(    1) = (   0.0000000   0.0000000   0.0000000), wk =   0.1666667
        k(    2) = (   0.0000000   0.0000000  -0.2248028), wk =   0.1666667
        k(    3) = (   0.0000000  -0.2752917   0.0874547), wk =   0.1666667
        k(    4) = (   0.0000000  -0.2752917  -0.1373481), wk =   0.1666667
        k(    5) = (   0.3333333   0.0003057  -0.0143970), wk =   0.3333333
        k(    6) = (   0.3333333   0.0003057  -0.2391997), wk =   0.3333333
        k(    7) = (   0.3333333  -0.2749860   0.0730577), wk =   0.3333333
        k(    8) = (   0.3333333  -0.2749860  -0.1517450), wk =   0.3333333

     Initial potential from superposition of free atoms

     starting charge  215.98107, renormalised to  216.00000
     Starting wfcs are  204 randomized atomic wfcs

     Self-consistent Calculation

     iteration #  1     ecut=    45.00 Ry     beta= 0.70
     Davidson diagonalization with overlap
     ethr =  1.00E-02,  avg # of iterations =  2.4

     total energy              =    -843.65647023 Ry
     Harris-Foulkes estimate   =    -846.05968661 Ry
     estimated scf accuracy    <       6.12924889 Ry

[...]

     iteration # 12     ecut=    45.00 Ry     beta= 0.70
     Davidson diagonalization with overlap
     c_bands:  1 eigenvalues not converged
     c_bands:  1 eigenvalues not converged
     ethr =  3.51E-07,  avg # of iterations = 13.4

[...]

     total energy              =    -844.84014464 Ry
     Harris-Foulkes estimate   =    -844.84014513 Ry
     estimated scf accuracy    <       0.00000242 Ry

     iteration # 17     ecut=    45.00 Ry     beta= 0.70
     Davidson diagonalization with overlap
     ethr =  1.12E-09,  avg # of iterations =  2.0

     End of self-consistent calculation

          k = 0.0000 0.0000 0.0000 ( 33479 PWs)   bands (ev):

   -11.1762 -11.0420 -10.6070  -9.8572  -9.8517  -9.4522  -9.1277  -9.1008
    -8.8896  -8.8106  -8.7490  -8.7451  -8.7169  -8.7129  -8.7072  -8.6512
    -8.5005  -8.4902  -8.4617  -8.4537  -8.2855  -8.2409  -7.9156  -7.8863
    -2.7577  -2.4906  -2.2944  -2.2264  -2.2241  -2.1003  -1.6899  -1.6709
    -1.4742  -1.4565  -1.4528  -1.4415  -1.3765  -1.3579  -1.2693  -0.9701
    -0.7354  -0.6109  -0.5725  -0.5671  -0.4510  -0.4189  -0.3796  -0.2599
    -0.2349  -0.1725  -0.1120  -0.1094  -0.0618  -0.0300   0.1162   0.1684
     0.2264   0.2342   0.2629   0.3859   0.4458   0.5160   0.5469   0.5872
     0.6649   0.7077   0.7214   0.7292   0.7574   0.9935   1.1808   1.2200
     1.2397   1.3397   1.3784   1.4004   1.4273   1.5822   1.5999   1.7516
     1.8076   1.8262   1.8659   1.9270   2.0160   2.0257   2.0436   2.0532
     2.2863   2.3735   2.4460   2.4640   2.5529   2.5726   2.6100   2.7703
     2.8246   2.8681   2.8702   2.8870   2.9197   2.9250   3.2436   3.4343
     3.6427   3.7360   3.7876   3.7995   3.9821   4.3374   4.9521   5.3507
     5.3974   5.4197   5.5106   5.5167   5.5372   5.5811   5.5881   5.6485
     5.7364   5.8158   5.8754   5.8938   5.9345   5.9426   5.9806   6.0195
     6.1068   6.1527

[...]

          k = 0.3333-0.2750-0.1517 ( 33492 PWs)   bands (ev):

   -11.1544 -11.0524 -10.1162 -10.1075  -9.3978  -9.3886  -9.2068  -9.1974
    -9.0269  -9.0180  -8.8320  -8.8186  -8.7297  -8.7046  -8.6885  -8.6786
    -8.6497  -8.6330  -8.4707  -8.4657  -8.2754  -8.2222  -7.9758  -7.9458
    -2.6171  -2.5225  -1.6696  -1.6655  -1.6153  -1.6026  -1.5890  -1.5751
    -1.5717  -1.5649  -1.5418  -1.5388  -1.0693  -1.0646  -0.7657  -0.7347
    -0.5647  -0.5448  -0.4452  -0.3865  -0.3575  -0.3465  -0.3329  -0.3000
    -0.2943  -0.1799  -0.0317  -0.0056   0.0895   0.0932   0.1742   0.2353
     0.2948   0.3001   0.3281   0.3451   0.3973   0.4391   0.5241   0.5371
     0.5741   0.5836   0.6129   0.6219   0.6941   0.7922   0.9697   1.0425
     1.1403   1.1845   1.2239   1.2346   1.2448   1.2515   1.4158   1.4295
     1.4357   1.5232   1.5535   1.5740   1.7979   1.8288   1.8542   1.9548
     1.9799   1.9849   1.9912   2.0422   2.3209   2.4184   2.4363   2.5123
     2.5370   2.5603   2.8997   2.9050   2.9931   3.0023   3.2017   3.2028
     3.7772   3.9012   4.1074   4.2114   4.3527   4.6298   5.0689   5.1334
     5.2274   5.3453   5.3866   5.4057   5.4694   5.4726   5.5183   5.5384
     5.5442   5.5615   5.6185   5.7952   5.8069   5.8309   5.8362   5.8764
     5.8837   5.9168

     the Fermi energy is     4.2515 ev

!    total energy              =    -844.84014453 Ry
     Harris-Foulkes estimate   =    -844.84014490 Ry
     estimated scf accuracy    <       0.00000048 Ry

     The total energy is the sum of the following terms:

     one-electron contribution =    -667.86111036 Ry
     hartree contribution      =     434.86640756 Ry
     xc contribution           =    -333.82245217 Ry
     ewald contribution        =    -278.02426735 Ry
     smearing contrib. (-TS)   =       0.00127778 Ry

     convergence has been achieved in  17 iterations

     Forces acting on atoms (cartesian axes, Ry/au):

     atom    1 type  1   force =    -0.00002052    0.00456164   -0.00517806
     atom    2 type  1   force =     0.00080237    0.01052097   -0.00267757
     atom    3 type  1   force =     0.00207533    0.00342177   -0.00281454
     atom    4 type  1   force =     0.00273497    0.00861531   -0.00208161
     atom    5 type  1   force =     0.00048024    0.00276015   -0.00302017
     atom    6 type  1   force =    -0.00061308    0.00377777   -0.00339877
     atom    7 type  1   force =    -0.00297762    0.00877093   -0.00457819
     atom    8 type  1   force =     0.00015136    0.00835689   -0.00570182
     atom    9 type  1   force =     0.04847940    0.01066398   -0.00220917
     atom   10 type  1   force =    -0.05107588    0.02183697   -0.00056371
     atom   11 type  1   force =     0.03985074   -0.01541641    0.00332961
     atom   12 type  1   force =    -0.04232873    0.02977224    0.00084529
     atom   13 type  2   force =    -0.00038605   -0.00118739    0.00645734
     atom   14 type  2   force =    -0.00285378   -0.00347947    0.00451512
     atom   15 type  2   force =    -0.00011027   -0.00298779    0.00560063
     atom   16 type  2   force =    -0.00185921   -0.00530286    0.00359876
     atom   17 type  2   force =     0.02318805    0.12329835    0.00465297
     atom   18 type  2   force =     0.00377048    0.00210121   -0.02788124
     atom   19 type  2   force =     0.00140368   -0.00285511   -0.00284193
     atom   20 type  2   force =    -0.00176759   -0.00254764   -0.00548528
     atom   21 type  2   force =    -0.00107568   -0.00401372   -0.00390983
     atom   22 type  2   force =    -0.00136599   -0.00315425    0.00151940
     atom   23 type  2   force =    -0.02901413   -0.12132944    0.04823391
     atom   24 type  2   force =    -0.00349141   -0.00199486    0.01282311
     atom   25 type  2   force =     0.00109204   -0.00507265    0.00372755
     atom   26 type  2   force =     0.00121555   -0.00284066    0.00317851
     atom   27 type  2   force =     0.00315904   -0.00392454   -0.00282889
     atom   28 type  2   force =     0.00115854   -0.00228820   -0.00204279
     atom   29 type  2   force =    -0.00144237   -0.00380760   -0.00448592
     atom   30 type  2   force =     0.00183276   -0.00317923   -0.00477935
     atom   31 type  2   force =     0.00601982   -0.14116945    0.01277195
     atom   32 type  2   force =    -0.00001899   -0.01722939    0.01311192
     atom   33 type  2   force =     0.00026301   -0.00140028    0.00675299
     atom   34 type  2   force =    -0.00106111   -0.00175257    0.00680295
     atom   35 type  2   force =     0.00232015    0.11015679   -0.02226869
     atom   36 type  2   force =     0.00146487   -0.00168147   -0.02917446

     Total force =     0.282603     Total SCF correction =     0.001912

     General routines

     Parallel routines

   This run was terminated on:  20: 9: 4  19Nov2021

   JOB DONE.