     Program PWSCF v.6.4 starts on 14Oct2021 at 10:56:32

     R & G space division:  proc/nbgrp/npool/nimage =      40
     Waiting for input...
     Reading input from standard input
Warning: card    &IONS ignored
Warning: card      ION_DYNAMICS = 'BFGS' ignored
Warning: card   / ignored
Warning: card    &CELL ignored
Warning: card      CELL_DYNAMICS = 'BFGS', ignored
Warning: card    / ignored

     Current dimensions of program PWSCF are:
     Max number of different atomic species (ntypx) = 10
     Max number of k-points (npk) =  40000
     Max angular momentum in pseudopotentials (lmaxx) =  3

     bravais-lattice index     =            0
     lattice parameter (alat)  =      12.1137  a.u.
     unit-cell volume          =    8931.9521 (a.u.)^3
     number of atoms/cell      =           36
     number of atomic types    =            2
     number of electrons       =       216.00
     number of Kohn-Sham states=          130
     kinetic-energy cutoff     =      45.0000  Ry
     charge density cutoff     =     360.0000  Ry
     convergence threshold     =      1.0E-06
     mixing beta               =       0.7000
     number of iterations used =            8  local-TF  mixing
     Exchange-correlation      = SLA PW GGX GGC ( 1  4  2  2 0 0)

     celldm(1)=  12.113726  celldm(2)=   0.000000  celldm(3)=   0.000000
     celldm(4)=   0.000000  celldm(5)=   0.000000  celldm(6)=   0.000000

     crystal axes: (cart. coord. in units of alat)
               a(1) = (   1.000000   0.000000   0.000000 )
               a(2) = (  -0.465532   0.847901   0.000000 )
               a(3) = (  -0.226302   0.162663   5.926090 )

     reciprocal axes: (cart. coord. in units 2 pi/alat)
               b(1) = (  1.000000  0.549041  0.023117 )
               b(2) = (  0.000000  1.179383 -0.032372 )
               b(3) = (  0.000000  0.000000  0.168745 )

     PseudoPot. # 1 for Mo read from file:
     ~/pseudo/Mo.pw91-n-van.UPF
     MD5 check sum: Not computed, couldn't open file
     Pseudo is Ultrasoft + core correction, Zval =  6.0
     Generated by new atomic code, or converted to UPF format
     Using radial grid of  965 points,  3 beta functions with:
                l(1) =   1
                l(2) =   2
                l(3) =   2
     Q(r) pseudized with  8 coefficients,  rinner =    1.000   1.000   1.000
                                                       1.200   1.200

     PseudoPot. # 2 for S  read from file:
     ~/pseudo/S.pw91-van_ak.UPF
     MD5 check sum: Not computed, couldn't open file
     Pseudo is Ultrasoft, Zval =  6.0
     Generated by new atomic code, or converted to UPF format
     Using radial grid of  811 points,  6 beta functions with:
                l(1) =   0
                l(2) =   0
                l(3) =   1
                l(4) =   1
                l(5) =   2
                l(6) =   2
     Q(r) pseudized with  8 coefficients,  rinner =    1.100   1.100   1.100
                                                       1.100   1.100

     atomic species   valence    mass     pseudopotential
        Mo             6.00    95.50000     Mo( 1.00)
        S              6.00    32.06500     S ( 1.00)

     No symmetry found

   Cartesian axes

     site n.     atom                  positions (alat units)
         1           Mo  tau(   1) = (   0.2989634   0.5876461   0.0645061  )
         2           Mo  tau(   2) = (  -0.2995739   0.8634999   5.7987118  )
         3           Mo  tau(   3) = (   0.5312269   0.1637719   0.0695291  )
         4           Mo  tau(   4) = (  -0.0685263   0.4358765   5.8008502  )
         5           Mo  tau(   5) = (   0.5750782   0.3856225   1.3856496  )
         6           Mo  tau(   6) = (   0.0750175   0.3855424   1.3859924  )
         7           Mo  tau(   7) = (   0.3423098   0.8095768   1.3856437  )
         8           Mo  tau(   8) = (  -0.1577374   0.8094901   1.3860106  )
         9           Mo  tau(   9) = (   0.3088637   0.2299334   4.5646800  )
        10           Mo  tau(  10) = (  -0.1910053   0.2299007   4.5659696  )
        11           Mo  tau(  11) = (   0.0760830   0.6538636   4.5647137  )
        12           Mo  tau(  12) = (  -0.4237683   0.6538215   4.5658225  )
        13           S   tau(  13) = (   0.0189122   1.0034541   5.7185050  )
        14           S   tau(  14) = (  -0.0533121   0.1590946   5.4784148  )
        15           S   tau(  15) = (   0.2483303   0.5737284   5.7160294  )
        16           S   tau(  16) = (  -0.2831900   0.5858804   5.4972900  )
        17           S   tau(  17) = (   0.8225850   0.2456648   1.1365858  )
        18           S   tau(  18) = (   0.3221978   0.2452791   1.1369528  )
        19           S   tau(  19) = (   0.5898567   0.6696201   1.1365608  )
        20           S   tau(  20) = (   0.0894168   0.6692594   1.1369392  )
        21           S   tau(  21) = (   0.0911960   0.9380041   4.3159397  )
        22           S   tau(  22) = (  -0.4095651   0.9375241   4.3163192  )
        23           S   tau(  23) = (   0.3238990   0.5140535   4.3158432  )
        24           S   tau(  24) = (  -0.1767518   0.5135092   4.3163658  )
        25           S   tau(  25) = (   0.2878159   0.8594248   0.3787141  )
        26           S   tau(  26) = (   0.2135303   0.0228936   0.1512188  )
        27           S   tau(  27) = (   0.5099829   0.4477610   0.3823601  )
        28           S   tau(  28) = (  -0.0183279   0.4505985   0.1484099  )
        29           S   tau(  29) = (   0.8221053   0.2457832   1.6350951  )
        30           S   tau(  30) = (   0.3223846   0.2458870   1.6352454  )
        31           S   tau(  31) = (   0.5893384   0.6697348   1.6351042  )
        32           S   tau(  32) = (   0.0896291   0.6698288   1.6352477  )
        33           S   tau(  33) = (   0.0898022   0.9377748   4.8138609  )
        34           S   tau(  34) = (  -0.4087644   0.9381515   4.8153442  )
        35           S   tau(  35) = (   0.3226889   0.5138090   4.8138042  )
        36           S   tau(  36) = (  -0.1761330   0.5143301   4.8153891  )

     number of k points=     5  Marzari-Vanderbilt smearing, width (Ry)=  0.0200
                       cart. coord. in units 2pi/alat
        k(    1) = (   0.0000000   0.0000000   0.0000000), wk =   0.2222222
        k(    2) = (   0.0000000   0.3931278  -0.0107908), wk =   0.4444444
        k(    3) = (   0.3333333   0.1830136   0.0077057), wk =   0.4444444
        k(    4) = (   0.3333333   0.5761414  -0.0030851), wk =   0.4444444
        k(    5) = (   0.3333333  -0.2101142   0.0184965), wk =   0.4444444

     Initial potential from superposition of free atoms

     starting charge  215.98107, renormalised to  216.00000

     negative rho (up, down):  9.880E-04 0.000E+00
     Starting wfcs are  204 randomized atomic wfcs

     Self-consistent Calculation

     iteration #  1     ecut=    45.00 Ry     beta= 0.70
     Davidson diagonalization with overlap
     ethr =  1.00E-02,  avg # of iterations =  2.4

     negative rho (up, down):  9.234E-05 0.000E+00

     total energy              =    -843.56499592 Ry
     Harris-Foulkes estimate   =    -846.20080902 Ry
     estimated scf accuracy    <       7.19345884 Ry

[...]

     iteration #  9     ecut=    45.00 Ry     beta= 0.70
     Davidson diagonalization with overlap
     c_bands:  3 eigenvalues not converged
     ethr =  7.09E-06,  avg # of iterations = 11.2

[...]

     iteration # 12     ecut=    45.00 Ry     beta= 0.70
     Davidson diagonalization with overlap
     c_bands:  1 eigenvalues not converged
     ethr =  2.17E-06,  avg # of iterations =  8.2

[...]

     total energy              =    -844.94019872 Ry
     Harris-Foulkes estimate   =    -844.94020099 Ry
     estimated scf accuracy    <       0.00000264 Ry

     iteration # 19     ecut=    45.00 Ry     beta= 0.70
     Davidson diagonalization with overlap
     ethr =  1.22E-09,  avg # of iterations =  1.0

[...]

     End of self-consistent calculation

          k = 0.0000 0.0000 0.0000 ( 45463 PWs)   bands (ev):

   -13.1587 -13.1087 -13.1062 -12.6437 -11.9763 -11.9471 -11.9437 -11.9338
   -11.3374 -11.3349 -11.1820 -11.1769 -11.1741 -11.1712 -11.1677 -11.1677
   -11.1487 -10.9709 -10.9674 -10.9673 -10.9554 -10.9538 -10.1076 -10.0917
    -5.1103  -5.0720  -4.7979  -4.7955  -4.7349  -4.7319  -4.7274  -4.7252
    -4.5853  -4.5814  -4.4961  -4.2982  -3.9441  -3.8697  -3.8671  -3.8660
    -3.8629  -3.8607  -3.7772  -3.7757  -3.7726  -3.3840  -3.0774  -3.0743
    -3.0471  -3.0427  -3.0421  -3.0406  -2.7999  -2.6854  -2.6738  -2.4022
    -2.2442  -2.2419  -2.2099  -2.2080  -2.1544  -2.1107  -1.7258  -1.7242
    -1.7161  -1.7138  -1.5636  -1.4189  -1.4103  -1.3321  -1.2752  -1.2436
    -1.2421  -1.1026  -1.1000  -1.0655  -1.0092  -1.0069  -0.9073  -0.9062
    -0.8952  -0.8939  -0.8645  -0.8524  -0.6567  -0.5255  -0.5242  -0.1592
    -0.1568   0.0238   0.0264   0.0534   0.0557   0.1283   0.1332   0.1774
     0.3849   0.3886   0.3913   0.3973   0.4047   0.4495   0.4877   0.4900
     0.4915   0.7994   0.8012   1.2198   1.2698   1.4717   1.7148   2.4494
     2.6768   2.7812   2.9885   3.0926   3.0951   3.1066   3.1092   3.1522
     3.1548   3.1709   3.5359   3.5506   3.5939   3.5983   3.6063   3.6806
     3.6837   3.7269

[...]

          k = 0.3333-0.2101 0.0185 ( 45479 PWs)   bands (ev):

   -12.8583 -12.7089 -12.7064 -12.4991 -12.2358 -12.1663 -11.7642 -11.7616
   -11.7388 -11.7355 -11.3288 -11.3264 -11.2587 -11.2509 -11.2468 -11.2442
   -11.1108 -11.1081 -11.0080 -11.0053 -10.9474 -10.8387 -10.4085 -10.3906
    -4.6788  -4.5463  -4.2756  -4.2699  -4.2678  -4.2154  -4.2127  -4.1553
    -4.1532  -4.1495  -4.1440  -4.1287  -3.9070  -3.8432  -3.8407  -3.7843
    -3.7817  -3.7682  -3.4593  -3.2948  -3.2778  -3.1545  -3.1513  -2.8565
    -2.8514  -2.8352  -2.8186  -2.8153  -2.7903  -2.7871  -2.5651  -2.3713
    -2.2427  -2.2383  -2.2084  -2.1824  -2.1802  -2.0685  -2.0655  -1.9569
    -1.9025  -1.9002  -1.8979  -1.8107  -1.8069  -1.6714  -1.4343  -1.4189
    -1.4169  -1.2346  -1.2304  -1.1693  -1.1678  -1.1526  -1.0434  -1.0415
    -1.0117  -0.9738  -0.8540  -0.8497  -0.8138  -0.8105  -0.7345  -0.6626
    -0.6590  -0.6443  -0.5735  -0.3586  -0.3566  -0.2518  -0.0532  -0.0489
     0.0621   0.0665   0.1233   0.1828   0.2932   0.4462   0.5592   0.5615
     0.6014   0.6048   0.6218   0.6243   1.0532   1.4801   1.5599   2.0305
     2.2724   2.4644   2.6399   2.8765   3.0192   3.0219   3.1043   3.1081
     3.1206   3.1238   3.1903   3.1985   3.2593   3.2629   3.2708   3.3343
     3.4302   3.4497

     the Fermi energy is     0.9566 ev

!    total energy              =    -844.94019799 Ry
     Harris-Foulkes estimate   =    -844.94019891 Ry
     estimated scf accuracy    <       0.00000043 Ry

     The total energy is the sum of the following terms:

     one-electron contribution =   -6644.17147911 Ry
     hartree contribution      =    3402.37058040 Ry
     xc contribution           =    -334.01845910 Ry
     ewald contribution        =    2730.84858099 Ry
     smearing contrib. (-TS)   =       0.03057883 Ry

     convergence has been achieved in  19 iterations

     negative rho (up, down):  1.366E-03 0.000E+00

     Forces acting on atoms (cartesian axes, Ry/au):

     atom    1 type  1   force =     0.12177415    0.09383884    0.09806636
     atom    2 type  1   force =    -0.11923368   -0.09678899   -0.09384392
     atom    3 type  1   force =     0.12080276    0.09652517    0.09120570
     atom    4 type  1   force =    -0.12280741   -0.09487917   -0.09229506
     atom    5 type  1   force =     0.00456337    0.00240564    0.00049378
     atom    6 type  1   force =     0.00481263    0.00206738    0.00049393
     atom    7 type  1   force =     0.00462326    0.00229653    0.00048384
     atom    8 type  1   force =     0.00475467    0.00204969    0.00047510
     atom    9 type  1   force =     0.00356205    0.00147114    0.00148561
     atom   10 type  1   force =     0.00578201    0.00191197    0.00086705
     atom   11 type  1   force =     0.00369478    0.00153086    0.00159520
     atom   12 type  1   force =     0.00564507    0.00214002    0.00103618
     atom   13 type  2   force =     0.05894543    0.01835315   -0.01296576
     atom   14 type  2   force =     0.03878963    0.00996499    0.08585885
     atom   15 type  2   force =     0.06287037    0.01920448   -0.01089892
     atom   16 type  2   force =     0.03415077    0.00665090    0.06036679
     atom   17 type  2   force =    -0.00257699   -0.00102476    0.00102296
     atom   18 type  2   force =    -0.00225659   -0.00024450    0.00066097
     atom   19 type  2   force =    -0.00266150   -0.00103895    0.00116306
     atom   20 type  2   force =    -0.00220552   -0.00032673    0.00068539
     atom   21 type  2   force =    -0.00280356   -0.00058215    0.00164312
     atom   22 type  2   force =    -0.00259335   -0.00044223    0.00220161
     atom   23 type  2   force =    -0.00278008   -0.00059181    0.00176350
     atom   24 type  2   force =    -0.00259129   -0.00043912    0.00202473
     atom   25 type  2   force =    -0.03929849   -0.00355458   -0.07184714
     atom   26 type  2   force =    -0.05932239   -0.01593891    0.00766960
     atom   27 type  2   force =    -0.03426564   -0.01347654   -0.07787372
     atom   28 type  2   force =    -0.06300272   -0.02060234    0.01535180
     atom   29 type  2   force =    -0.00199402   -0.00121179   -0.00218250
     atom   30 type  2   force =    -0.00231491   -0.00137007   -0.00235169
     atom   31 type  2   force =    -0.00199833   -0.00120795   -0.00221964
     atom   32 type  2   force =    -0.00231712   -0.00136976   -0.00236294
     atom   33 type  2   force =    -0.00065799   -0.00094899   -0.00007714
     atom   34 type  2   force =    -0.00322056   -0.00164904   -0.00382799
     atom   35 type  2   force =    -0.00093543   -0.00083494   -0.00007044
     atom   36 type  2   force =    -0.00293339   -0.00188748   -0.00379826

     Total force =     0.419192     Total SCF correction =     0.001111

     General routines

     Parallel routines

   This run was terminated on:  11: 0: 8  14Oct2021

   JOB DONE.