     Program PWSCF v.6.4 starts on  3Sep2021 at 11:42:51

     R & G space division:  proc/nbgrp/npool/nimage =      40
     Waiting for input...
     Reading input from standard input
Warning: card    &IONS ignored
Warning: card      ION_DYNAMICS = 'BFGS' ignored
Warning: card   / ignored
Warning: card    &CELL ignored
Warning: card      CELL_DYNAMICS = 'BFGS', ignored
Warning: card    / ignored

     Current dimensions of program PWSCF are:
     Max number of different atomic species (ntypx) = 10
     Max number of k-points (npk) =  40000
     Max angular momentum in pseudopotentials (lmaxx) =  3

     bravais-lattice index     =            0
     lattice parameter (alat)  =      10.7198  a.u.
     unit-cell volume          =    2526.3272 (a.u.)^3
     number of atoms/cell      =           15
     number of atomic types    =            2
     number of electrons       =        90.00
     number of Kohn-Sham states=           54
     kinetic-energy cutoff     =      45.0000  Ry
     charge density cutoff     =     360.0000  Ry
     convergence threshold     =      1.0E-06
     mixing beta               =       0.7000
     number of iterations used =            8  local-TF  mixing
     Exchange-correlation      = SLA PW GGX GGC ( 1  4  2  2 0 0)

     celldm(1)=  10.719768  celldm(2)=   0.000000  celldm(3)=   0.000000
     celldm(4)=   0.000000  celldm(5)=   0.000000  celldm(6)=   0.000000

     crystal axes: (cart. coord. in units of alat)
               a(1) = (   0.991966   0.104411   0.071420 )
               a(2) = (  -0.154113   1.278733   0.088266 )
               a(3) = (  -0.184664  -0.124599   1.575184 )

     reciprocal axes: (cart. coord. in units 2 pi/alat)
               b(1) = (  0.987512  0.110421  0.124504 )
               b(2) = ( -0.084533  0.768325  0.050865 )
               b(3) = ( -0.040038 -0.048060  0.626351 )

     PseudoPot. # 1 for Mo read from file:
     ~/pseudo/Mo.pw91-n-van.UPF
     MD5 check sum: Not computed, couldn't open file
     Pseudo is Ultrasoft + core correction, Zval =  6.0
     Generated by new atomic code, or converted to UPF format
     Using radial grid of  965 points,  3 beta functions with:
                l(1) =   1
                l(2) =   2
                l(3) =   2
     Q(r) pseudized with  8 coefficients,  rinner =    1.000   1.000   1.000
                                                       1.200   1.200

     PseudoPot. # 2 for S  read from file:
     ~/pseudo/S.pw91-van_ak.UPF
     MD5 check sum: Not computed, couldn't open file
     Pseudo is Ultrasoft, Zval =  6.0
     Generated by new atomic code, or converted to UPF format
     Using radial grid of  811 points,  6 beta functions with:
                l(1) =   0
                l(2) =   0
                l(3) =   1
                l(4) =   1
                l(5) =   2
                l(6) =   2
     Q(r) pseudized with  8 coefficients,  rinner =    1.100   1.100   1.100
                                                       1.100   1.100

     atomic species   valence    mass     pseudopotential
        Mo             6.00    95.50000     Mo( 1.00)
        S              6.00    32.06500     S ( 1.00)

     No symmetry found

   Cartesian axes

     site n.     atom                  positions (alat units)
         1           Mo  tau(   1) = (   0.4703176   0.6913610  -0.0037398  )
         2           Mo  tau(   2) = (   0.1412894   0.5814732   1.1048557  )
         3           Mo  tau(   3) = (  -0.2061102   0.5200428   1.4593220  )
         4           Mo  tau(   4) = (   0.0101958   0.2128944   0.4191808  )
         5           Mo  tau(   5) = (  -0.0839344   0.9975321   0.4735490  )
         6           S   tau(   6) = (   0.5438666   0.6206686   1.1867664  )
         7           S   tau(   7) = (   0.1713592   1.2886443   0.3483620  )
         8           S   tau(   8) = (   0.0667892   0.8897777   0.8264568  )
         9           S   tau(   9) = (   0.1034740   0.2375088   1.3594671  )
        10           S   tau(  10) = (   0.1620284   0.6393131   0.2910123  )
        11           S   tau(  11) = (   0.1359793   0.3051074   0.7858643  )
        12           S   tau(  12) = (   0.7583453   0.4097135   0.1595465  )
        13           S   tau(  13) = (   0.0340153   0.8728409   1.4016017  )
        14           S   tau(  14) = (   0.5787841   1.3041733   0.6820751  )
        15           S   tau(  15) = (   0.5080863   0.8815029   1.7710531  )

     number of k points=    10  Marzari-Vanderbilt smearing, width (Ry)=  0.0200
                       cart. coord. in units 2pi/alat
        k(    1) = (   0.0000000   0.0000000   0.0000000), wk =   0.1111111
        k(    2) = (   0.0200190   0.0240299  -0.3131756), wk =   0.1111111
        k(    3) = (  -0.0281778   0.2561085   0.0169551), wk =   0.2222222
        k(    4) = (  -0.0081588   0.2801383  -0.2962205), wk =   0.2222222
        k(    5) = (   0.3291706   0.0368070   0.0415013), wk =   0.2222222
        k(    6) = (   0.3491896   0.0608369  -0.2716743), wk =   0.2222222
        k(    7) = (   0.3009929   0.2929155   0.0584564), wk =   0.2222222
        k(    8) = (   0.3210118   0.3169454  -0.2547192), wk =   0.2222222
        k(    9) = (   0.3573484  -0.2193014   0.0245462), wk =   0.2222222
        k(   10) = (   0.3773674  -0.1952715  -0.2886294), wk =   0.2222222

     Initial potential from superposition of free atoms

     starting charge   89.99211, renormalised to   90.00000
     Starting wfcs are   85 randomized atomic wfcs

     Self-consistent Calculation

     iteration #  1     ecut=    45.00 Ry     beta= 0.70
     Davidson diagonalization with overlap
     ethr =  1.00E-02,  avg # of iterations =  2.1

     total energy              =    -351.15531362 Ry
     Harris-Foulkes estimate   =    -352.40510878 Ry
     estimated scf accuracy    <       3.19604605 Ry

[...]

     total energy              =    -351.79955029 Ry
     Harris-Foulkes estimate   =    -351.79955106 Ry
     estimated scf accuracy    <       0.00000483 Ry

     iteration # 11     ecut=    45.00 Ry     beta= 0.70
     Davidson diagonalization with overlap
     ethr =  5.37E-09,  avg # of iterations =  3.5

     End of self-consistent calculation

          k = 0.0000 0.0000 0.0000 ( 12883 PWs)   bands (ev):

    -9.2093  -8.3785  -8.0816  -8.0691  -8.0103  -7.8997  -7.8709  -7.6457
    -7.5238  -7.4989  -1.0848  -0.7894  -0.7480  -0.7004  -0.1494  -0.0696
     0.0413   0.2500   0.4522   0.4824   0.6382   0.6587   0.9931   1.1014
     1.2212   1.2629   1.3224   1.4217   1.6158   1.8799   1.9442   2.0917
     2.1470   2.1843   2.3669   2.7019   2.9467   2.9880   3.2325   3.4458
     3.4490   3.7725   4.0364   4.2558   4.2942   4.8721   5.0434   5.2685
     5.6187   5.6339   5.8866   6.2559   6.2712   6.3711

[...]

          k =-0.0282 0.2561 0.0170 ( 12862 PWs)   bands (ev):

[...]

          k =-0.0082 0.2801-0.2962 ( 12901 PWs)   bands (ev):

[...]

          k = 0.3774-0.1953-0.2886 ( 12887 PWs)   bands (ev):

    -8.7823  -8.4119  -8.3022  -8.1634  -8.0756  -7.8933  -7.8347  -7.6322
    -7.5790  -7.5348  -0.7915  -0.6327  -0.5558  -0.4377  -0.3399  -0.0562
     0.0250   0.1401   0.2806   0.3952   0.4299   0.6075   0.7748   0.8850
     1.0331   1.2261   1.3107   1.3457   1.6105   1.6291   1.7947   2.0169
     2.2311   2.3476   2.4438   2.6436   2.7412   3.1236   3.3015   3.5912
     3.6566   3.9266   4.1041   4.4293   4.7302   4.8428   5.1406   5.3281
     5.4895   5.7738   5.9263   6.0325   6.2169   6.4424

     the Fermi energy is     4.7305 ev

!    total energy              =    -351.79955094 Ry
     Harris-Foulkes estimate   =    -351.79955128 Ry
     estimated scf accuracy    <       0.00000046 Ry

     The total energy is the sum of the following terms:

     one-electron contribution =     -77.37021899 Ry
     hartree contribution      =      83.46021248 Ry
     xc contribution           =    -138.76241476 Ry
     ewald contribution        =    -219.12345207 Ry
     smearing contrib. (-TS)   =      -0.00367761 Ry

     convergence has been achieved in  11 iterations

     Forces acting on atoms (cartesian axes, Ry/au):

     atom    1 type  1   force =     0.00015802   -0.00035594   -0.00063498
     atom    2 type  1   force =     0.00031521   -0.00017409    0.00047819
     atom    3 type  1   force =     0.00009385   -0.00048672   -0.00033609
     atom    4 type  1   force =     0.00008934    0.00040591    0.00025966
     atom    5 type  1   force =    -0.00006449    0.00133939   -0.00076705
     atom    6 type  2   force =    -0.00039578   -0.00023637    0.00018333
     atom    7 type  2   force =     0.00002205   -0.00015733    0.00007653
     atom    8 type  2   force =     0.00061360   -0.00058185    0.00020372
     atom    9 type  2   force =     0.00028896    0.00064487   -0.00000210
     atom   10 type  2   force =    -0.00006710   -0.00054973    0.00035750
     atom   11 type  2   force =    -0.00004605    0.00002681    0.00012525
     atom   12 type  2   force =     0.00050536   -0.00012522   -0.00011695
     atom   13 type  2   force =     0.00015923    0.00041956   -0.00009132
     atom   14 type  2   force =    -0.00078487    0.00023392    0.00005924
     atom   15 type  2   force =    -0.00088732   -0.00040321    0.00020507

     Total force =     0.002836     Total SCF correction =     0.001092
     SCF correction compared to forces is large: reduce conv_thr to get better values

     General routines

     Parallel routines

   This run was terminated on:  11:43:17   3Sep2021

   JOB DONE.