     Program PWSCF v.6.4 starts on  8Sep2021 at 11:56:37

     R & G space division:  proc/nbgrp/npool/nimage =      40
     Waiting for input...
     Reading input from standard input
Warning: card    &IONS ignored
Warning: card      ION_DYNAMICS = 'BFGS' ignored
Warning: card   / ignored
Warning: card    &CELL ignored
Warning: card      CELL_DYNAMICS = 'BFGS', ignored
Warning: card    / ignored

     Current dimensions of program PWSCF are:
     Max number of different atomic species (ntypx) = 10
     Max number of k-points (npk) =  40000
     Max angular momentum in pseudopotentials (lmaxx) =  3

     bravais-lattice index     =            0
     lattice parameter (alat)  =      12.2190  a.u.
     unit-cell volume          =    4331.1677 (a.u.)^3
     number of atoms/cell      =           12
     number of atomic types    =            2
     number of electrons       =        72.00
     number of Kohn-Sham states=           43
     kinetic-energy cutoff     =      45.0000  Ry
     charge density cutoff     =     360.0000  Ry
     convergence threshold     =      1.0E-06
     mixing beta               =       0.7000
     number of iterations used =            8  local-TF  mixing
     Exchange-correlation      = SLA PW GGX GGC ( 1  4  2  2 0 0)

     celldm(1)=  12.218992  celldm(2)=   0.000000  celldm(3)=   0.000000
     celldm(4)=   0.000000  celldm(5)=   0.000000  celldm(6)=   0.000000

     crystal axes: (cart. coord. in units of alat)
               a(1) = (   0.999562   0.029284   0.004328 )
               a(2) = (  -0.531422   0.868695   0.002311 )
               a(3) = (   0.228399   0.094744   2.687457 )

     reciprocal axes: (cart. coord. in units 2 pi/alat)
               b(1) = (  0.983262  0.601786 -0.104780 )
               b(2) = ( -0.032976  1.131077 -0.037073 )
               b(3) = ( -0.001555 -0.001942  0.372300 )

     PseudoPot. # 1 for Mo read from file:
     ~/pseudo/Mo.pw91-n-van.UPF
     MD5 check sum: Not computed, couldn't open file
     Pseudo is Ultrasoft + core correction, Zval =  6.0
     Generated by new atomic code, or converted to UPF format
     Using radial grid of  965 points,  3 beta functions with:
                l(1) =   1
                l(2) =   2
                l(3) =   2
     Q(r) pseudized with  8 coefficients,  rinner =    1.000   1.000   1.000
                                                       1.200   1.200

     PseudoPot. # 2 for S  read from file:
     ~/pseudo/S.pw91-van_ak.UPF
     MD5 check sum: Not computed, couldn't open file
     Pseudo is Ultrasoft, Zval =  6.0
     Generated by new atomic code, or converted to UPF format
     Using radial grid of  811 points,  6 beta functions with:
                l(1) =   0
                l(2) =   0
                l(3) =   1
                l(4) =   1
                l(5) =   2
                l(6) =   2
     Q(r) pseudized with  8 coefficients,  rinner =    1.100   1.100   1.100
                                                       1.100   1.100

     atomic species   valence    mass     pseudopotential
        Mo             6.00    95.50000     Mo( 1.00)
        S              6.00    32.06500     S ( 1.00)

     No symmetry found

   Cartesian axes

     site n.     atom                  positions (alat units)
         1           Mo  tau(   1) = (   0.0143303  -0.1155857  -0.0154763  )
         2           Mo  tau(   2) = (  -0.2690697   0.3944006   0.0123269  )
         3           Mo  tau(   3) = (   0.5178080  -0.0998487  -0.0080402  )
         4           Mo  tau(   4) = (   0.2399859   0.4228128   0.0107887  )
         5           S   tau(   5) = (  -0.0221908   0.5067819   0.2664068  )
         6           S   tau(   6) = (  -0.2818587   0.9543964   0.2104906  )
         7           S   tau(   7) = (   0.4808162   0.5316416   0.2756222  )
         8           S   tau(   8) = (   0.2201932   0.9587963   0.2348812  )
         9           S   tau(   9) = (   0.2232210   0.3130385   2.4724986  )
        10           S   tau(  10) = (  -0.0390169   0.7434936   2.4223110  )
        11           S   tau(  11) = (   0.7237160   0.3222438   2.4615788  )
        12           S   tau(  12) = (   0.4612108   0.7736119   2.4208660  )

     number of k points=     5  Marzari-Vanderbilt smearing, width (Ry)=  0.0200
                       cart. coord. in units 2pi/alat
        k(    1) = (   0.0000000   0.0000000   0.0000000), wk =   0.2222222
        k(    2) = (  -0.0109920   0.3770258  -0.0123576), wk =   0.4444444
        k(    3) = (   0.3277540   0.2005955  -0.0349267), wk =   0.4444444
        k(    4) = (   0.3167619   0.5776213  -0.0472842), wk =   0.4444444
        k(    5) = (   0.3387460  -0.1764303  -0.0225691), wk =   0.4444444

     Initial potential from superposition of free atoms

     starting charge   71.99369, renormalised to   72.00000

     negative rho (up, down):  6.862E-04 0.000E+00
     Starting wfcs are   68 randomized atomic wfcs

     Self-consistent Calculation

     iteration #  1     ecut=    45.00 Ry     beta= 0.70
     Davidson diagonalization with overlap
     ethr =  1.00E-02,  avg # of iterations =  2.0

     negative rho (up, down):  7.917E-05 0.000E+00

     total energy              =    -281.15308111 Ry
     Harris-Foulkes estimate   =    -282.13432287 Ry
     estimated scf accuracy    <       2.58378297 Ry

[...]

     total energy              =    -281.67046168 Ry
     Harris-Foulkes estimate   =    -281.67046133 Ry
     estimated scf accuracy    <       0.00000182 Ry

     iteration # 15     ecut=    45.00 Ry     beta= 0.70
     Davidson diagonalization with overlap
     ethr =  2.53E-09,  avg # of iterations =  1.0

[...]

     End of self-consistent calculation

          k = 0.0000 0.0000 0.0000 ( 22059 PWs)   bands (ev):

   -14.9973 -14.0849 -13.6250 -13.5829 -13.3590 -13.1474 -12.9030 -12.8557
    -6.9530  -6.9445  -6.9159  -6.3766  -5.5514  -5.5173  -5.4901  -5.3894
    -4.9559  -4.9250  -4.4357  -4.2289  -4.1690  -4.0841  -3.8055  -3.4542
    -3.3863  -3.3165  -2.9255  -2.7871  -2.7494  -2.3790  -2.1590  -2.0501
    -1.9420  -1.5466  -1.3171  -1.2261  -0.6685  -0.5435   0.4366   0.5062
     0.7492   0.9915   1.3328

          k =-0.0110 0.3770-0.0124 ( 22052 PWs)   bands (ev):

[...]

          k = 0.3387-0.1764-0.0226 ( 22076 PWs)   bands (ev):

   -14.6360 -13.9562 -13.8649 -13.6582 -13.3347 -13.2361 -13.1872 -12.9573
    -6.4779  -6.3815  -6.0046  -5.9457  -5.7891  -5.6869  -5.3419  -5.1693
    -5.0318  -4.6565  -4.6141  -4.5531  -4.4009  -4.1226  -4.0329  -3.5982
    -3.5688  -3.5014  -3.3772  -3.1368  -2.6885  -2.4565  -2.2713  -2.1850
    -2.0819  -1.9864  -1.6569  -1.5103  -0.8501  -0.1286   0.0596   0.3816
     0.8967   1.0258   1.2198

     the Fermi energy is    -1.1531 ev

!    total energy              =    -281.67046210 Ry
     Harris-Foulkes estimate   =    -281.67046177 Ry
     estimated scf accuracy    <       0.00000041 Ry

     The total energy is the sum of the following terms:

     one-electron contribution =   -1344.58813085 Ry
     hartree contribution      =     693.39018379 Ry
     xc contribution           =    -111.11072889 Ry
     ewald contribution        =     480.63183793 Ry
     smearing contrib. (-TS)   =       0.00637592 Ry

     convergence has been achieved in  15 iterations

     negative rho (up, down):  9.479E-04 0.000E+00

     Forces acting on atoms (cartesian axes, Ry/au):

     atom    1 type  1   force =    -0.00669676   -0.01010278    0.01827619
     atom    2 type  1   force =     0.01265955    0.02695882   -0.01262901
     atom    3 type  1   force =    -0.02262201   -0.01003127   -0.00236205
     atom    4 type  1   force =    -0.00696909   -0.01867936   -0.00347216
     atom    5 type  2   force =     0.01339201    0.00330372    0.01235879
     atom    6 type  2   force =     0.00295566    0.00077674   -0.00274847
     atom    7 type  2   force =     0.00133744   -0.00810847   -0.00744662
     atom    8 type  2   force =    -0.00516205    0.00358744   -0.03368022
     atom    9 type  2   force =     0.00703977    0.00050021    0.01020874
     atom   10 type  2   force =     0.00658010    0.00327086   -0.00568951
     atom   11 type  2   force =    -0.00130183    0.01324380    0.03577351
     atom   12 type  2   force =    -0.00121278   -0.00471968   -0.00858919

     Total force =     0.077501     Total SCF correction =     0.001276

     General routines

     Parallel routines

   This run was terminated on:  11:57: 5   8Sep2021

   JOB DONE.