     Program PWSCF v.6.4 starts on  8Sep2021 at 11:11: 5

     R & G space division:  proc/nbgrp/npool/nimage =      40
     Waiting for input...
     Reading input from standard input
Warning: card    &IONS ignored
Warning: card      ION_DYNAMICS = 'BFGS' ignored
Warning: card   / ignored
Warning: card    &CELL ignored
Warning: card      CELL_DYNAMICS = 'BFGS', ignored
Warning: card    / ignored

     Current dimensions of program PWSCF are:
     Max number of different atomic species (ntypx) = 10
     Max number of k-points (npk) =  40000
     Max angular momentum in pseudopotentials (lmaxx) =  3

     bravais-lattice index     =            0
     lattice parameter (alat)  =      12.6648  a.u.
     unit-cell volume          =    5164.8568 (a.u.)^3
     number of atoms/cell      =           36
     number of atomic types    =            2
     number of electrons       =       216.00
     number of Kohn-Sham states=          130
     kinetic-energy cutoff     =      45.0000  Ry
     charge density cutoff     =     360.0000  Ry
     convergence threshold     =      1.0E-06
     mixing beta               =       0.7000
     number of iterations used =            8  local-TF  mixing
     Exchange-correlation      = SLA PW GGX GGC ( 1  4  2  2 0 0)

     celldm(1)=  12.664769  celldm(2)=   0.000000  celldm(3)=   0.000000
     celldm(4)=   0.000000  celldm(5)=   0.000000  celldm(6)=   0.000000

     crystal axes: (cart. coord. in units of alat)
               a(1) = (   0.999679  -0.020666   0.014646 )
               a(2) = (  -0.504609   0.854141   0.018963 )
               a(3) = (  -0.518346  -0.728346   2.983802 )

     reciprocal axes: (cart. coord. in units 2 pi/alat)
               b(1) = (  1.007814  0.588320  0.318686 )
               b(2) = (  0.020057  1.176165  0.290586 )
               b(3) = ( -0.005074 -0.010363  0.331732 )

     PseudoPot. # 1 for Mo read from file:
     ~/pseudo/Mo.pw91-n-van.UPF
     MD5 check sum: Not computed, couldn't open file
     Pseudo is Ultrasoft + core correction, Zval =  6.0
     Generated by new atomic code, or converted to UPF format
     Using radial grid of  965 points,  3 beta functions with:
                l(1) =   1
                l(2) =   2
                l(3) =   2
     Q(r) pseudized with  8 coefficients,  rinner =    1.000   1.000   1.000
                                                       1.200   1.200

     PseudoPot. # 2 for S  read from file:
     ~/pseudo/S.pw91-van_ak.UPF
     MD5 check sum: Not computed, couldn't open file
     Pseudo is Ultrasoft, Zval =  6.0
     Generated by new atomic code, or converted to UPF format
     Using radial grid of  811 points,  6 beta functions with:
                l(1) =   0
                l(2) =   0
                l(3) =   1
                l(4) =   1
                l(5) =   2
                l(6) =   2
     Q(r) pseudized with  8 coefficients,  rinner =    1.100   1.100   1.100
                                                       1.100   1.100

     atomic species   valence    mass     pseudopotential
        Mo             6.00    95.50000     Mo( 1.00)
        S              6.00    32.06500     S ( 1.00)

     No symmetry found

   Cartesian axes

     site n.     atom                  positions (alat units)
         1           Mo  tau(   1) = (   0.2072172   0.0302555   1.0058981  )
         2           Mo  tau(   2) = (  -0.0617527   0.4565689   0.9963958  )
         3           Mo  tau(   3) = (   0.6358500   0.0612079   1.0389785  )
         4           Mo  tau(   4) = (   0.3947589   0.3990005   1.1604420  )
         5           Mo  tau(   5) = (  -0.3266566  -0.3325225   1.9633512  )
         6           Mo  tau(   6) = (  -0.5695560   0.0235131   1.9471137  )
         7           Mo  tau(   7) = (   0.1725882  -0.3334598   1.9718091  )
         8           Mo  tau(   8) = (  -0.0721061   0.0033665   1.9544219  )
         9           Mo  tau(   9) = (  -0.6216895  -0.7688169   2.8723665  )
        10           Mo  tau(  10) = (  -0.9563203  -0.3116051   3.1256182  )
        11           Mo  tau(  11) = (  -0.2078936  -0.7929614   3.1317646  )
        12           Mo  tau(  12) = (  -0.3470643  -0.3668077   2.9030051  )
        13           S   tau(  13) = (  -0.1421431   0.2250395   0.1254214  )
        14           S   tau(  14) = (  -0.3676454   0.6194257   0.4176219  )
        15           S   tau(  15) = (   0.3053075   0.2199287   0.3543348  )
        16           S   tau(  16) = (   0.1216875   0.6286963   0.1578710  )
        17           S   tau(  17) = (  -0.0884374   0.1044726   0.7869887  )
        18           S   tau(  18) = (  -0.3787026   0.4057051   0.8572631  )
        19           S   tau(  19) = (   0.4429608  -0.1017877   0.7636540  )
        20           S   tau(  20) = (   0.2424759   0.3586658   0.8328989  )
        21           S   tau(  21) = (  -0.0845941  -0.1015840   1.1917449  )
        22           S   tau(  22) = (  -0.3798879   0.2905321   1.3476616  )
        23           S   tau(  23) = (   0.4176570  -0.1488270   1.2480656  )
        24           S   tau(  24) = (   0.0815901   0.2826636   1.2658287  )
        25           S   tau(  25) = (  -0.0711964  -0.4995740   1.7500799  )
        26           S   tau(  26) = (  -0.3223789  -0.0774093   1.7077917  )
        27           S   tau(  27) = (   0.4182610  -0.5194702   1.7714465  )
        28           S   tau(  28) = (   0.1721266  -0.0880568   1.7077750  )
        29           S   tau(  29) = (  -0.0753504  -0.2545815   2.2081835  )
        30           S   tau(  30) = (  -0.3225537   0.1920828   2.1627129  )
        31           S   tau(  31) = (   0.4315816  -0.2395812   2.2216066  )
        32           S   tau(  32) = (   0.1689155   0.1734051   2.1717741  )
        33           S   tau(  33) = (  -0.5100522  -0.5539918   2.6283438  )
        34           S   tau(  34) = (  -0.8374632  -0.1094291   2.8629292  )
        35           S   tau(  35) = (  -0.0688205  -0.5737554   2.8760964  )
        36           S   tau(  36) = (  -0.3197204  -0.1166099   2.6639281  )

     number of k points=     5  Marzari-Vanderbilt smearing, width (Ry)=  0.0200
                       cart. coord. in units 2pi/alat
        k(    1) = (   0.0000000   0.0000000   0.0000000), wk =   0.2222222
        k(    2) = (   0.0066855   0.3920549   0.0968620), wk =   0.4444444
        k(    3) = (   0.3359380   0.1961068   0.1062287), wk =   0.4444444
        k(    4) = (   0.3426235   0.5881617   0.2030907), wk =   0.4444444
        k(    5) = (   0.3292524  -0.1959482   0.0093667), wk =   0.4444444

     Initial potential from superposition of free atoms

     starting charge  215.98107, renormalised to  216.00000
     Starting wfcs are  204 randomized atomic wfcs

     Self-consistent Calculation

     iteration #  1     ecut=    45.00 Ry     beta= 0.70
     Davidson diagonalization with overlap
     ethr =  1.00E-02,  avg # of iterations =  2.0

     total energy              =    -842.91859791 Ry
     Harris-Foulkes estimate   =    -845.95289255 Ry
     estimated scf accuracy    <       9.05872042 Ry

[...]

     total energy              =    -844.47103759 Ry
     Harris-Foulkes estimate   =    -844.47103776 Ry
     estimated scf accuracy    <       0.00000142 Ry

     iteration # 15     ecut=    45.00 Ry     beta= 0.70
     Davidson diagonalization with overlap
     ethr =  6.59E-10,  avg # of iterations =  3.4

     End of self-consistent calculation

          k = 0.0000 0.0000 0.0000 ( 26315 PWs)   bands (ev):

    -8.4172  -7.6461  -7.5682  -7.3567  -6.6578  -6.6217  -6.6059  -6.5454
    -6.4472  -6.4105  -6.3785  -6.2318  -6.2144  -6.1924  -6.1513  -6.1195
    -5.9528  -5.9057  -5.7774  -5.7001  -5.6836  -5.6129  -5.5559  -5.4500
    -0.1730   0.2396   0.4143   0.4853   0.5264   0.5598   0.5774   0.5863
     0.6536   0.9418   1.0186   1.0524   1.2025   1.3048   1.4122   1.4860
     1.5735   1.6703   1.8457   1.9441   2.0067   2.0576   2.0716   2.1090
     2.2480   2.2915   2.3658   2.4489   2.5196   2.5609   2.5867   2.6436
     2.6690   2.7292   2.7602   2.7727   2.9590   3.0228   3.0636   3.1506
     3.1994   3.2441   3.2739   3.4202   3.4238   3.4996   3.5520   3.5822
     3.6394   3.7030   3.7378   3.8270   3.9041   3.9730   4.0085   4.1097
     4.1372   4.2704   4.4166   4.4707   4.5059   4.5455   4.6759   4.6877
     4.7142   4.7418   4.8269   4.8853   4.9953   5.0227   5.1099   5.5271
     5.5429   5.6530   5.6976   5.7664   5.8202   5.8880   5.9822   6.0183
     6.1267   6.1872   6.3002   6.4824   6.5239   6.5781   6.7285   6.7931
     7.0843   7.1386   7.1943   7.3202   7.3338   7.5219   7.5745   7.5966
     7.6532   7.6807   7.7812   7.7917   8.0241   8.0366   8.1376   8.1899
     8.2956   8.3498

[...]

          k = 0.3293-0.1959 0.0094 ( 26288 PWs)   bands (ev):

    -8.1169  -7.4570  -7.4070  -7.2111  -6.9307  -6.8480  -6.7833  -6.5423
    -6.5010  -6.4659  -6.4221  -6.3848  -6.2221  -6.2177  -6.1770  -6.0979
    -5.9573  -5.9273  -5.7706  -5.7449  -5.6746  -5.6352  -5.5745  -5.5047
     0.0894   0.3987   0.5774   0.6555   0.7725   0.8541   0.9105   0.9515
     0.9930   1.0376   1.1266   1.1682   1.3064   1.3602   1.4336   1.5261
     1.6229   1.7211   1.7360   1.8614   1.9237   2.0221   2.0635   2.1115
     2.1483   2.2046   2.2550   2.3317   2.4017   2.4559   2.5297   2.5817
     2.6313   2.6763   2.7876   2.8343   2.9004   2.9413   3.0143   3.0550
     3.1160   3.1806   3.2097   3.2954   3.3617   3.4464   3.4916   3.5603
     3.6522   3.7218   3.7494   3.7936   3.8423   3.9759   3.9888   4.0199
     4.0970   4.1261   4.1690   4.2491   4.3243   4.4647   4.5930   4.6492
     4.6637   4.8383   4.9143   4.9902   5.0421   5.1419   5.2121   5.3273
     5.3801   5.4921   5.5322   5.5948   5.6896   5.7842   5.8452   5.9255
     6.0012   6.1129   6.3487   6.3675   6.6274   6.6682   6.7162   6.8190
     7.0009   7.0482   7.0918   7.2190   7.2620   7.4270   7.4575   7.5203
     7.5804   7.7173   7.7669   7.8040   7.9654   7.9779   8.0875   8.2510
     8.2711   8.5075

     the Fermi energy is     6.4454 ev

!    total energy              =    -844.47103738 Ry
     Harris-Foulkes estimate   =    -844.47103781 Ry
     estimated scf accuracy    <       0.00000054 Ry

     The total energy is the sum of the following terms:

     one-electron contribution =     -94.48306662 Ry
     hartree contribution      =     168.23351673 Ry
     xc contribution           =    -333.56951649 Ry
     ewald contribution        =    -584.65758788 Ry
     smearing contrib. (-TS)   =       0.00561689 Ry

     convergence has been achieved in  15 iterations

     Forces acting on atoms (cartesian axes, Ry/au):

     atom    1 type  1   force =    -0.01924595    0.01611595    0.01005433
     atom    2 type  1   force =    -0.01058190   -0.01425515   -0.01334366
     atom    3 type  1   force =     0.01637070   -0.00438549    0.00760678
     atom    4 type  1   force =    -0.00329000    0.01484949   -0.02395362
     atom    5 type  1   force =    -0.00611774    0.03405507    0.00572158
     atom    6 type  1   force =    -0.00991224   -0.02208697   -0.02150729
     atom    7 type  1   force =     0.02175547    0.00414140    0.00538123
     atom    8 type  1   force =    -0.00883095   -0.00187871   -0.00089681
     atom    9 type  1   force =    -0.00768908   -0.02657564    0.01665395
     atom   10 type  1   force =     0.00506772   -0.00075973   -0.00523232
     atom   11 type  1   force =    -0.01030939   -0.01858258   -0.01115029
     atom   12 type  1   force =    -0.03520936   -0.02632383    0.03269943
     atom   13 type  2   force =     0.02843725    0.01099372   -0.00154540
     atom   14 type  2   force =    -0.00546629   -0.00694052    0.02659180
     atom   15 type  2   force =    -0.00791088    0.01839090   -0.02132334
     atom   16 type  2   force =     0.00781745    0.03034779   -0.00032251
     atom   17 type  2   force =     0.01048743   -0.00097022   -0.00716724
     atom   18 type  2   force =    -0.00428030   -0.00923348   -0.00149953
     atom   19 type  2   force =     0.00459197    0.01883044    0.00627782
     atom   20 type  2   force =    -0.01613589   -0.01034394   -0.01075531
     atom   21 type  2   force =    -0.01078284    0.01964928    0.01548459
     atom   22 type  2   force =     0.02021110   -0.03328995    0.00477013
     atom   23 type  2   force =    -0.00795304    0.02023710   -0.01814929
     atom   24 type  2   force =     0.02503997   -0.01884617    0.03124091
     atom   25 type  2   force =    -0.00280130   -0.01924923   -0.00071338
     atom   26 type  2   force =    -0.00646315    0.00250581   -0.02539017
     atom   27 type  2   force =     0.01848118   -0.00185598   -0.02461984
     atom   28 type  2   force =     0.01429817    0.01267893   -0.00000276
     atom   29 type  2   force =    -0.00615340    0.00947102    0.04081904
     atom   30 type  2   force =    -0.00629419   -0.00554958    0.01122103
     atom   31 type  2   force =    -0.01490211   -0.02025078    0.01217423
     atom   32 type  2   force =     0.00481196    0.00780207    0.00741648
     atom   33 type  2   force =    -0.00663843    0.00848918    0.00194948
     atom   34 type  2   force =     0.01037200   -0.00276815   -0.02094521
     atom   35 type  2   force =     0.01622442    0.02146997   -0.02359816
     atom   36 type  2   force =     0.00300167   -0.00588199   -0.00394667

     Total force =     0.164328     Total SCF correction =     0.001412

     General routines

     Parallel routines

   This run was terminated on:  11:12:41   8Sep2021

   JOB DONE.