     Program PWSCF v.6.4 starts on 24Dec2021 at 20:57: 9

     R & G space division:  proc/nbgrp/npool/nimage =      40
     Waiting for input...
     Reading input from standard input
Warning: card    &IONS ignored
Warning: card      ION_DYNAMICS = 'BFGS' ignored
Warning: card   / ignored
Warning: card    &CELL ignored
Warning: card      CELL_DYNAMICS = 'BFGS', ignored
Warning: card    / ignored

     Current dimensions of program PWSCF are:
     Max number of different atomic species (ntypx) = 10
     Max number of k-points (npk) =  40000
     Max angular momentum in pseudopotentials (lmaxx) =  3

     bravais-lattice index     =            0
     lattice parameter (alat)  =      16.6679  a.u.
     unit-cell volume          =    7705.0707 (a.u.)^3
     number of atoms/cell      =           42
     number of atomic types    =            2
     number of electrons       =       252.00
     number of Kohn-Sham states=          151
     kinetic-energy cutoff     =      45.0000  Ry
     charge density cutoff     =     360.0000  Ry
     convergence threshold     =      1.0E-06
     mixing beta               =       0.7000
     number of iterations used =            8  local-TF  mixing
     Exchange-correlation      = SLA PW GGX GGC ( 1  4  2  2 0 0)

     celldm(1)=  16.667906  celldm(2)=   0.000000  celldm(3)=   0.000000
     celldm(4)=   0.000000  celldm(5)=   0.000000  celldm(6)=   0.000000

     crystal axes: (cart. coord. in units of alat)
               a(1) = (   1.000000   0.000000   0.000000 )
               a(2) = (  -0.455909   1.053576   0.000000 )
               a(3) = (   0.033308  -0.520123   1.579311 )

     reciprocal axes: (cart. coord. in units 2 pi/alat)
               b(1) = (  1.000000  0.432725  0.121422 )
               b(2) = (  0.000000  0.949149  0.312588 )
               b(3) = (  0.000000  0.000000  0.633187 )

     PseudoPot. # 1 for Mo read from file:
     ~/pseudo/Mo.pw91-n-van.UPF
     MD5 check sum: Not computed, couldn't open file
     Pseudo is Ultrasoft + core correction, Zval =  6.0
     Generated by new atomic code, or converted to UPF format
     Using radial grid of  965 points,  3 beta functions with:
                l(1) =   1
                l(2) =   2
                l(3) =   2
     Q(r) pseudized with  8 coefficients,  rinner =    1.000   1.000   1.000
                                                       1.200   1.200

     PseudoPot. # 2 for S  read from file:
     ~/pseudo/S.pw91-van_ak.UPF
     MD5 check sum: Not computed, couldn't open file
     Pseudo is Ultrasoft, Zval =  6.0
     Generated by new atomic code, or converted to UPF format
     Using radial grid of  811 points,  6 beta functions with:
                l(1) =   0
                l(2) =   0
                l(3) =   1
                l(4) =   1
                l(5) =   2
                l(6) =   2
     Q(r) pseudized with  8 coefficients,  rinner =    1.100   1.100   1.100
                                                       1.100   1.100

     atomic species   valence    mass     pseudopotential
        Mo             6.00    95.50000     Mo( 1.00)
        S              6.00    32.06500     S ( 1.00)

     No symmetry found

   Cartesian axes

     site n.     atom                  positions (alat units)
         1           Mo  tau(   1) = (   0.1742543   0.9000549   0.1479737  )
         2           Mo  tau(   2) = (   0.1519493   0.5870129   0.3016805  )
         3           Mo  tau(   3) = (  -0.0231328   0.6861997   0.0550207  )
         4           Mo  tau(   4) = (  -0.0626767   0.8195938   0.3811562  )
         5           Mo  tau(   5) = (   0.8569294  -0.1715421   1.3120079  )
         6           Mo  tau(   6) = (   0.8912182   0.2109712   0.0310435  )
         7           Mo  tau(   7) = (   0.4796515   0.5676064   1.3336068  )
         8           Mo  tau(   8) = (   0.6651400  -0.4208592   1.5141112  )
         9           Mo  tau(   9) = (   0.0786562   0.0225709   0.6698057  )
        10           Mo  tau(  10) = (  -0.1450190   0.9832822   0.0772764  )
        11           Mo  tau(  11) = (  -0.0198634   0.3572293   0.7113642  )
        12           Mo  tau(  12) = (  -0.1919516   0.4233405   0.9772229  )
        13           Mo  tau(  13) = (   0.7474301   0.2407796   1.2249556  )
        14           Mo  tau(  14) = (  -0.0966388   0.1220761   0.9420010  )
        15           S   tau(  15) = (   0.2486679   0.6511880   0.0625240  )
        16           S   tau(  16) = (   0.2169206   0.8312439   0.4123594  )
        17           S   tau(  17) = (   0.0075168  -0.1046105   1.0872375  )
        18           S   tau(  18) = (  -0.0297618   0.5693257   0.5195701  )
        19           S   tau(  19) = (   0.0100355   0.1935459   0.4919874  )
        20           S   tau(  20) = (   0.6950109   0.1168077   0.2194102  )
        21           S   tau(  21) = (   0.3270934  -0.1264808   0.6587098  )
        22           S   tau(  22) = (   0.0846184  -0.2734389   1.3928333  )
        23           S   tau(  23) = (   0.7056025  -0.1451895   1.5355807  )
        24           S   tau(  24) = (   0.0842574   0.3837172   1.4685742  )
        25           S   tau(  25) = (   0.3597387   0.4435156   0.3777284  )
        26           S   tau(  26) = (  -0.3090121   0.8259347   0.5449420  )
        27           S   tau(  27) = (  -0.1147829   0.0905093   1.4064000  )
        28           S   tau(  28) = (   0.3641367   0.0383998   0.3358925  )
        29           S   tau(  29) = (  -0.2457900   0.7450580   0.1910919  )
        30           S   tau(  30) = (   0.4190518   0.4450927   1.5609081  )
        31           S   tau(  31) = (   0.7408134   0.2726497   0.7794874  )
        32           S   tau(  32) = (  -0.2706605   0.4179212   1.4331296  )
        33           S   tau(  33) = (   0.1582454   0.2068590   0.8425596  )
        34           S   tau(  34) = (  -0.0400365   0.4349105   0.1820602  )
        35           S   tau(  35) = (  -0.0170365   0.3108561   1.1407671  )
        36           S   tau(  36) = (   0.6997978  -0.3871833   1.2429856  )
        37           S   tau(  37) = (   0.5708694   0.4195168   1.1144344  )
        38           S   tau(  38) = (   0.6665800   0.0213141   1.0893940  )
        39           S   tau(  39) = (   0.8602385  -0.0900954   0.7632567  )
        40           S   tau(  40) = (   0.4076404  -0.3351124   1.5640554  )
        41           S   tau(  41) = (  -0.0103292   0.5844772   0.8761649  )
        42           S   tau(  42) = (   0.0777768   0.0555554   0.1643839  )

     number of k points=     8  Marzari-Vanderbilt smearing, width (Ry)=  0.0200
                       cart. coord. in units 2pi/alat
        k(    1) = (   0.0000000   0.0000000   0.0000000), wk =   0.2500000
        k(    2) = (   0.0000000   0.0000000  -0.3165937), wk =   0.2500000
        k(    3) = (   0.0000000  -0.4745743  -0.1562940), wk =   0.2500000
        k(    4) = (   0.0000000  -0.4745743  -0.4728876), wk =   0.2500000
        k(    5) = (  -0.5000000  -0.2163627  -0.0607109), wk =   0.2500000
        k(    6) = (  -0.5000000  -0.2163627  -0.3773045), wk =   0.2500000
        k(    7) = (  -0.5000000  -0.6909370  -0.2170048), wk =   0.2500000
        k(    8) = (  -0.5000000  -0.6909370  -0.5335985), wk =   0.2500000

     Initial potential from superposition of free atoms

     starting charge  251.97792, renormalised to  252.00000
     Starting wfcs are  238 randomized atomic wfcs

     Self-consistent Calculation

     iteration #  1     ecut=    45.00 Ry     beta= 0.70
     Davidson diagonalization with overlap
     ethr =  1.00E-02,  avg # of iterations =  2.0

     total energy              =    -982.99535997 Ry
     Harris-Foulkes estimate   =    -986.62285261 Ry
     estimated scf accuracy    <       9.83227427 Ry

[...]

     iteration #  6     ecut=    45.00 Ry     beta= 0.70
     Davidson diagonalization with overlap
     c_bands:  1 eigenvalues not converged
     ethr =  1.87E-05,  avg # of iterations =  9.2

[...]

     total energy              =    -984.89290068 Ry
     Harris-Foulkes estimate   =    -984.89290161 Ry
     estimated scf accuracy    <       0.00000530 Ry

     iteration # 13     ecut=    45.00 Ry     beta= 0.70
     Davidson diagonalization with overlap
     ethr =  2.10E-09,  avg # of iterations =  1.8

     End of self-consistent calculation

          k = 0.0000 0.0000 0.0000 ( 39273 PWs)   bands (ev):

   -11.6108 -10.4789  -9.8940  -9.6441  -9.5665  -9.4569  -9.3517  -9.2847
    -9.2369  -9.1445  -9.1152  -9.0169  -8.9779  -8.8236  -8.7631  -8.7570
    -8.5963  -8.5742  -8.5089  -8.4387  -8.2731  -8.2304  -8.2241  -7.9782
    -7.9417  -7.6850  -7.4693  -7.2307  -2.0363  -2.0054  -1.8873  -1.8165
    -1.7538  -1.5405  -1.5266  -1.4602  -1.4047  -1.2820  -1.2547  -1.2094
    -1.1687  -1.1414  -1.0833  -1.0761  -1.0265  -0.9640  -0.8419  -0.7733
    -0.7466  -0.7093  -0.6777  -0.6423  -0.5467  -0.4227  -0.4182  -0.3609
    -0.3075  -0.2806  -0.2427  -0.1724  -0.1456  -0.1027  -0.0612  -0.0362
    -0.0134   0.0508   0.0623   0.1529   0.2019   0.2996   0.3250   0.3637
     0.4054   0.4102   0.5649   0.6178   0.6453   0.7186   0.7348   0.8031
     0.8426   0.9020   0.9623   0.9934   1.0763   1.1057   1.1377   1.2338
     1.2835   1.3122   1.3495   1.5085   1.5271   1.5365   1.5734   1.6716
     1.7525   1.8239   1.9002   1.9694   2.0765   2.1137   2.1705   2.2866
     2.3358   2.4164   2.4532   2.5549   2.6742   2.7014   2.7619   2.8718
     2.9436   2.9542   2.9940   3.0847   3.1466   3.2300   3.2847   3.3971
     3.4439   3.5005   3.5902   3.6776   3.7410   3.8120   3.9403   3.9742
     4.1109   4.1520   4.2068   4.3087   4.4272   4.4882   4.6495   4.6767
     4.7049   4.7582   4.8224   4.9847   5.0008   5.0270   5.1976   5.2550
     5.2885   5.3284   5.4277   5.4288   5.5479   5.5627   5.6368

[...]

          k = 0.0000-0.4746-0.4729 ( 39292 PWs)   bands (ev):

[...]

          k =-0.5000-0.2164-0.0607 ( 39320 PWs)   bands (ev):

[...]

          k =-0.5000-0.6909-0.5336 ( 39226 PWs)   bands (ev):

   -11.6092 -10.3721 -10.0225  -9.7064  -9.5940  -9.4308  -9.3441  -9.2892
    -9.2568  -9.1518  -9.0895  -8.9792  -8.9594  -8.8695  -8.7703  -8.7364
    -8.6264  -8.5465  -8.5085  -8.3972  -8.2999  -8.2251  -8.2147  -7.9914
    -7.8578  -7.6918  -7.4686  -7.2295  -2.3439  -1.9586  -1.9195  -1.8024
    -1.7088  -1.6541  -1.5455  -1.5082  -1.4288  -1.3920  -1.2761  -1.2114
    -1.1483  -1.1177  -1.0701  -1.0112  -0.9747  -0.8402  -0.7779  -0.7328
    -0.7155  -0.6534  -0.6102  -0.5774  -0.4762  -0.4630  -0.4415  -0.3771
    -0.3527  -0.3088  -0.2350  -0.2113  -0.1574  -0.1299  -0.1172  -0.0477
     0.0279   0.0976   0.1626   0.1917   0.2909   0.3346   0.3757   0.4105
     0.4512   0.5050   0.5254   0.6182   0.6466   0.6651   0.6981   0.8084
     0.8380   0.8893   0.9917   1.0135   1.0682   1.1129   1.1553   1.1804
     1.2221   1.2394   1.3513   1.4402   1.5153   1.5465   1.6340   1.6750
     1.8045   1.8300   1.8571   1.9749   2.0650   2.1183   2.2008   2.2734
     2.3616   2.4175   2.4657   2.4877   2.6209   2.7026   2.7877   2.8288
     2.8803   2.9022   2.9647   3.1125   3.1452   3.2133   3.3025   3.3499
     3.4091   3.4798   3.5550   3.6109   3.7457   3.8863   3.9298   3.9874
     4.1032   4.2010   4.2463   4.3522   4.4306   4.5136   4.5349   4.6737
     4.6852   4.7690   4.9017   4.9461   5.0149   5.1342   5.1746   5.2069
     5.3003   5.3971   5.4485   5.4864   5.5328   5.5653   5.6204

     the Fermi energy is     3.8875 ev

!    total energy              =    -984.89290022 Ry
     Harris-Foulkes estimate   =    -984.89290107 Ry
     estimated scf accuracy    <       0.00000100 Ry

     The total energy is the sum of the following terms:

     one-electron contribution =    -499.29532553 Ry
     hartree contribution      =     367.31800208 Ry
     xc contribution           =    -388.39116259 Ry
     ewald contribution        =    -464.52578792 Ry
     smearing contrib. (-TS)   =       0.00137374 Ry

     convergence has been achieved in  13 iterations

     Forces acting on atoms (cartesian axes, Ry/au):

     atom    1 type  1   force =    -0.02340372    0.03154486    0.02748944
     atom    2 type  1   force =     0.11246163   -0.06522350    0.07562366
     atom    3 type  1   force =    -0.03473016    0.00191101   -0.04305346
     atom    4 type  1   force =    -0.04581374    0.06904300    0.03781663
     atom    5 type  1   force =    -0.02754940   -0.01005750   -0.05717455
     atom    6 type  1   force =     0.02231322   -0.00008110    0.01049690
     atom    7 type  1   force =     0.04067887   -0.00978359    0.01674047
     atom    8 type  1   force =    -0.04701985    0.01278115    0.04636158
     atom    9 type  1   force =    -0.04323125   -0.00419026   -0.00535858
     atom   10 type  1   force =     0.05862654    0.03303110    0.00321287
     atom   11 type  1   force =     0.00748187    0.03381469   -0.00750782
     atom   12 type  1   force =     0.01409155    0.04366173    0.03532273
     atom   13 type  1   force =    -0.01607509   -0.02691601   -0.00418615
     atom   14 type  1   force =     0.02237654   -0.00381738   -0.00580072
     atom   15 type  2   force =     0.01872612   -0.01801531   -0.02733546
     atom   16 type  2   force =    -0.01730697   -0.00553811   -0.00243973
     atom   17 type  2   force =    -0.01911250    0.00800694    0.02385573
     atom   18 type  2   force =     0.00306037    0.00637069   -0.02237631
     atom   19 type  2   force =    -0.00287725   -0.00993651   -0.00867187
     atom   20 type  2   force =    -0.02512388   -0.02105619   -0.00511547
     atom   21 type  2   force =    -0.01058725   -0.00524055    0.01147632
     atom   22 type  2   force =     0.04347082   -0.01539504    0.00660673
     atom   23 type  2   force =    -0.00644672   -0.02073031    0.01263206
     atom   24 type  2   force =    -0.02825401   -0.00664147    0.02492165
     atom   25 type  2   force =    -0.06978707    0.04765185   -0.02613906
     atom   26 type  2   force =     0.00987280    0.00190492    0.00113138
     atom   27 type  2   force =     0.03209287   -0.00570384    0.02165984
     atom   28 type  2   force =     0.01253682   -0.05363756   -0.03298833
     atom   29 type  2   force =     0.00465080    0.00030689    0.01364599
     atom   30 type  2   force =     0.02513850    0.04046489   -0.00689174
     atom   31 type  2   force =    -0.04082833   -0.04509699   -0.03769689
     atom   32 type  2   force =    -0.02645440   -0.00082262   -0.03476492
     atom   33 type  2   force =     0.01186020   -0.00276916    0.04716521
     atom   34 type  2   force =    -0.00532684   -0.00313739   -0.02542482
     atom   35 type  2   force =     0.01927927   -0.01667201   -0.01954038
     atom   36 type  2   force =    -0.00791733    0.00919078   -0.03676315
     atom   37 type  2   force =    -0.01173041    0.01486212   -0.01430746
     atom   38 type  2   force =     0.02471322    0.02450671    0.01826319
     atom   39 type  2   force =     0.03387344    0.01031862   -0.00838420
     atom   40 type  2   force =     0.01442902   -0.01460316   -0.00704322
     atom   41 type  2   force =    -0.00742955   -0.02317885   -0.00956165
     atom   42 type  2   force =    -0.01472877   -0.00112759    0.01410358

     Total force =     0.320993     Total SCF correction =     0.002223

     General routines

     Parallel routines

   This run was terminated on:  21: 0:17  24Dec2021

   JOB DONE.