     Program PWSCF v.6.4 starts on  2Sep2021 at 10:47:10

     R & G space division:  proc/nbgrp/npool/nimage =      40
     Waiting for input...
     Reading input from standard input
Warning: card    &IONS ignored
Warning: card      ION_DYNAMICS = 'BFGS' ignored
Warning: card   / ignored
Warning: card    &CELL ignored
Warning: card      CELL_DYNAMICS = 'BFGS', ignored
Warning: card    / ignored

     Current dimensions of program PWSCF are:
     Max number of different atomic species (ntypx) = 10
     Max number of k-points (npk) =  40000
     Max angular momentum in pseudopotentials (lmaxx) =  3

     Found symmetry operation: I + ( -0.0000 -0.5000 -0.0000)
     This is a supercell, fractional translations are disabled

     bravais-lattice index     =            0
     lattice parameter (alat)  =      12.2133  a.u.
     unit-cell volume          =    5011.9282 (a.u.)^3
     number of atoms/cell      =           36
     number of atomic types    =            2
     number of electrons       =       216.00
     number of Kohn-Sham states=          130
     kinetic-energy cutoff     =      45.0000  Ry
     charge density cutoff     =     360.0000  Ry
     convergence threshold     =      1.0E-06
     mixing beta               =       0.7000
     number of iterations used =            8  local-TF  mixing
     Exchange-correlation      = SLA PW GGX GGC ( 1  4  2  2 0 0)

     celldm(1)=  12.213314  celldm(2)=   0.000000  celldm(3)=   0.000000
     celldm(4)=   0.000000  celldm(5)=   0.000000  celldm(6)=   0.000000

     crystal axes: (cart. coord. in units of alat)
               a(1) = (   1.000000   0.000000   0.000000 )
               a(2) = (   0.500059   0.866036   0.000000 )
               a(3) = (   0.250945   0.434430   3.176642 )

     reciprocal axes: (cart. coord. in units 2 pi/alat)
               b(1) = (  1.000000 -0.577411 -0.000032 )
               b(2) = (  0.000000  1.154686 -0.157912 )
               b(3) = (  0.000000  0.000000  0.314798 )

     PseudoPot. # 1 for Mo read from file:
     ~/pseudo/Mo.pw91-n-van.UPF
     MD5 check sum: Not computed, couldn't open file
     Pseudo is Ultrasoft + core correction, Zval =  6.0
     Generated by new atomic code, or converted to UPF format
     Using radial grid of  965 points,  3 beta functions with:
                l(1) =   1
                l(2) =   2
                l(3) =   2
     Q(r) pseudized with  8 coefficients,  rinner =    1.000   1.000   1.000
                                                       1.200   1.200

     PseudoPot. # 2 for S  read from file:
     ~/pseudo/S.pw91-van_ak.UPF
     MD5 check sum: Not computed, couldn't open file
     Pseudo is Ultrasoft, Zval =  6.0
     Generated by new atomic code, or converted to UPF format
     Using radial grid of  811 points,  6 beta functions with:
                l(1) =   0
                l(2) =   0
                l(3) =   1
                l(4) =   1
                l(5) =   2
                l(6) =   2
     Q(r) pseudized with  8 coefficients,  rinner =    1.100   1.100   1.100
                                                       1.100   1.100

     atomic species   valence    mass     pseudopotential
        Mo             6.00    95.50000     Mo( 1.00)
        S              6.00    32.06500     S ( 1.00)

     No symmetry found

   Cartesian axes

     site n.     atom                  positions (alat units)
         1           Mo  tau(   1) = (   0.5071073   0.8657617   1.0584757  )
         2           Mo  tau(   2) = (   0.2570777   0.4327437   1.0584757  )
         3           Mo  tau(   3) = (   0.7570778   0.4327437   1.0584757  )
         4           Mo  tau(   4) = (   1.0071073   0.8657617   1.0584757  )
         5           Mo  tau(   5) = (   0.7502974   0.4336724   2.1172029  )
         6           Mo  tau(   6) = (   1.0003270   0.8666903   2.1172029  )
         7           Mo  tau(   7) = (   1.5003270   0.8666904   2.1172029  )
         8           Mo  tau(   8) = (   1.2502974   0.4336724   2.1172029  )
         9           Mo  tau(   9) = (   0.9957852   0.0031900  -0.0006757  )
        10           Mo  tau(  10) = (   1.2458147   0.4362080  -0.0006757  )
        11           Mo  tau(  11) = (   0.7458147   0.4362080  -0.0006757  )
        12           Mo  tau(  12) = (   0.4957852   0.0031900  -0.0006757  )
        13           S   tau(  13) = (   0.2458871   0.1475145   0.2438101  )
        14           S   tau(  14) = (   0.4959167   0.5805324   0.2438101  )
        15           S   tau(  15) = (   0.9959166   0.5805324   0.2438100  )
        16           S   tau(  16) = (   0.7458871   0.1475145   0.2438101  )
        17           S   tau(  17) = (   0.7569738   0.1441005   0.8139902  )
        18           S   tau(  18) = (   1.0070033   0.5771185   0.8139902  )
        19           S   tau(  19) = (   0.5070033   0.5771185   0.8139902  )
        20           S   tau(  20) = (   0.2569737   0.1441005   0.8139902  )
        21           S   tau(  21) = (   1.2571097   1.0100857   1.3029609  )
        22           S   tau(  22) = (   1.0070801   0.5770677   1.3029609  )
        23           S   tau(  23) = (   0.5070801   0.5770677   1.3029609  )
        24           S   tau(  24) = (   0.7571097   1.0100856   1.3029609  )
        25           S   tau(  25) = (   1.2504275   1.0109971   1.8727155  )
        26           S   tau(  26) = (   1.0003979   0.5779791   1.8727155  )
        27           S   tau(  27) = (   0.5003979   0.5779791   1.8727155  )
        28           S   tau(  28) = (   0.7504275   1.0109971   1.8727155  )
        29           S   tau(  29) = (   1.2502471   1.0110749   2.3616906  )
        30           S   tau(  30) = (   1.0002176   0.5780569   2.3616906  )
        31           S   tau(  31) = (   0.5002176   0.5780569   2.3616906  )
        32           S   tau(  32) = (   0.7502472   1.0110749   2.3616906  )
        33           S   tau(  33) = (   0.4967001   0.5819418   2.9314809  )
        34           S   tau(  34) = (   0.7467296   1.0149598   2.9314809  )
        35           S   tau(  35) = (   1.2467296   1.0149598   2.9314809  )
        36           S   tau(  36) = (   0.9967001   0.5819418   2.9314809  )

     number of k points=     5  Marzari-Vanderbilt smearing, width (Ry)=  0.0200
                       cart. coord. in units 2pi/alat
        k(    1) = (   0.0000000   0.0000000   0.0000000), wk =   0.2222222
        k(    2) = (   0.0000000   0.3848955  -0.0526374), wk =   0.4444444
        k(    3) = (   0.3333333  -0.1924705  -0.0000105), wk =   0.4444444
        k(    4) = (   0.3333333   0.1924250  -0.0526479), wk =   0.4444444
        k(    5) = (   0.3333333  -0.5773660   0.0526268), wk =   0.4444444

     Initial potential from superposition of free atoms

     starting charge  215.98107, renormalised to  216.00000
     Starting wfcs are  204 randomized atomic wfcs

     Self-consistent Calculation

     iteration #  1     ecut=    45.00 Ry     beta= 0.70
     Davidson diagonalization with overlap
     ethr =  1.00E-02,  avg # of iterations =  2.0

     total energy              =    -844.18658034 Ry
     Harris-Foulkes estimate   =    -846.87059956 Ry
     estimated scf accuracy    <       6.87163076 Ry

[...]

     iteration # 10     ecut=    45.00 Ry     beta= 0.70
     Davidson diagonalization with overlap
     c_bands:  1 eigenvalues not converged
     ethr =  2.00E-08,  avg # of iterations =  8.8

     total energy              =    -845.52393245 Ry
     Harris-Foulkes estimate   =    -845.52393600 Ry
     estimated scf accuracy    <       0.00001637 Ry

     iteration # 11     ecut=    45.00 Ry     beta= 0.70
     Davidson diagonalization with overlap
     ethr =  7.58E-09,  avg # of iterations =  3.0

     End of self-consistent calculation

          k = 0.0000 0.0000 0.0000 ( 25515 PWs)   bands (ev):

    -7.6555  -7.5984  -7.5983  -6.4695  -6.4691  -6.3716  -5.9577  -5.9444
    -5.9442  -5.9440  -5.9439  -5.9110  -5.9107  -5.8899  -5.8898  -5.6871
    -5.6870  -5.6628  -5.6623  -5.6238  -5.6236  -5.6236  -5.6235  -5.6065
     0.6686   0.7071   0.7291   0.7291   0.7294   0.7295   0.7758   0.7760
     0.8003   0.8004   0.9926   0.9931   1.6146   1.6147   1.6462   1.6478
     1.7195   1.7197   1.7205   1.7208   1.7652   2.1938   2.2726   2.2733
     2.2743   2.2750   2.4294   2.4321   2.5156   2.5156   3.2277   3.2280
     3.2317   3.2323   3.2424   3.2425   3.2426   3.2429   3.2470   3.7468
     3.7474   3.7519   3.7522   3.7526   3.7529   4.1699   4.1699   4.3172
     4.3191   4.3342   4.3357   4.6250   4.6253   4.6261   4.6262   4.8087
     4.8383   4.8389   4.8395   4.8401   4.8492   4.8498   5.3272   5.3319
     5.3407   5.3409   5.3410   5.3413   5.3666   5.3668   5.3802   5.3805
     5.5338   5.6406   5.6407   5.6416   5.6418   5.7840   5.7847   5.8385
     5.8387   5.9981   6.5967   6.5974   8.2949   8.2982   8.2982   8.2984
     8.2986   8.3056   8.3058   8.3094   8.3095   8.7521   8.7805   8.7807
     8.7810   8.7811   8.8362   8.8368   8.8630   8.8632   8.9626   8.9629
     8.9638   8.9641

[...]

          k = 0.3333-0.5774 0.0526 ( 25614 PWs)   bands (ev):

    -6.6957  -6.6957  -6.6900  -6.6693  -6.6562  -6.6561  -6.6323  -6.6323
    -6.6250  -6.0264  -6.0165  -6.0164  -5.9845  -5.9844  -5.9667  -5.9378
    -5.9294  -5.9294  -5.7176  -5.7017  -5.6609  -5.5250  -5.4786  -5.4598
     1.1159   1.1413   1.1555   1.4393   1.4394   1.4597   1.5304   1.5738
     1.5739   1.6511   1.6511   1.6746   1.8696   1.8929   1.9397   2.3702
     2.3936   2.4366   2.4517   2.4517   2.4643   2.5141   2.5500   2.5501
     2.6245   2.6364   2.6364   2.6793   2.7258   2.7536   2.7759   2.7760
     2.8126   2.8127   2.8282   2.8510   2.8569   2.8570   2.9886   3.1276
     3.1603   3.1603   3.2503   3.2503   3.2934   3.3561   3.3727   3.3728
     3.4243   3.5063   3.5486   3.9246   4.2726   4.3739   4.3740   4.3770
     4.3881   4.3946   4.3947   4.4059   4.4060   4.4093   4.4217   5.0126
     5.0502   5.0503   5.1812   5.1812   5.2609   5.4073   5.4574   5.4575
     5.5549   5.5549   5.5654   5.5813   5.5866   5.5866   5.5942   5.5942
     5.5963   6.2534   6.2685   6.2989   7.8552   7.8574   7.8613   7.9591
     7.9591   7.9923   8.1034   8.1698   8.1699   8.2893   8.2893   8.3270
     8.5288   8.5289   8.5373   8.5705   8.5933   8.5934   8.6464   8.6465
     8.6737   8.7982

     the Fermi energy is     6.5365 ev

!    total energy              =    -845.52393512 Ry
     Harris-Foulkes estimate   =    -845.52393524 Ry
     estimated scf accuracy    <       0.00000022 Ry

     The total energy is the sum of the following terms:

     one-electron contribution =     -73.95089338 Ry
     hartree contribution      =     160.33361716 Ry
     xc contribution           =    -333.94384569 Ry
     ewald contribution        =    -597.97813501 Ry
     smearing contrib. (-TS)   =       0.01532180 Ry

     convergence has been achieved in  11 iterations

     Forces acting on atoms (cartesian axes, Ry/au):

     atom    1 type  1   force =    -0.00034754    0.00018369    0.00011338
     atom    2 type  1   force =    -0.00020592   -0.00000019    0.00009109
     atom    3 type  1   force =    -0.00016243   -0.00011598    0.00016314
     atom    4 type  1   force =    -0.00001128    0.00016091    0.00014716
     atom    5 type  1   force =    -0.00007949    0.00000764    0.00017507
     atom    6 type  1   force =     0.00010758    0.00004383    0.00014880
     atom    7 type  1   force =    -0.00002139   -0.00002124    0.00028075
     atom    8 type  1   force =     0.00011575    0.00011000    0.00022861
     atom    9 type  1   force =    -0.00029632    0.00018025    0.00021151
     atom   10 type  1   force =     0.00033040   -0.00021429    0.00021408
     atom   11 type  1   force =    -0.00006113   -0.00064077    0.00030346
     atom   12 type  1   force =     0.00053173    0.00040374    0.00024751
     atom   13 type  2   force =    -0.00042867   -0.00006109   -0.00780265
     atom   14 type  2   force =    -0.00031901    0.00028759   -0.00785535
     atom   15 type  2   force =    -0.00026514    0.00011399   -0.00798922
     atom   16 type  2   force =    -0.00017566   -0.00005180   -0.00794742
     atom   17 type  2   force =     0.00014488   -0.00017985    0.00768402
     atom   18 type  2   force =     0.00044342   -0.00017541    0.00766538
     atom   19 type  2   force =     0.00012012   -0.00012598    0.00766963
     atom   20 type  2   force =     0.00032411   -0.00005322    0.00766724
     atom   21 type  2   force =     0.00023504   -0.00011977   -0.00793889
     atom   22 type  2   force =     0.00006490    0.00015253   -0.00801272
     atom   23 type  2   force =     0.00003145    0.00022651   -0.00781956
     atom   24 type  2   force =    -0.00004200   -0.00011431   -0.00782956
     atom   25 type  2   force =    -0.00031447   -0.00001745    0.00768264
     atom   26 type  2   force =    -0.00020880    0.00021522    0.00766256
     atom   27 type  2   force =    -0.00039602    0.00004682    0.00775240
     atom   28 type  2   force =    -0.00016779    0.00001279    0.00770196
     atom   29 type  2   force =     0.00024307    0.00003225   -0.00786949
     atom   30 type  2   force =     0.00012077   -0.00027844   -0.00781193
     atom   31 type  2   force =     0.00027264   -0.00018155   -0.00795872
     atom   32 type  2   force =     0.00021138   -0.00004194   -0.00800329
     atom   33 type  2   force =    -0.00009609   -0.00006574    0.00767932
     atom   34 type  2   force =     0.00002294    0.00021731    0.00777666
     atom   35 type  2   force =     0.00010840    0.00004138    0.00780865
     atom   36 type  2   force =     0.00017059    0.00002257    0.00776375

     Total force =     0.038297     Total SCF correction =     0.000720

     General routines

     Parallel routines

   This run was terminated on:  10:48:28   2Sep2021

   JOB DONE.