     Program PWSCF v.6.4 starts on 23Dec2021 at 23: 3:37

     R & G space division:  proc/nbgrp/npool/nimage =      40
     Waiting for input...
     Reading input from standard input
Warning: card    &IONS ignored
Warning: card      ION_DYNAMICS = 'BFGS' ignored
Warning: card   / ignored
Warning: card    &CELL ignored
Warning: card      CELL_DYNAMICS = 'BFGS', ignored
Warning: card    / ignored

     Current dimensions of program PWSCF are:
     Max number of different atomic species (ntypx) = 10
     Max number of k-points (npk) =  40000
     Max angular momentum in pseudopotentials (lmaxx) =  3

     bravais-lattice index     =            0
     lattice parameter (alat)  =      15.6036  a.u.
     unit-cell volume          =    6188.1242 (a.u.)^3
     number of atoms/cell      =           33
     number of atomic types    =            2
     number of electrons       =       198.00
     number of Kohn-Sham states=          119
     kinetic-energy cutoff     =      45.0000  Ry
     charge density cutoff     =     360.0000  Ry
     convergence threshold     =      1.0E-06
     mixing beta               =       0.7000
     number of iterations used =            8  local-TF  mixing
     Exchange-correlation      = SLA PW GGX GGC ( 1  4  2  2 0 0)

     celldm(1)=  15.603616  celldm(2)=   0.000000  celldm(3)=   0.000000
     celldm(4)=   0.000000  celldm(5)=   0.000000  celldm(6)=   0.000000

     crystal axes: (cart. coord. in units of alat)
               a(1) = (   1.000000   0.000000   0.000000 )
               a(2) = (   0.317770   1.198146   0.000000 )
               a(3) = (   0.282843   0.555869   1.359483 )

     reciprocal axes: (cart. coord. in units 2 pi/alat)
               b(1) = (  1.000000 -0.265218 -0.099609 )
               b(2) = (  0.000000  0.834623 -0.341263 )
               b(3) = (  0.000000  0.000000  0.735574 )

     PseudoPot. # 1 for Mo read from file:
     ~/pseudo/Mo.pw91-n-van.UPF
     MD5 check sum: Not computed, couldn't open file
     Pseudo is Ultrasoft + core correction, Zval =  6.0
     Generated by new atomic code, or converted to UPF format
     Using radial grid of  965 points,  3 beta functions with:
                l(1) =   1
                l(2) =   2
                l(3) =   2
     Q(r) pseudized with  8 coefficients,  rinner =    1.000   1.000   1.000
                                                       1.200   1.200

     PseudoPot. # 2 for S  read from file:
     ~/pseudo/S.pw91-van_ak.UPF
     MD5 check sum: Not computed, couldn't open file
     Pseudo is Ultrasoft, Zval =  6.0
     Generated by new atomic code, or converted to UPF format
     Using radial grid of  811 points,  6 beta functions with:
                l(1) =   0
                l(2) =   0
                l(3) =   1
                l(4) =   1
                l(5) =   2
                l(6) =   2
     Q(r) pseudized with  8 coefficients,  rinner =    1.100   1.100   1.100
                                                       1.100   1.100

     atomic species   valence    mass     pseudopotential
        Mo             6.00    95.50000     Mo( 1.00)
        S              6.00    32.06500     S ( 1.00)

     No symmetry found

   Cartesian axes

     site n.     atom                  positions (alat units)
         1           Mo  tau(   1) = (   0.6978675   0.3212349   0.2409780  )
         2           Mo  tau(   2) = (   1.1427094   0.8867275   0.3185613  )
         3           Mo  tau(   3) = (   1.3885646   1.0158961   1.3292454  )
         4           Mo  tau(   4) = (   1.0157445   1.1338271   1.1755655  )
         5           Mo  tau(   5) = (   1.2421063   1.2612993   0.2657687  )
         6           Mo  tau(   6) = (   0.6875937   1.1214065   1.1805583  )
         7           Mo  tau(   7) = (   0.4665310   0.8014659   0.2729180  )
         8           Mo  tau(   8) = (   0.8101914   0.7853167   0.2926943  )
         9           Mo  tau(   9) = (   0.3825906   1.0581091   0.4964815  )
        10           Mo  tau(  10) = (   0.9029700   1.1790540   0.2516114  )
        11           Mo  tau(  11) = (   1.3340015   1.1274681   1.0286107  )
        12           S   tau(  12) = (   0.6541126   1.0195300   0.3745100  )
        13           S   tau(  13) = (   0.6226935   0.5788065   0.3891053  )
        14           S   tau(  14) = (   0.2293118   0.6169420   0.2030740  )
        15           S   tau(  15) = (   0.9627341   0.7627855   0.5232395  )
        16           S   tau(  16) = (   0.3321771   0.7843185   0.5358887  )
        17           S   tau(  17) = (   1.1409896   1.3382582   1.0136841  )
        18           S   tau(  18) = (   0.5343455   0.8954216   1.0811697  )
        19           S   tau(  19) = (   0.8340840   1.1334294   0.9468698  )
        20           S   tau(  20) = (   0.9215979   0.3052289   0.4236053  )
        21           S   tau(  21) = (   0.4348359   1.1416721   0.7649330  )
        22           S   tau(  22) = (   1.0868655   1.1334379   0.4868910  )
        23           S   tau(  23) = (   0.4779844   0.2177521   0.3921552  )
        24           S   tau(  24) = (   0.4674013   1.2939440   1.2189233  )
        25           S   tau(  25) = (   0.1577647   0.1999734   0.1026047  )
        26           S   tau(  26) = (   1.1803675   0.9030234   1.1246777  )
        27           S   tau(  27) = (   0.8235628   0.9426234   1.3526288  )
        28           S   tau(  28) = (   0.8434686   1.3225130   1.3415410  )
        29           S   tau(  29) = (   0.3263144   1.0138344   0.1045074  )
        30           S   tau(  30) = (   0.8576349   0.5524041   0.1006979  )
        31           S   tau(  31) = (   0.9504197   0.9305517   0.0866540  )
        32           S   tau(  32) = (   0.7529033   0.1058038   0.0420419  )
        33           S   tau(  33) = (   0.3502423   0.0458188   0.0430256  )

     number of k points=     8  Marzari-Vanderbilt smearing, width (Ry)=  0.0200
                       cart. coord. in units 2pi/alat
        k(    1) = (   0.0000000   0.0000000   0.0000000), wk =   0.2500000
        k(    2) = (   0.0000000   0.0000000  -0.3677870), wk =   0.2500000
        k(    3) = (   0.0000000  -0.4173116   0.1706315), wk =   0.2500000
        k(    4) = (   0.0000000  -0.4173116  -0.1971555), wk =   0.2500000
        k(    5) = (  -0.5000000   0.1326089   0.0498047), wk =   0.2500000
        k(    6) = (  -0.5000000   0.1326089  -0.3179823), wk =   0.2500000
        k(    7) = (  -0.5000000  -0.2847026   0.2204361), wk =   0.2500000
        k(    8) = (  -0.5000000  -0.2847026  -0.1473509), wk =   0.2500000

     Initial potential from superposition of free atoms

     starting charge  197.98265, renormalised to  198.00000
     Starting wfcs are  187 randomized atomic wfcs

     Self-consistent Calculation

     iteration #  1     ecut=    45.00 Ry     beta= 0.70
     Davidson diagonalization with overlap
     ethr =  1.00E-02,  avg # of iterations =  2.0

     total energy              =    -772.45705546 Ry
     Harris-Foulkes estimate   =    -775.16584592 Ry
     estimated scf accuracy    <       7.26020825 Ry

[...]

     negative rho (up, down):  2.764E-08 0.000E+00

[...]

     total energy              =    -773.86712129 Ry
     Harris-Foulkes estimate   =    -773.86712128 Ry
     estimated scf accuracy    <       0.00000130 Ry

     iteration # 15     ecut=    45.00 Ry     beta= 0.70
     Davidson diagonalization with overlap
     ethr =  6.57E-10,  avg # of iterations =  2.2

[...]

     End of self-consistent calculation

          k = 0.0000 0.0000 0.0000 ( 31571 PWs)   bands (ev):

   -11.0601 -10.3967 -10.0242  -9.7215  -9.6828  -9.5846  -9.5435  -9.4660
    -9.2641  -9.1052  -9.0563  -8.9176  -8.8273  -8.7664  -8.6973  -8.6394
    -8.6242  -8.5729  -8.5272  -8.4712  -8.4104  -7.2988  -2.3352  -2.1342
    -2.0312  -1.9270  -1.8062  -1.7101  -1.6950  -1.6326  -1.5658  -1.4941
    -1.3888  -1.3210  -1.2505  -1.1860  -1.1545  -1.0900  -0.9279  -0.8841
    -0.8529  -0.7588  -0.6952  -0.6549  -0.6072  -0.5217  -0.4716  -0.4015
    -0.3467  -0.1937  -0.1563  -0.1102  -0.0374   0.0544   0.0965   0.1234
     0.1787   0.2015   0.2353   0.3593   0.3786   0.5320   0.5938   0.6531
     0.7189   0.7970   0.8030   0.9100   0.9392   1.0330   1.1292   1.1651
     1.2556   1.3751   1.4201   1.5209   1.6135   1.6501   1.7601   1.8174
     1.9327   1.9895   2.0652   2.2185   2.2515   2.2919   2.4148   2.4733
     2.4847   2.7247   2.7509   2.8375   2.8949   2.9710   3.1882   3.2817
     3.3435   3.5326   3.6441   3.7978   3.8260   3.8907   3.9803   4.1545
     4.2106   4.2766   4.2941   4.4319   4.5047   4.6754   4.7674   4.8567
     4.9342   5.0666   5.1758   5.2301   5.2362   5.3746   5.4189

[...]

          k = 0.0000-0.4173-0.1972 ( 31556 PWs)   bands (ev):

[...]

          k =-0.5000 0.1326 0.0498 ( 31518 PWs)   bands (ev):

[...]

          k =-0.5000-0.2847-0.1474 ( 31504 PWs)   bands (ev):

   -11.0142 -10.1888 -10.0946  -9.9489  -9.8342  -9.5708  -9.5345  -9.4533
    -9.2105  -9.1284  -9.0475  -8.9577  -8.8959  -8.8267  -8.7267  -8.6230
    -8.5696  -8.5026  -8.4368  -8.4095  -8.3601  -7.2734  -2.2985  -2.1505
    -2.1088  -2.0688  -1.8909  -1.7801  -1.6793  -1.6591  -1.4559  -1.4174
    -1.3692  -1.2875  -1.2627  -1.1679  -1.0950  -1.0256  -0.9905  -0.8602
    -0.7703  -0.7119  -0.6852  -0.6252  -0.5996  -0.4902  -0.4482  -0.3434
    -0.3264  -0.2522  -0.2194  -0.1964  -0.0603  -0.0034   0.0415   0.0666
     0.1491   0.1782   0.2882   0.3347   0.4056   0.4515   0.5428   0.6267
     0.7126   0.7355   0.8194   0.8433   0.9790   1.0087   1.1113   1.1639
     1.2385   1.2943   1.4667   1.5425   1.5787   1.6866   1.7780   1.8502
     1.9751   2.0664   2.1221   2.1555   2.2749   2.3211   2.4782   2.5387
     2.6814   2.7177   2.8430   2.8793   2.9297   3.0364   3.1357   3.3888
     3.4616   3.5419   3.5483   3.6401   3.7268   3.8504   3.9692   4.0838
     4.1965   4.2652   4.4323   4.4547   4.5369   4.5556   4.6856   4.8008
     4.8765   5.0402   5.1192   5.2312   5.3365   5.3957   5.4205

     the Fermi energy is     3.6704 ev

!    total energy              =    -773.86712103 Ry
     Harris-Foulkes estimate   =    -773.86712147 Ry
     estimated scf accuracy    <       0.00000072 Ry

     The total energy is the sum of the following terms:

     one-electron contribution =    -596.03127603 Ry
     hartree contribution      =     388.72467615 Ry
     xc contribution           =    -305.19527944 Ry
     ewald contribution        =    -261.35914961 Ry
     smearing contrib. (-TS)   =      -0.00609210 Ry

     convergence has been achieved in  15 iterations

     negative rho (up, down):  3.782E-07 0.000E+00

     Forces acting on atoms (cartesian axes, Ry/au):

     atom    1 type  1   force =    -0.02428041   -0.03333361    0.03222552
     atom    2 type  1   force =     0.01278282    0.04690671   -0.01986044
     atom    3 type  1   force =     0.01556282    0.02419702   -0.01338836
     atom    4 type  1   force =     0.00640894    0.03255003   -0.01062428
     atom    5 type  1   force =     0.01064112   -0.02316678   -0.00637412
     atom    6 type  1   force =    -0.03244524   -0.02817652    0.00151964
     atom    7 type  1   force =    -0.03367765   -0.01532846   -0.02915994
     atom    8 type  1   force =    -0.00846939    0.00698421    0.05293808
     atom    9 type  1   force =     0.02739616    0.00590769    0.01972187
     atom   10 type  1   force =    -0.00593143    0.02385721   -0.00114903
     atom   11 type  1   force =    -0.00047553    0.00125841   -0.02914038
     atom   12 type  2   force =    -0.01642155    0.01793698    0.00419711
     atom   13 type  2   force =     0.01614923   -0.00033603   -0.01165645
     atom   14 type  2   force =     0.01271678    0.01391437    0.03013039
     atom   15 type  2   force =    -0.01684894   -0.00796435   -0.04091421
     atom   16 type  2   force =    -0.01082147    0.00412650   -0.01051353
     atom   17 type  2   force =     0.00630332   -0.01574684    0.01989198
     atom   18 type  2   force =    -0.00589340    0.01620943    0.02447190
     atom   19 type  2   force =     0.00427860   -0.00625918   -0.00150823
     atom   20 type  2   force =    -0.01558181   -0.00794351   -0.02391218
     atom   21 type  2   force =    -0.00505596   -0.00892351   -0.04587629
     atom   22 type  2   force =    -0.00024347   -0.00286902    0.00588010
     atom   23 type  2   force =     0.03595798   -0.00090246   -0.02451472
     atom   24 type  2   force =    -0.01901929   -0.00527138   -0.00305598
     atom   25 type  2   force =     0.01446143   -0.02564868    0.03685833
     atom   26 type  2   force =     0.01131773    0.00638448    0.01200735
     atom   27 type  2   force =     0.00015985   -0.01334335   -0.02216568
     atom   28 type  2   force =     0.01297058    0.00774002   -0.00571974
     atom   29 type  2   force =    -0.00285389    0.00561003    0.03557918
     atom   30 type  2   force =     0.02318050   -0.01040167    0.01494586
     atom   31 type  2   force =     0.00470301   -0.00645948    0.00733401
     atom   32 type  2   force =    -0.01421420   -0.00891506    0.02081216
     atom   33 type  2   force =    -0.00275725    0.00740680   -0.01897991

     Total force =     0.191121     Total SCF correction =     0.001615

     General routines

     Parallel routines

   This run was terminated on:  23: 6: 8  23Dec2021

   JOB DONE.