     Program PWSCF v.6.4 starts on 23Dec2021 at 23:18: 8

     R & G space division:  proc/nbgrp/npool/nimage =      40
     Waiting for input...
     Reading input from standard input
Warning: card    &IONS ignored
Warning: card      ION_DYNAMICS = 'BFGS' ignored
Warning: card   / ignored
Warning: card    &CELL ignored
Warning: card      CELL_DYNAMICS = 'BFGS', ignored
Warning: card    / ignored

     Current dimensions of program PWSCF are:
     Max number of different atomic species (ntypx) = 10
     Max number of k-points (npk) =  40000
     Max angular momentum in pseudopotentials (lmaxx) =  3

     bravais-lattice index     =            0
     lattice parameter (alat)  =      18.1491  a.u.
     unit-cell volume          =    5629.3659 (a.u.)^3
     number of atoms/cell      =           27
     number of atomic types    =            2
     number of electrons       =       162.00
     number of Kohn-Sham states=           97
     kinetic-energy cutoff     =      45.0000  Ry
     charge density cutoff     =     360.0000  Ry
     convergence threshold     =      1.0E-06
     mixing beta               =       0.7000
     number of iterations used =            8  local-TF  mixing
     Exchange-correlation      = SLA PW GGX GGC ( 1  4  2  2 0 0)

     celldm(1)=  18.149124  celldm(2)=   0.000000  celldm(3)=   0.000000
     celldm(4)=   0.000000  celldm(5)=   0.000000  celldm(6)=   0.000000

     crystal axes: (cart. coord. in units of alat)
               a(1) = (   1.000000   0.000000   0.000000 )
               a(2) = (  -0.015170   1.029621   0.000000 )
               a(3) = (  -0.293923  -0.329361   0.914566 )

     reciprocal axes: (cart. coord. in units 2 pi/alat)
               b(1) = (  1.000000  0.014734  0.326686 )
               b(2) = (  0.000000  0.971231  0.349768 )
               b(3) = (  0.000000  0.000000  1.093414 )

     PseudoPot. # 1 for Mo read from file:
     ~/pseudo/Mo.pw91-n-van.UPF
     MD5 check sum: Not computed, couldn't open file
     Pseudo is Ultrasoft + core correction, Zval =  6.0
     Generated by new atomic code, or converted to UPF format
     Using radial grid of  965 points,  3 beta functions with:
                l(1) =   1
                l(2) =   2
                l(3) =   2
     Q(r) pseudized with  8 coefficients,  rinner =    1.000   1.000   1.000
                                                       1.200   1.200

     PseudoPot. # 2 for S  read from file:
     ~/pseudo/S.pw91-van_ak.UPF
     MD5 check sum: Not computed, couldn't open file
     Pseudo is Ultrasoft, Zval =  6.0
     Generated by new atomic code, or converted to UPF format
     Using radial grid of  811 points,  6 beta functions with:
                l(1) =   0
                l(2) =   0
                l(3) =   1
                l(4) =   1
                l(5) =   2
                l(6) =   2
     Q(r) pseudized with  8 coefficients,  rinner =    1.100   1.100   1.100
                                                       1.100   1.100

     atomic species   valence    mass     pseudopotential
        Mo             6.00    95.50000     Mo( 1.00)
        S              6.00    32.06500     S ( 1.00)

     No symmetry found

   Cartesian axes

     site n.     atom                  positions (alat units)
         1           Mo  tau(   1) = (   0.2987855   0.0384670   0.5708784  )
         2           Mo  tau(   2) = (   0.5042966   0.1817297   0.7228173  )
         3           Mo  tau(   3) = (  -0.0042124   0.4586582   0.0467398  )
         4           Mo  tau(   4) = (   0.0857872  -0.2227031   0.6562976  )
         5           Mo  tau(   5) = (   0.1909403   0.3983103   0.2317356  )
         6           Mo  tau(   6) = (  -0.0908968  -0.0422768   0.8285797  )
         7           Mo  tau(   7) = (   0.3472410   0.7396426   0.5666722  )
         8           Mo  tau(   8) = (   0.1391074   0.6070835   0.4192726  )
         9           Mo  tau(   9) = (   0.3147135   0.3543774   0.5115322  )
        10           S   tau(  10) = (   0.0282212   0.2401790   0.1110836  )
        11           S   tau(  11) = (   0.1317636   0.6226380   0.1658954  )
        12           S   tau(  12) = (   0.5839695   0.7039265   0.6358332  )
        13           S   tau(  13) = (   0.2978101  -0.1305962   0.7668375  )
        14           S   tau(  14) = (   0.0363093   0.0289636   0.5944284  )
        15           S   tau(  15) = (   0.2530952   0.2195568   0.7215554  )
        16           S   tau(  16) = (   0.3884173   0.5654092   0.3755626  )
        17           S   tau(  17) = (   0.2570609   0.8586915   0.3761243  )
        18           S   tau(  18) = (  -0.2235894   0.1534067   0.7169556  )
        19           S   tau(  19) = (   0.3300058   0.1758184   0.3429995  )
        20           S   tau(  20) = (   0.3901346   0.3710944   0.0721692  )
        21           S   tau(  21) = (   0.2116280   0.5748119   0.6794171  )
        22           S   tau(  22) = (   0.5557847   0.0028200   0.5465254  )
        23           S   tau(  23) = (  -0.0785064  -0.2928339   0.8139579  )
        24           S   tau(  24) = (   0.0627080   0.3780571   0.4459325  )
        25           S   tau(  25) = (   0.7539476   0.4889707   0.0596436  )
        26           S   tau(  26) = (  -0.0655082   0.7433377   0.4552207  )
        27           S   tau(  27) = (   0.5649542   0.3851640   0.5900761  )

     number of k points=     8  Marzari-Vanderbilt smearing, width (Ry)=  0.0200
                       cart. coord. in units 2pi/alat
        k(    1) = (   0.0000000   0.0000000   0.0000000), wk =   0.2500000
        k(    2) = (   0.0000000   0.0000000  -0.5467071), wk =   0.2500000
        k(    3) = (   0.0000000  -0.4856157  -0.1748841), wk =   0.2500000
        k(    4) = (   0.0000000  -0.4856157  -0.7215912), wk =   0.2500000
        k(    5) = (  -0.5000000  -0.0073670  -0.1633431), wk =   0.2500000
        k(    6) = (  -0.5000000  -0.0073670  -0.7100502), wk =   0.2500000
        k(    7) = (  -0.5000000  -0.4929828  -0.3382271), wk =   0.2500000
        k(    8) = (  -0.5000000  -0.4929828  -0.8849343), wk =   0.2500000

     Initial potential from superposition of free atoms

     starting charge  161.98581, renormalised to  162.00000
     Starting wfcs are  153 randomized atomic wfcs

     Self-consistent Calculation

     iteration #  1     ecut=    45.00 Ry     beta= 0.70
     Davidson diagonalization with overlap
     ethr =  1.00E-02,  avg # of iterations =  2.0

     total energy              =    -631.83122304 Ry
     Harris-Foulkes estimate   =    -634.33011541 Ry
     estimated scf accuracy    <       6.85794372 Ry

[...]

     negative rho (up, down):  1.439E-08 0.000E+00

[...]

     total energy              =    -633.17036471 Ry
     Harris-Foulkes estimate   =    -633.17036485 Ry
     estimated scf accuracy    <       0.00000194 Ry

     iteration # 15     ecut=    45.00 Ry     beta= 0.70
     Davidson diagonalization with overlap
     ethr =  1.20E-09,  avg # of iterations =  1.2

[...]

     End of self-consistent calculation

          k = 0.0000 0.0000 0.0000 ( 28681 PWs)   bands (ev):

   -11.1091 -10.5840 -10.5125 -10.3680 -10.2439 -10.2187 -10.1538 -10.0410
    -9.8808  -9.8029  -9.7748  -9.7008  -9.5202  -9.4106  -9.3984  -9.3051
    -9.2393  -8.4383  -2.8657  -2.8370  -2.6749  -2.5461  -2.3780  -2.3643
    -2.1724  -2.1242  -2.0652  -1.9617  -1.7989  -1.7775  -1.7453  -1.6532
    -1.5724  -1.5136  -1.4204  -1.3252  -1.2745  -1.2596  -1.1905  -1.1690
    -1.1367  -0.9461  -0.8520  -0.7688  -0.6953  -0.6302  -0.5968  -0.5210
    -0.4763  -0.3588  -0.3435  -0.2457  -0.2254  -0.1774  -0.1121  -0.0544
     0.0669   0.2318   0.2466   0.3515   0.3741   0.4180   0.5584   0.6687
     0.7412   0.9269   1.0091   1.0582   1.1318   1.2989   1.4423   1.4822
     1.6194   1.7485   1.8509   1.9233   2.1181   2.2712   2.3610   2.5026
     2.7038   2.9388   2.9802   3.0698   3.0984   3.3279   3.3691   3.3885
     3.6566   3.7346   3.7875   3.9237   3.9545   4.1108   4.1953   4.2715
     4.3060

[...]

          k = 0.0000-0.4856-0.7216 ( 28688 PWs)   bands (ev):

[...]

          k =-0.5000-0.0074-0.1633 ( 28688 PWs)   bands (ev):

[...]

          k =-0.5000-0.4930-0.8849 ( 28700 PWs)   bands (ev):

   -10.9974 -10.6736 -10.5333 -10.4116 -10.3196 -10.2493 -10.1619  -9.9972
    -9.8870  -9.8286  -9.6760  -9.6406  -9.5220  -9.4960  -9.3808  -9.2921
    -9.1880  -8.4281  -2.9392  -2.7820  -2.7102  -2.5901  -2.4371  -2.3333
    -2.2348  -2.0903  -1.9627  -1.9305  -1.8570  -1.8362  -1.7415  -1.5691
    -1.5284  -1.4025  -1.3966  -1.3662  -1.3011  -1.2325  -1.1791  -1.0813
    -1.0374  -0.9767  -0.8895  -0.7870  -0.7527  -0.7101  -0.6393  -0.5402
    -0.4699  -0.3980  -0.3921  -0.2737  -0.2563  -0.2070  -0.1541  -0.0743
    -0.0001   0.0279   0.2401   0.2732   0.4329   0.6057   0.6772   0.7418
     0.8273   0.9336   0.9919   1.1340   1.2161   1.3013   1.3995   1.5425
     1.6289   1.6835   1.7798   2.0563   2.1081   2.2931   2.3887   2.5382
     2.6276   2.8159   3.0354   3.1188   3.1782   3.3209   3.3394   3.3677
     3.5245   3.7037   3.8292   3.8659   3.9104   4.0056   4.1097   4.1720
     4.2854

     the Fermi energy is     2.7583 ev

!    total energy              =    -633.17036449 Ry
     Harris-Foulkes estimate   =    -633.17036481 Ry
     estimated scf accuracy    <       0.00000040 Ry

     The total energy is the sum of the following terms:

     one-electron contribution =    -394.19025773 Ry
     hartree contribution      =     265.99786602 Ry
     xc contribution           =    -249.03576316 Ry
     ewald contribution        =    -255.94463976 Ry
     smearing contrib. (-TS)   =       0.00243013 Ry

     convergence has been achieved in  15 iterations

     negative rho (up, down):  2.685E-08 0.000E+00

     Forces acting on atoms (cartesian axes, Ry/au):

     atom    1 type  1   force =     0.04663779   -0.02410370   -0.02639117
     atom    2 type  1   force =     0.00986518    0.00879523   -0.09856217
     atom    3 type  1   force =    -0.06596860    0.09040741   -0.10142724
     atom    4 type  1   force =    -0.03613256    0.00743937   -0.03773932
     atom    5 type  1   force =     0.06405805   -0.06158247   -0.02529256
     atom    6 type  1   force =     0.05875362    0.03143951    0.04863729
     atom    7 type  1   force =     0.10613860    0.07193994    0.03517914
     atom    8 type  1   force =    -0.01942895    0.05957692    0.06422612
     atom    9 type  1   force =     0.05554289   -0.05271710    0.03737853
     atom   10 type  2   force =     0.03759388   -0.06590868    0.01779538
     atom   11 type  2   force =    -0.02206189    0.03486218   -0.04046627
     atom   12 type  2   force =    -0.06412527    0.00678891   -0.02109024
     atom   13 type  2   force =     0.00313254   -0.01293814   -0.03605601
     atom   14 type  2   force =    -0.01559860   -0.05664361    0.02758552
     atom   15 type  2   force =     0.00375578    0.02607623    0.01437331
     atom   16 type  2   force =    -0.00194266   -0.03683997   -0.01105802
     atom   17 type  2   force =     0.00873995    0.01051242    0.02378064
     atom   18 type  2   force =    -0.01274772   -0.00020363    0.07786762
     atom   19 type  2   force =    -0.00597311    0.02054252    0.02581075
     atom   20 type  2   force =    -0.07206811   -0.03083064   -0.04464928
     atom   21 type  2   force =    -0.03090329   -0.01277671   -0.01031112
     atom   22 type  2   force =    -0.06274958    0.03029192    0.05137165
     atom   23 type  2   force =     0.00461557    0.03303474    0.01657592
     atom   24 type  2   force =    -0.00790713   -0.03956230    0.01920160
     atom   25 type  2   force =     0.04593610    0.00391456   -0.02637366
     atom   26 type  2   force =     0.02260123   -0.00324633   -0.00332166
     atom   27 type  2   force =    -0.04976370   -0.03826855    0.02295525

     Total force =     0.381480     Total SCF correction =     0.001133

     General routines

     Parallel routines

   This run was terminated on:  23:19:45  23Dec2021

   JOB DONE.