     Program PWSCF v.6.4 starts on  5Aug2021 at 16: 9:51

     R & G space division:  proc/nbgrp/npool/nimage =      40
     Waiting for input...
     Reading input from standard input
Warning: card    &IONS ignored
Warning: card      ION_DYNAMICS = 'BFGS' ignored
Warning: card   / ignored
Warning: card    &CELL ignored
Warning: card      CELL_DYNAMICS = 'BFGS', ignored
Warning: card    / ignored

     Current dimensions of program PWSCF are:
     Max number of different atomic species (ntypx) = 10
     Max number of k-points (npk) =  40000
     Max angular momentum in pseudopotentials (lmaxx) =  3

     bravais-lattice index     =            0
     lattice parameter (alat)  =      13.0567  a.u.
     unit-cell volume          =    3689.9038 (a.u.)^3
     number of atoms/cell      =           24
     number of atomic types    =            2
     number of electrons       =       144.00
     number of Kohn-Sham states=           86
     kinetic-energy cutoff     =      45.0000  Ry
     charge density cutoff     =     360.0000  Ry
     convergence threshold     =      1.0E-06
     mixing beta               =       0.7000
     number of iterations used =            8  local-TF  mixing
     Exchange-correlation      = SLA PW GGX GGC ( 1  4  2  2 0 0)

     celldm(1)=  13.056654  celldm(2)=   0.000000  celldm(3)=   0.000000
     celldm(4)=   0.000000  celldm(5)=   0.000000  celldm(6)=   0.000000

     crystal axes: (cart. coord. in units of alat)
               a(1) = (   0.999980   0.006372  -0.000474 )
               a(2) = (  -0.249891   0.426502  -0.000039 )
               a(3) = (  -0.223630   0.274250   3.872485 )

     reciprocal axes: (cart. coord. in units 2 pi/alat)
               b(1) = (  0.996308  0.583747  0.016194 )
               b(2) = ( -0.014963  2.335875 -0.166291 )
               b(3) = (  0.000122  0.000095  0.258232 )

     PseudoPot. # 1 for Mo read from file:
     ~/pseudo/Mo.pw91-n-van.UPF
     MD5 check sum: Not computed, couldn't open file
     Pseudo is Ultrasoft + core correction, Zval =  6.0
     Generated by new atomic code, or converted to UPF format
     Using radial grid of  965 points,  3 beta functions with:
                l(1) =   1
                l(2) =   2
                l(3) =   2
     Q(r) pseudized with  8 coefficients,  rinner =    1.000   1.000   1.000
                                                       1.200   1.200

     PseudoPot. # 2 for S  read from file:
     ~/pseudo/S.pw91-van_ak.UPF
     MD5 check sum: Not computed, couldn't open file
     Pseudo is Ultrasoft, Zval =  6.0
     Generated by new atomic code, or converted to UPF format
     Using radial grid of  811 points,  6 beta functions with:
                l(1) =   0
                l(2) =   0
                l(3) =   1
                l(4) =   1
                l(5) =   2
                l(6) =   2
     Q(r) pseudized with  8 coefficients,  rinner =    1.100   1.100   1.100
                                                       1.100   1.100

     atomic species   valence    mass     pseudopotential
        Mo             6.00    95.50000     Mo( 1.00)
        S              6.00    32.06500     S ( 1.00)

     No symmetry found

   Cartesian axes

     site n.     atom                  positions (alat units)
         1           Mo  tau(   1) = (   0.0123839   0.2572268   1.4374041  )
         2           Mo  tau(   2) = (  -0.2240530   0.3705881   3.4051122  )
         3           Mo  tau(   3) = (   0.5279920   0.2416083   1.3922351  )
         4           Mo  tau(   4) = (   0.2684383   0.3706631   3.4408163  )
         5           Mo  tau(   5) = (  -0.0409472  -0.1031170   0.5111911  )
         6           Mo  tau(   6) = (  -0.1969416   0.0304177   2.4442070  )
         7           Mo  tau(   7) = (   0.4563991  -0.0943644   0.4750305  )
         8           Mo  tau(   8) = (   0.3048341   0.0390848   2.3826144  )
         9           S   tau(   9) = (   0.2872100   0.3878939   1.6192203  )
        10           S   tau(  10) = (   0.0074860   0.5098787   3.6537983  )
        11           S   tau(  11) = (   0.7627857   0.3954837   1.6503814  )
        12           S   tau(  12) = (   0.5204829   0.5243975   3.6381198  )
        13           S   tau(  13) = (  -0.0427320   0.1734267   0.2777813  )
        14           S   tau(  14) = (  -0.2076890   0.3149417   2.2069114  )
        15           S   tau(  15) = (   0.4661106   0.1901952   0.2622820  )
        16           S   tau(  16) = (   0.3209979   0.3357192   2.1817513  )
        17           S   tau(  17) = (  -0.0336911   0.4672134   0.7093082  )
        18           S   tau(  18) = (  -0.1864805   0.6139869   2.6189420  )
        19           S   tau(  19) = (   0.4538325   0.4618216   0.7223917  )
        20           S   tau(  20) = (   0.2888148   0.5958815   2.6471207  )
        21           S   tau(  21) = (   0.2708529   0.0953496   1.1981653  )
        22           S   tau(  22) = (   0.0216963   0.2341261   3.1895659  )
        23           S   tau(  23) = (   0.7940647   0.1129625   1.1878070  )
        24           S   tau(  24) = (   0.5088628   0.2312712   3.2102789  )

     number of k points=     8  Marzari-Vanderbilt smearing, width (Ry)=  0.0200
                       cart. coord. in units 2pi/alat
        k(    1) = (   0.0000000   0.0000000   0.0000000), wk =   0.1333333
        k(    2) = (  -0.0029927   0.4671750  -0.0332582), wk =   0.2666667
        k(    3) = (  -0.0059853   0.9343500  -0.0665164), wk =   0.2666667
        k(    4) = (   0.3321028   0.1945822   0.0053981), wk =   0.2666667
        k(    5) = (   0.3291101   0.6617572  -0.0278601), wk =   0.2666667
        k(    6) = (   0.3261175   1.1289322  -0.0611182), wk =   0.2666667
        k(    7) = (   0.3380881  -0.7397678   0.0719145), wk =   0.2666667
        k(    8) = (   0.3350954  -0.2725928   0.0386563), wk =   0.2666667

     Initial potential from superposition of free atoms

     starting charge  143.98738, renormalised to  144.00000
     Starting wfcs are  136 randomized atomic wfcs

     Self-consistent Calculation

     iteration #  1     ecut=    45.00 Ry     beta= 0.70
     Davidson diagonalization with overlap
     ethr =  1.00E-02,  avg # of iterations =  2.0

     total energy              =    -561.74849007 Ry
     Harris-Foulkes estimate   =    -564.22263863 Ry
     estimated scf accuracy    <       6.54932209 Ry

[...]

     total energy              =    -563.04593871 Ry
     Harris-Foulkes estimate   =    -563.04593892 Ry
     estimated scf accuracy    <       0.00000166 Ry

     iteration # 15     ecut=    45.00 Ry     beta= 0.70
     Davidson diagonalization with overlap
     ethr =  1.15E-09,  avg # of iterations =  3.6

     End of self-consistent calculation

          k = 0.0000 0.0000 0.0000 ( 18709 PWs)   bands (ev):

    -8.2159  -8.1782  -8.1234  -8.0666  -7.2063  -7.1303  -7.0966  -7.0263
    -7.0066  -6.9381  -6.9280  -6.9036  -6.6134  -6.5570  -6.5318  -6.5108
    -0.0681   0.0030   0.0098   0.0549   0.1187   0.3821   0.4018   0.6714
     1.3352   1.4043   1.4649   1.5101   1.6450   1.8387   1.8626   1.8985
     1.9054   1.9594   1.9700   2.0139   2.0180   2.0270   2.0560   2.0863
     2.1380   2.1446   2.1579   2.1821   3.0702   3.1247   3.1875   3.3495
     3.3827   3.5851   3.6818   4.0371   4.1162   4.1297   4.1705   4.2599
     4.4391   4.4990   4.5294   4.5938   4.8385   4.8695   4.8897   4.8908
     4.9160   4.9226   5.0095   5.0365   5.1427   5.2132   5.2760   5.2829
     5.3442   5.3554   5.4139   5.4270   5.5180   5.7620   5.7817   5.9609
     6.3385   6.3513   6.3899   6.4985   6.9894   7.0179

          k =-0.0030 0.4672-0.0333 ( 18788 PWs)   bands (ev):

[...]

          k =-0.0060 0.9344-0.0665 ( 18827 PWs)   bands (ev):

[...]

          k = 0.3351-0.2726 0.0387 ( 18784 PWs)   bands (ev):

    -7.8473  -7.8074  -7.7523  -7.6995  -7.1061  -7.0497  -7.0029  -6.9496
    -6.8549  -6.7853  -6.7695  -6.7444  -6.6734  -6.6276  -6.6038  -6.5835
     0.4410   0.5050   0.5399   0.5881   0.6369   0.8081   0.9381   1.0325
     1.0996   1.1324   1.1851   1.2126   1.2905   1.3372   1.4273   1.4827
     1.7718   1.9082   1.9182   1.9832   2.0401   2.0818   2.1501   2.1778
     2.2177   2.3191   2.3343   2.3741   2.4092   2.4544   2.5331   2.5926
     2.9075   2.9319   2.9584   3.0014   3.1636   3.2574   3.2869   3.3332
     3.7390   3.9362   3.9688   4.0027   4.0366   4.0690   4.2278   4.4768
     5.0725   5.1423   5.1893   5.1945   5.5581   5.6250   5.6342   5.6806
     5.9610   6.0349   6.0758   6.1035   6.1396   6.2282   6.2901   6.3241
     6.4240   6.5130   6.6039   6.6220   6.7386   6.8144

     the Fermi energy is     5.7632 ev

!    total energy              =    -563.04593858 Ry
     Harris-Foulkes estimate   =    -563.04593906 Ry
     estimated scf accuracy    <       0.00000051 Ry

     The total energy is the sum of the following terms:

     one-electron contribution =     -64.60618318 Ry
     hartree contribution      =     108.93843856 Ry
     xc contribution           =    -221.06145950 Ry
     ewald contribution        =    -386.32385073 Ry
     smearing contrib. (-TS)   =       0.00711626 Ry

     convergence has been achieved in  15 iterations

     Forces acting on atoms (cartesian axes, Ry/au):

     atom    1 type  1   force =    -0.00370875   -0.01334861   -0.01157665
     atom    2 type  1   force =     0.00599376    0.01233805    0.01437039
     atom    3 type  1   force =     0.01328776    0.00639749    0.01233321
     atom    4 type  1   force =    -0.02149852   -0.00285787   -0.01472852
     atom    5 type  1   force =     0.00037298   -0.00896408   -0.01265658
     atom    6 type  1   force =    -0.01476072   -0.00481400   -0.02006864
     atom    7 type  1   force =     0.00613147   -0.00699923    0.01222872
     atom    8 type  1   force =     0.01321729    0.00778027    0.02446498
     atom    9 type  2   force =    -0.00787861   -0.00060326   -0.00972280
     atom   10 type  2   force =     0.00473299    0.00249450   -0.02477104
     atom   11 type  2   force =     0.00368156    0.00020470   -0.03353648
     atom   12 type  2   force =    -0.00296360   -0.00751572   -0.02964238
     atom   13 type  2   force =     0.00136494    0.00754724    0.02340363
     atom   14 type  2   force =     0.01327803    0.00421747    0.01929131
     atom   15 type  2   force =    -0.00304164   -0.00154709    0.02804089
     atom   16 type  2   force =    -0.00991752   -0.00786644    0.02022347
     atom   17 type  2   force =    -0.00756582    0.00307730   -0.02824032
     atom   18 type  2   force =    -0.00957827   -0.00911715   -0.01818255
     atom   19 type  2   force =     0.00081796    0.00483430   -0.02971083
     atom   20 type  2   force =     0.00782807    0.00878030   -0.02465182
     atom   21 type  2   force =     0.00511852    0.01947116    0.02948646
     atom   22 type  2   force =     0.00273021   -0.00393551    0.02782325
     atom   23 type  2   force =    -0.00829856   -0.01040735    0.01939256
     atom   24 type  2   force =     0.01065646    0.00083354    0.02642974

     Total force =     0.124955     Total SCF correction =     0.001691

     General routines

     Parallel routines

   This run was terminated on:  16:10:53   5Aug2021

   JOB DONE.