     Program PWSCF v.6.4 starts on 12Aug2021 at 14: 2:17

     R & G space division:  proc/nbgrp/npool/nimage =      40
     Waiting for input...
     Reading input from standard input
Warning: card    &IONS ignored
Warning: card      ION_DYNAMICS = 'BFGS' ignored
Warning: card   / ignored
Warning: card    &CELL ignored
Warning: card      CELL_DYNAMICS = 'BFGS', ignored
Warning: card    / ignored

     Current dimensions of program PWSCF are:
     Max number of different atomic species (ntypx) = 10
     Max number of k-points (npk) =  40000
     Max angular momentum in pseudopotentials (lmaxx) =  3

     bravais-lattice index     =            0
     lattice parameter (alat)  =      12.3641  a.u.
     unit-cell volume          =    3221.7431 (a.u.)^3
     number of atoms/cell      =           24
     number of atomic types    =            2
     number of electrons       =       144.00
     number of Kohn-Sham states=           86
     kinetic-energy cutoff     =      45.0000  Ry
     charge density cutoff     =     360.0000  Ry
     convergence threshold     =      1.0E-06
     mixing beta               =       0.7000
     number of iterations used =            8  local-TF  mixing
     Exchange-correlation      = SLA PW GGX GGC ( 1  4  2  2 0 0)

     celldm(1)=  12.364128  celldm(2)=   0.000000  celldm(3)=   0.000000
     celldm(4)=   0.000000  celldm(5)=   0.000000  celldm(6)=   0.000000

     crystal axes: (cart. coord. in units of alat)
               a(1) = (   0.999272   0.020293  -0.032314 )
               a(2) = (  -0.237038   0.420035   0.012221 )
               a(3) = (  -0.399878  -0.648737   4.021032 )

     reciprocal axes: (cart. coord. in units 2 pi/alat)
               b(1) = (  0.995535  0.556317  0.188757 )
               b(2) = ( -0.035573  2.349751  0.375562 )
               b(3) = (  0.008109 -0.002671  0.249068 )

     PseudoPot. # 1 for Mo read from file:
     ~/pseudo/Mo.pw91-n-van.UPF
     MD5 check sum: Not computed, couldn't open file
     Pseudo is Ultrasoft + core correction, Zval =  6.0
     Generated by new atomic code, or converted to UPF format
     Using radial grid of  965 points,  3 beta functions with:
                l(1) =   1
                l(2) =   2
                l(3) =   2
     Q(r) pseudized with  8 coefficients,  rinner =    1.000   1.000   1.000
                                                       1.200   1.200

     PseudoPot. # 2 for S  read from file:
     ~/pseudo/S.pw91-van_ak.UPF
     MD5 check sum: Not computed, couldn't open file
     Pseudo is Ultrasoft, Zval =  6.0
     Generated by new atomic code, or converted to UPF format
     Using radial grid of  811 points,  6 beta functions with:
                l(1) =   0
                l(2) =   0
                l(3) =   1
                l(4) =   1
                l(5) =   2
                l(6) =   2
     Q(r) pseudized with  8 coefficients,  rinner =    1.100   1.100   1.100
                                                       1.100   1.100

     atomic species   valence    mass     pseudopotential
        Mo             6.00    95.50000     Mo( 1.00)
        S              6.00    32.06500     S ( 1.00)

     No symmetry found

   Cartesian axes

     site n.     atom                  positions (alat units)
         1           Mo  tau(   1) = (  -0.0559365  -0.1442308   1.4887924  )
         2           Mo  tau(   2) = (  -0.3349767  -0.5803722   3.4992977  )
         3           Mo  tau(   3) = (   0.4066960  -0.1559864   1.4613278  )
         4           Mo  tau(   4) = (   0.0763007  -0.6222271   3.6397590  )
         5           Mo  tau(   5) = (  -0.0546577  -0.0690885   0.5202737  )
         6           Mo  tau(   6) = (  -0.3008035  -0.3937956   2.4967218  )
         7           Mo  tau(   7) = (   0.4393395  -0.0725602   0.4862143  )
         8           Mo  tau(   8) = (   0.2001480  -0.3866767   2.4783297  )
         9           S   tau(   9) = (   0.1922458  -0.2945395   1.7382848  )
        10           S   tau(  10) = (  -0.2126683  -0.5070593   3.8511658  )
        11           S   tau(  11) = (   0.6669735  -0.2730505   1.7010264  )
        12           S   tau(  12) = (   0.3757717  -0.4396298   3.6700751  )
        13           S   tau(  13) = (  -0.0594679   0.2089872   0.2727349  )
        14           S   tau(  14) = (  -0.2979833  -0.1123385   2.2579931  )
        15           S   tau(  15) = (   0.4422226   0.2202874   0.2366659  )
        16           S   tau(  16) = (   0.2090395  -0.1012756   2.2394681  )
        17           S   tau(  17) = (  -0.0376234   0.2271887   0.7660308  )
        18           S   tau(  18) = (  -0.2827608  -0.1088540   2.7427538  )
        19           S   tau(  19) = (   0.4545532   0.2038256   0.7393322  )
        20           S   tau(  20) = (   0.2136077  -0.1037512   2.7226674  )
        21           S   tau(  21) = (   0.1606709  -0.0249273   1.2119638  )
        22           S   tau(  22) = (  -0.0462975  -0.4159352   3.3618939  )
        23           S   tau(  23) = (   0.6769423  -0.0009024   1.2220414  )
        24           S   tau(  24) = (   0.4937213  -0.3730387   3.2002194  )

     number of k points=    10  Marzari-Vanderbilt smearing, width (Ry)=  0.0200
                       cart. coord. in units 2pi/alat
        k(    1) = (   0.0000000   0.0000000   0.0000000), wk =   0.1111111
        k(    2) = (  -0.0059288   0.3916252   0.0625936), wk =   0.2222222
        k(    3) = (  -0.0118576   0.7832503   0.1251872), wk =   0.2222222
        k(    4) = (   0.0177864  -1.1748755  -0.1877808), wk =   0.1111111
        k(    5) = (   0.3318451   0.1854392   0.0629189), wk =   0.2222222
        k(    6) = (   0.3259163   0.5770643   0.1255125), wk =   0.2222222
        k(    7) = (   0.3199875   0.9686895   0.1881061), wk =   0.2222222
        k(    8) = (   0.3496315  -0.9894363  -0.1248619), wk =   0.2222222
        k(    9) = (   0.3437027  -0.5978112  -0.0622683), wk =   0.2222222
        k(   10) = (   0.3377739  -0.2061860   0.0003253), wk =   0.2222222

     Initial potential from superposition of free atoms

     starting charge  143.98738, renormalised to  144.00000
     Starting wfcs are  136 randomized atomic wfcs

     Self-consistent Calculation

     iteration #  1     ecut=    45.00 Ry     beta= 0.70
     Davidson diagonalization with overlap
     ethr =  1.00E-02,  avg # of iterations =  2.0

     total energy              =    -562.33062989 Ry
     Harris-Foulkes estimate   =    -564.26118576 Ry
     estimated scf accuracy    <       5.20037702 Ry

[...]

     iteration # 10     ecut=    45.00 Ry     beta= 0.70
     Davidson diagonalization with overlap
     c_bands:  1 eigenvalues not converged
     ethr =  1.18E-06,  avg # of iterations = 12.3

[...]

     total energy              =    -563.32327332 Ry
     Harris-Foulkes estimate   =    -563.32327377 Ry
     estimated scf accuracy    <       0.00000224 Ry

     iteration # 20     ecut=    45.00 Ry     beta= 0.70
     Davidson diagonalization with overlap
     ethr =  1.56E-09,  avg # of iterations =  3.7

     End of self-consistent calculation

          k = 0.0000 0.0000 0.0000 ( 16467 PWs)   bands (ev):

    -7.6419  -7.1945  -6.9257  -6.8061  -6.3758  -6.2028  -5.9458  -5.7893
    -5.7396  -5.6028  -5.4308  -5.3633  -5.3157  -5.1130  -5.0218  -4.9310
     0.9148   1.0740   1.1836   1.2480   1.4119   1.4826   1.6190   1.9038
     1.9502   2.2005   2.4015   2.4664   2.6953   2.7689   2.9183   3.0929
     3.4945   3.6653   3.9758   4.0405   4.0755   4.1740   4.1901   4.2079
     4.2850   4.3263   4.3367   4.4310   4.5131   4.5842   4.6477   4.7257
     4.7571   4.8418   5.0506   5.1349   5.2454   5.3728   5.4003   5.4453
     5.6521   5.6848   5.8106   5.9426   6.0003   6.1151   6.1534   6.1891
     6.3315   6.3624   6.5119   6.6353   6.8370   7.0081   7.0806   7.2345
     7.3001   7.7651   8.0975   8.2000   8.3892   8.6029   8.7246   8.7488
     8.9714   8.9731   9.1226   9.1993   9.2277   9.3786

          k =-0.0059 0.3916 0.0626 ( 16421 PWs)   bands (ev):

[...]

          k =-0.0119 0.7833 0.1252 ( 16385 PWs)   bands (ev):

[...]

          k = 0.3378-0.2062 0.0003 ( 16457 PWs)   bands (ev):

    -7.2911  -6.8327  -6.5567  -6.4257  -6.2259  -6.0201  -5.7841  -5.7338
    -5.5714  -5.5467  -5.3484  -5.3373  -5.2035  -5.0588  -4.9982  -4.9262
     1.2167   1.4021   1.6558   1.7842   1.8416   1.8939   1.9365   2.0341
     2.2294   2.3293   2.3950   2.4500   2.5789   2.8256   3.0348   3.1280
     3.1831   3.3308   3.4514   3.5869   3.6711   3.7080   3.8201   3.8408
     3.9831   4.0845   4.1299   4.2760   4.3363   4.4154   4.4891   4.5219
     4.5718   4.6903   4.7133   4.7653   4.7953   4.8795   4.9124   5.0208
     5.1058   5.1446   5.2827   5.4434   5.6920   5.8189   5.9748   6.0063
     6.1624   6.2678   6.3507   6.5410   6.6336   6.7406   6.8628   7.1929
     7.4780   7.6863   8.0246   8.0545   8.4935   8.5367   8.6087   8.7166
     8.8608   8.9091   8.9560   9.0499   9.1215   9.1788

     the Fermi energy is     7.2825 ev

!    total energy              =    -563.32327315 Ry
     Harris-Foulkes estimate   =    -563.32327361 Ry
     estimated scf accuracy    <       0.00000059 Ry

     The total energy is the sum of the following terms:

     one-electron contribution =      -8.40814797 Ry
     hartree contribution      =      89.04105822 Ry
     xc contribution           =    -222.39643952 Ry
     ewald contribution        =    -421.56422396 Ry
     smearing contrib. (-TS)   =       0.00448007 Ry

     convergence has been achieved in  20 iterations

     Forces acting on atoms (cartesian axes, Ry/au):

     atom    1 type  1   force =     0.03356424    0.01062798    0.00557997
     atom    2 type  1   force =    -0.03393706    0.01662830   -0.02961978
     atom    3 type  1   force =    -0.03357039   -0.01723259    0.00539192
     atom    4 type  1   force =     0.01776944    0.00289176    0.00878370
     atom    5 type  1   force =    -0.03598929   -0.00989267   -0.02340556
     atom    6 type  1   force =     0.00170420   -0.00641354    0.01050101
     atom    7 type  1   force =     0.01829033    0.02799005   -0.00137946
     atom    8 type  1   force =    -0.00399697    0.00205295   -0.00625251
     atom    9 type  2   force =    -0.01433619   -0.00115827   -0.03262126
     atom   10 type  2   force =     0.03704114    0.00595122   -0.01131366
     atom   11 type  2   force =     0.02567470   -0.01903054   -0.04504184
     atom   12 type  2   force =    -0.02440830   -0.04384021    0.00425510
     atom   13 type  2   force =    -0.00827979    0.00362270    0.02496831
     atom   14 type  2   force =     0.00177432    0.01251421    0.00741127
     atom   15 type  2   force =     0.01567742   -0.00368652    0.06873360
     atom   16 type  2   force =    -0.01295578    0.00448153    0.01345193
     atom   17 type  2   force =     0.00184583   -0.03759591   -0.03250022
     atom   18 type  2   force =     0.00131054   -0.00753645   -0.01550123
     atom   19 type  2   force =     0.01064696    0.01674124   -0.03681349
     atom   20 type  2   force =     0.01136995   -0.00500429   -0.01125553
     atom   21 type  2   force =     0.00674059    0.02941532    0.03555715
     atom   22 type  2   force =     0.01679385    0.02486653    0.01021119
     atom   23 type  2   force =    -0.02005561   -0.00097551    0.03912889
     atom   24 type  2   force =    -0.01267413   -0.00541729    0.01173049

     Total force =     0.183338     Total SCF correction =     0.001796

     General routines

     Parallel routines

   This run was terminated on:  14: 3:49  12Aug2021

   JOB DONE.