     Program PWSCF v.6.4 starts on  2Sep2021 at 22: 2: 4

     R & G space division:  proc/nbgrp/npool/nimage =      40
     Waiting for input...
     Reading input from standard input
Warning: card    &IONS ignored
Warning: card      ION_DYNAMICS = 'BFGS' ignored
Warning: card   / ignored
Warning: card    &CELL ignored
Warning: card      CELL_DYNAMICS = 'BFGS', ignored
Warning: card    / ignored

     Current dimensions of program PWSCF are:
     Max number of different atomic species (ntypx) = 10
     Max number of k-points (npk) =  40000
     Max angular momentum in pseudopotentials (lmaxx) =  3

     bravais-lattice index     =            0
     lattice parameter (alat)  =      12.2570  a.u.
     unit-cell volume          =    4115.5459 (a.u.)^3
     number of atoms/cell      =           24
     number of atomic types    =            2
     number of electrons       =       144.00
     number of Kohn-Sham states=           86
     kinetic-energy cutoff     =      45.0000  Ry
     charge density cutoff     =     360.0000  Ry
     convergence threshold     =      1.0E-06
     mixing beta               =       0.7000
     number of iterations used =            8  local-TF  mixing
     Exchange-correlation      = SLA PW GGX GGC ( 1  4  2  2 0 0)

     celldm(1)=  12.256998  celldm(2)=   0.000000  celldm(3)=   0.000000
     celldm(4)=   0.000000  celldm(5)=   0.000000  celldm(6)=   0.000000

     crystal axes: (cart. coord. in units of alat)
               a(1) = (   1.000000   0.000000   0.000000 )
               a(2) = (  -0.501403   0.859472   0.000000 )
               a(3) = (  -0.343822  -0.281527   2.600419 )

     reciprocal axes: (cart. coord. in units 2 pi/alat)
               b(1) = (  1.000000  0.583385  0.195376 )
               b(2) = (  0.000000  1.163505  0.125964 )
               b(3) = (  0.000000  0.000000  0.384553 )

     PseudoPot. # 1 for Mo read from file:
     ~/pseudo/Mo.pw91-n-van.UPF
     MD5 check sum: Not computed, couldn't open file
     Pseudo is Ultrasoft + core correction, Zval =  6.0
     Generated by new atomic code, or converted to UPF format
     Using radial grid of  965 points,  3 beta functions with:
                l(1) =   1
                l(2) =   2
                l(3) =   2
     Q(r) pseudized with  8 coefficients,  rinner =    1.000   1.000   1.000
                                                       1.200   1.200

     PseudoPot. # 2 for S  read from file:
     ~/pseudo/S.pw91-van_ak.UPF
     MD5 check sum: Not computed, couldn't open file
     Pseudo is Ultrasoft, Zval =  6.0
     Generated by new atomic code, or converted to UPF format
     Using radial grid of  811 points,  6 beta functions with:
                l(1) =   0
                l(2) =   0
                l(3) =   1
                l(4) =   1
                l(5) =   2
                l(6) =   2
     Q(r) pseudized with  8 coefficients,  rinner =    1.100   1.100   1.100
                                                       1.100   1.100

     atomic species   valence    mass     pseudopotential
        Mo             6.00    95.50000     Mo( 1.00)
        S              6.00    32.06500     S ( 1.00)

     No symmetry found

   Cartesian axes

     site n.     atom                  positions (alat units)
         1           Mo  tau(   1) = (  -0.3390362   0.7987212   0.4948205  )
         2           Mo  tau(   2) = (   0.4129445   0.3647608   0.4867614  )
         3           Mo  tau(   3) = (   0.1486042   0.7876124   0.4820306  )
         4           Mo  tau(   4) = (  -0.0801720   0.3577524   0.5195393  )
         5           Mo  tau(   5) = (   0.4919562  -0.2043673   2.1168778  )
         6           Mo  tau(   6) = (  -0.2533763   0.2154305   2.1170684  )
         7           Mo  tau(   7) = (  -0.0073542  -0.2125005   2.1036390  )
         8           Mo  tau(   8) = (   0.2480665   0.2109939   2.1114066  )
         9           S   tau(   9) = (  -0.1036797   0.6278726   0.2521252  )
        10           S   tau(  10) = (   0.6768235   0.2284398   0.2544156  )
        11           S   tau(  11) = (   0.4128389   0.6559605   0.2489912  )
        12           S   tau(  12) = (   0.1516374   0.2286822   0.2523261  )
        13           S   tau(  13) = (   0.0006857   0.3638432   2.3526027  )
        14           S   tau(  14) = (  -0.2483954  -0.0713040   2.3592884  )
        15           S   tau(  15) = (  -0.5052778   0.3659948   2.3546417  )
        16           S   tau(  16) = (   0.2351349  -0.0716519   2.3607341  )
        17           S   tau(  17) = (  -0.0043792   0.3617568   1.8765042  )
        18           S   tau(  18) = (  -0.2610028  -0.0679404   1.8674949  )
        19           S   tau(  19) = (  -0.5015934   0.3522704   1.8691244  )
        20           S   tau(  20) = (   0.2465356  -0.0731308   1.8647531  )
        21           S   tau(  21) = (  -0.0910008   0.6565451   0.7396012  )
        22           S   tau(  22) = (   0.6509210   0.2100106   0.7339775  )
        23           S   tau(  23) = (   0.4012029   0.6522991   0.7296593  )
        24           S   tau(  24) = (   0.1798095   0.2179380   0.7486390  )

     number of k points=     5  Marzari-Vanderbilt smearing, width (Ry)=  0.0200
                       cart. coord. in units 2pi/alat
        k(    1) = (   0.0000000   0.0000000   0.0000000), wk =   0.2222222
        k(    2) = (   0.0000000   0.3878350   0.0419879), wk =   0.4444444
        k(    3) = (   0.3333333   0.1944618   0.0651255), wk =   0.4444444
        k(    4) = (   0.3333333   0.5822967   0.1071134), wk =   0.4444444
        k(    5) = (   0.3333333  -0.1933732   0.0231376), wk =   0.4444444

     Initial potential from superposition of free atoms

     starting charge  143.98738, renormalised to  144.00000
     Starting wfcs are  136 randomized atomic wfcs

     Self-consistent Calculation

     iteration #  1     ecut=    45.00 Ry     beta= 0.70
     Davidson diagonalization with overlap
     ethr =  1.00E-02,  avg # of iterations =  2.0

     total energy              =    -562.73882808 Ry
     Harris-Foulkes estimate   =    -564.52193226 Ry
     estimated scf accuracy    <       4.55996973 Ry

[...]

     iteration #  6     ecut=    45.00 Ry     beta= 0.70
     Davidson diagonalization with overlap
     c_bands:  1 eigenvalues not converged
     c_bands:  1 eigenvalues not converged
     c_bands:  1 eigenvalues not converged
     ethr =  1.97E-06,  avg # of iterations = 18.2

[...]

     negative rho (up, down):  1.613E-07 0.000E+00

[...]

     total energy              =    -563.63005402 Ry
     Harris-Foulkes estimate   =    -563.63005402 Ry
     estimated scf accuracy    <       0.00000207 Ry

     iteration # 13     ecut=    45.00 Ry     beta= 0.70
     Davidson diagonalization with overlap
     ethr =  1.44E-09,  avg # of iterations =  4.0

[...]

     End of self-consistent calculation

          k = 0.0000 0.0000 0.0000 ( 20939 PWs)   bands (ev):

   -10.0323  -9.9117  -8.8890  -8.7127  -8.3439  -8.3041  -8.2922  -8.2497
    -8.1949  -8.1831  -8.0463  -8.0153  -7.9879  -7.9423  -7.8919  -7.8687
    -1.7038  -1.6353  -1.6218  -1.5948  -1.5794  -1.5412  -1.5174  -1.2553
    -0.7579  -0.6975  -0.6876  -0.6395  -0.6216  -0.5746  -0.1497  -0.1079
    -0.0863   0.1410   0.2051   0.2212   0.8506   0.8738   0.9031   0.9443
     0.9586   0.9816   1.4044   1.4175   1.4747   1.4852   1.7102   1.7879
     1.9347   2.0350   2.3105   2.3808   2.4828   2.5013   2.5495   2.5844
     2.6037   2.8073   2.9085   2.9421   2.9939   3.0176   3.1012   3.1577
     3.2444   3.3127   3.3331   3.4864   3.5532   3.5785   3.8304   4.3817
     5.8763   5.9304   5.9470   5.9859   6.0187   6.0353   6.3811   6.3989
     6.4424   6.4759   6.4821   6.4931   6.6126   6.6624

[...]

          k = 0.3333-0.1934 0.0231 ( 20957 PWs)   bands (ev):

    -9.6797  -9.5591  -8.8617  -8.7810  -8.6683  -8.5447  -8.3651  -8.3149
    -8.2866  -8.2233  -8.1875  -8.1201  -8.0215  -7.9513  -7.9101  -7.8305
    -1.3080  -1.2373  -1.1800  -1.1397  -1.1285  -1.0655  -1.0128  -0.8900
    -0.7466  -0.7134  -0.6990  -0.6872  -0.1737  -0.0687   0.0034   0.0255
     0.0731   0.2811   0.3749   0.4336   0.6703   0.7176   0.7775   0.8352
     0.9022   1.0321   1.0448   1.1877   1.2671   1.3837   1.5535   1.6495
     1.7178   1.7991   1.8860   1.9060   2.0213   2.0302   2.0800   2.1837
     2.2259   2.4895   2.5374   2.6404   2.6738   2.7114   2.7511   3.0169
     3.1305   3.2643   3.4396   3.4747   3.5642   3.5936   3.6383   3.9444
     5.8038   5.8688   5.8977   6.0040   6.0431   6.0719   6.0949   6.1642
     6.3147   6.3523   6.3937   6.4236   6.4492   6.5160

     the Fermi energy is     4.2585 ev

!    total energy              =    -563.63005440 Ry
     Harris-Foulkes estimate   =    -563.63005505 Ry
     estimated scf accuracy    <       0.00000072 Ry

     The total energy is the sum of the following terms:

     one-electron contribution =    -834.84655995 Ry
     hartree contribution      =     487.39695096 Ry
     xc contribution           =    -222.66229707 Ry
     ewald contribution        =       6.47163048 Ry
     smearing contrib. (-TS)   =       0.01022119 Ry

     convergence has been achieved in  13 iterations

     negative rho (up, down):  1.152E-07 0.000E+00

     Forces acting on atoms (cartesian axes, Ry/au):

     atom    1 type  1   force =    -0.01322424   -0.02301540   -0.00185070
     atom    2 type  1   force =    -0.00118944    0.00330717    0.01524972
     atom    3 type  1   force =     0.03508717    0.01722231    0.01813251
     atom    4 type  1   force =    -0.03675735    0.00840730   -0.05819972
     atom    5 type  1   force =     0.01293282   -0.03131992   -0.00212779
     atom    6 type  1   force =    -0.00028801    0.00984035   -0.00485864
     atom    7 type  1   force =     0.00553040   -0.00609750    0.02428952
     atom    8 type  1   force =    -0.01091781    0.02420996    0.01046837
     atom    9 type  2   force =     0.01674521    0.02555683    0.02490660
     atom   10 type  2   force =    -0.01677550   -0.01707530    0.01520172
     atom   11 type  2   force =    -0.00657931   -0.00457980    0.00392406
     atom   12 type  2   force =     0.02439059   -0.01145617    0.02467956
     atom   13 type  2   force =    -0.00703989   -0.00614892   -0.00292476
     atom   14 type  2   force =    -0.01364224    0.00341194   -0.02354280
     atom   15 type  2   force =    -0.00112224   -0.01379028   -0.01860246
     atom   16 type  2   force =     0.00793848    0.00222487   -0.02750810
     atom   17 type  2   force =     0.00097371    0.00178105   -0.00382028
     atom   18 type  2   force =     0.00514312    0.00283814    0.00566190
     atom   19 type  2   force =    -0.00313670    0.00660764   -0.00062820
     atom   20 type  2   force =    -0.00526157    0.00590730    0.00400093
     atom   21 type  2   force =    -0.00214593   -0.00825913    0.00930372
     atom   22 type  2   force =     0.01286301    0.00465965    0.00591042
     atom   23 type  2   force =     0.00807608    0.00195648   -0.00737941
     atom   24 type  2   force =    -0.01160037    0.00381145   -0.01028616

     Total force =     0.131624     Total SCF correction =     0.001920

     General routines

     Parallel routines

   This run was terminated on:  22: 2:54   2Sep2021

   JOB DONE.