     Program PWSCF v.6.4 starts on  3Dec2021 at 15: 8: 6

     R & G space division:  proc/nbgrp/npool/nimage =      40
     Waiting for input...
     Reading input from standard input
Warning: card    &IONS ignored
Warning: card      ION_DYNAMICS = 'BFGS' ignored
Warning: card   / ignored
Warning: card    &CELL ignored
Warning: card      CELL_DYNAMICS = 'BFGS', ignored
Warning: card    / ignored

     Current dimensions of program PWSCF are:
     Max number of different atomic species (ntypx) = 10
     Max number of k-points (npk) =  40000
     Max angular momentum in pseudopotentials (lmaxx) =  3

     bravais-lattice index     =            0
     lattice parameter (alat)  =      12.1330  a.u.
     unit-cell volume          =   10907.0766 (a.u.)^3
     number of atoms/cell      =           36
     number of atomic types    =            2
     number of electrons       =       216.00
     number of Kohn-Sham states=          130
     kinetic-energy cutoff     =      45.0000  Ry
     charge density cutoff     =     360.0000  Ry
     convergence threshold     =      1.0E-06
     mixing beta               =       0.7000
     number of iterations used =            8  local-TF  mixing
     Exchange-correlation      = SLA PW GGX GGC ( 1  4  2  2 0 0)

     celldm(1)=  12.132978  celldm(2)=   0.000000  celldm(3)=   0.000000
     celldm(4)=   0.000000  celldm(5)=   0.000000  celldm(6)=   0.000000

     crystal axes: (cart. coord. in units of alat)
               a(1) = (   1.000000   0.000000   0.000000 )
               a(2) = (  -0.006352   1.735577   0.000000 )
               a(3) = (   0.107276   0.262568   3.518538 )

     reciprocal axes: (cart. coord. in units 2 pi/alat)
               b(1) = (  1.000000  0.003660 -0.030762 )
               b(2) = (  0.000000  0.576177 -0.042997 )
               b(3) = (  0.000000  0.000000  0.284209 )

     PseudoPot. # 1 for Mo read from file:
     ~/pseudo/Mo.pw91-n-van.UPF
     MD5 check sum: Not computed, couldn't open file
     Pseudo is Ultrasoft + core correction, Zval =  6.0
     Generated by new atomic code, or converted to UPF format
     Using radial grid of  965 points,  3 beta functions with:
                l(1) =   1
                l(2) =   2
                l(3) =   2
     Q(r) pseudized with  8 coefficients,  rinner =    1.000   1.000   1.000
                                                       1.200   1.200

     PseudoPot. # 2 for S  read from file:
     ~/pseudo/S.pw91-van_ak.UPF
     MD5 check sum: Not computed, couldn't open file
     Pseudo is Ultrasoft, Zval =  6.0
     Generated by new atomic code, or converted to UPF format
     Using radial grid of  811 points,  6 beta functions with:
                l(1) =   0
                l(2) =   0
                l(3) =   1
                l(4) =   1
                l(5) =   2
                l(6) =   2
     Q(r) pseudized with  8 coefficients,  rinner =    1.100   1.100   1.100
                                                       1.100   1.100

     atomic species   valence    mass     pseudopotential
        Mo             6.00    95.50000     Mo( 1.00)
        S              6.00    32.06500     S ( 1.00)

     No symmetry found

   Cartesian axes

     site n.     atom                  positions (alat units)
         1           Mo  tau(   1) = (   0.0842159   1.4964502   2.5567853  )
         2           Mo  tau(   2) = (   0.8388087   0.1932522   2.5587245  )
         3           Mo  tau(   3) = (   0.5843293   1.4966287   2.5576686  )
         4           Mo  tau(   4) = (   0.3391265   0.1934167   2.5588860  )
         5           Mo  tau(   5) = (   0.5873090   0.6270864   2.5609502  )
         6           Mo  tau(   6) = (   1.0873272   0.6273754   2.5613335  )
         7           Mo  tau(   7) = (   0.3360994   1.0619479   2.5598115  )
         8           Mo  tau(   8) = (   0.8355372   1.0620045   2.5596611  )
         9           Mo  tau(   9) = (   0.6839287   1.6424754   3.5657403  )
        10           Mo  tau(  10) = (   0.0191962   1.3320030   0.0049529  )
        11           Mo  tau(  11) = (   0.3245441   1.3841355   0.4043926  )
        12           Mo  tau(  12) = (   0.7701395   1.3879498   0.4248594  )
        13           S   tau(  13) = (   0.8345100   1.6389865   2.8022101  )
        14           S   tau(  14) = (   1.0850939   1.2085299   2.7992346  )
        15           S   tau(  15) = (   0.3328007   1.6390717   2.8023271  )
        16           S   tau(  16) = (   0.5851795   1.2083203   2.8061577  )
        17           S   tau(  17) = (   0.5500277   1.6564302   0.3029500  )
        18           S   tau(  18) = (   0.0534675   1.5451757   0.6042151  )
        19           S   tau(  19) = (   0.8344443   1.6414395   2.3108204  )
        20           S   tau(  20) = (   1.0860974   1.2063877   2.3126140  )
        21           S   tau(  21) = (   0.3344566   1.6414730   2.3110893  )
        22           S   tau(  22) = (   0.5860131   1.2070395   2.3133563  )
        23           S   tau(  23) = (   0.3074630   1.1155194   0.1553735  )
        24           S   tau(  24) = (   0.8954689   1.8331191   3.3514753  )
        25           S   tau(  25) = (   0.5883195   0.3368675   2.8041726  )
        26           S   tau(  26) = (   0.0879308   0.3367657   2.8042883  )
        27           S   tau(  27) = (   0.5892230   0.3390008   2.3134994  )
        28           S   tau(  28) = (   0.0891486   0.3392334   2.3138939  )
        29           S   tau(  29) = (   0.3373906   0.7722008   2.3153381  )
        30           S   tau(  30) = (   0.8377091   0.7722637   2.3153312  )
        31           S   tau(  31) = (   0.7970788   1.1044091   0.2123969  )
        32           S   tau(  32) = (   0.4039056   1.7954169   3.3681497  )
        33           S   tau(  33) = (   0.3370231   0.7724004   2.8071295  )
        34           S   tau(  34) = (   0.8361221   0.7725859   2.8070452  )
        35           S   tau(  35) = (   1.0629086   1.3832020   3.2723785  )
        36           S   tau(  36) = (   0.5358275   1.2581925   0.6682724  )

     number of k points=     4  Marzari-Vanderbilt smearing, width (Ry)=  0.0200
                       cart. coord. in units 2pi/alat
        k(    1) = (   0.0000000   0.0000000   0.0000000), wk =   0.3333333
        k(    2) = (   0.0000000  -0.2880887   0.0214984), wk =   0.3333333
        k(    3) = (   0.3333333   0.0012199  -0.0102540), wk =   0.6666667
        k(    4) = (   0.3333333  -0.2868688   0.0112444), wk =   0.6666667

     Initial potential from superposition of free atoms

     starting charge  215.98107, renormalised to  216.00000

     negative rho (up, down):  8.255E-04 0.000E+00
     Starting wfcs are  204 randomized atomic wfcs

     Self-consistent Calculation

     iteration #  1     ecut=    45.00 Ry     beta= 0.70
     Davidson diagonalization with overlap
     ethr =  1.00E-02,  avg # of iterations =  2.0

     negative rho (up, down):  1.322E-05 0.000E+00

     total energy              =    -843.59011739 Ry
     Harris-Foulkes estimate   =    -846.38506430 Ry
     estimated scf accuracy    <       7.51617223 Ry

[...]

     iteration #  6     ecut=    45.00 Ry     beta= 0.70
     Davidson diagonalization with overlap
     c_bands:  4 eigenvalues not converged
     c_bands:  3 eigenvalues not converged
     ethr =  1.13E-05,  avg # of iterations = 12.8

[...]

     iteration # 18     ecut=    45.00 Ry     beta= 0.70
     Davidson diagonalization with overlap
     c_bands:  1 eigenvalues not converged
     ethr =  9.32E-07,  avg # of iterations = 11.2

[...]

     total energy              =    -844.99890241 Ry
     Harris-Foulkes estimate   =    -844.99890307 Ry
     estimated scf accuracy    <       0.00000126 Ry

     iteration # 33     ecut=    45.00 Ry     beta= 0.70
     Davidson diagonalization with overlap
     ethr =  5.83E-10,  avg # of iterations =  1.2

[...]

     End of self-consistent calculation

          k = 0.0000 0.0000 0.0000 ( 55533 PWs)   bands (ev):

   -14.1475 -13.5102 -13.3878 -13.3727 -13.0885 -12.9448 -12.7385 -12.5961
   -12.5909 -12.5719 -12.4568 -12.4338 -12.4035 -12.3921 -12.3809 -12.3038
   -12.1751 -12.1480 -12.1346 -12.1216 -12.1048 -12.0933 -11.9684 -11.5348
    -5.7800  -5.7750  -5.7649  -5.6434  -5.4909  -5.1456  -5.1368  -5.0397
    -5.0351  -4.9491  -4.9246  -4.9225  -4.9032  -4.8356  -4.8251  -4.8142
    -4.7078  -4.6216  -4.2852  -4.1806  -4.1719  -4.1356  -4.1169  -3.9209
    -3.9077  -3.8870  -3.8370  -3.7578  -3.7147  -3.6406  -3.6223  -3.6077
    -3.6034  -3.4676  -3.3850  -3.3089  -3.2720  -3.2546  -3.2334  -3.2239
    -3.0862  -3.0256  -2.9745  -2.9617  -2.8170  -2.7462  -2.7062  -2.6823
    -2.6378  -2.5563  -2.5506  -2.4118  -2.0441  -2.0205  -1.9848  -1.9674
    -1.9219  -1.9004  -1.8847  -1.7914  -1.7777  -1.7506  -1.6216  -1.5902
    -1.5856  -1.4385  -1.4278  -1.3163  -1.1014  -1.0646  -1.0575  -0.9162
    -0.8694  -0.8514  -0.8243  -0.7842  -0.7827  -0.7552  -0.6583  -0.6403
    -0.5226  -0.2221  -0.1639  -0.1251   0.0879   0.4792   0.7931   1.0785
     1.1001   1.1912   1.5276   1.8241   1.8983   1.9017   1.9031   1.9363
     1.9403   1.9854   2.0082   2.1078   2.1293   2.1469   2.4009   2.4251
     2.4271   2.4329

[...]

          k = 0.3333-0.2869 0.0112 ( 55631 PWs)   bands (ev):

   -13.6940 -13.6560 -13.3331 -13.0712 -13.0413 -13.0074 -12.7776 -12.7324
   -12.7011 -12.6760 -12.5850 -12.5631 -12.4367 -12.3970 -12.3314 -12.3144
   -12.2981 -12.1997 -12.1904 -12.1799 -12.0673 -12.0469 -11.9486 -11.6552
    -5.2723  -5.2366  -5.2087  -5.1978  -5.1798  -5.1498  -5.1298  -5.1150
    -5.1017  -5.0770  -5.0235  -4.7700  -4.7284  -4.6897  -4.6519  -4.6370
    -4.4984  -4.3636  -4.1681  -4.1116  -4.0622  -4.0368  -3.9981  -3.9804
    -3.9252  -3.8804  -3.8708  -3.8418  -3.8082  -3.7563  -3.6161  -3.5963
    -3.5861  -3.4841  -3.3658  -3.3435  -3.3090  -3.2739  -3.2353  -3.1996
    -3.1041  -3.0731  -3.0310  -2.9463  -2.9236  -2.9009  -2.8789  -2.8684
    -2.7415  -2.5407  -2.4258  -2.3949  -2.3654  -2.3507  -2.3246  -2.2650
    -2.2337  -2.2011  -2.0811  -1.9562  -1.9433  -1.7443  -1.6747  -1.6660
    -1.6556  -1.6316  -1.6029  -1.5764  -1.4677  -1.2519  -1.1677  -1.1358
    -1.0514  -1.0318  -0.9108  -0.7710  -0.7498  -0.5576  -0.5444  -0.5001
    -0.4880  -0.4818  -0.3864  -0.1056   0.1272   0.5524   0.6148   1.0206
     1.1141   1.2979   1.4359   1.8201   1.8390   1.8956   1.9168   1.9528
     1.9636   1.9854   2.0037   2.0406   2.1092   2.1150   2.1597   2.2651
     2.2770   2.3021

     the Fermi energy is    -0.0103 ev

!    total energy              =    -844.99890222 Ry
     Harris-Foulkes estimate   =    -844.99890257 Ry
     estimated scf accuracy    <       0.00000020 Ry

     The total energy is the sum of the following terms:

     one-electron contribution =   -3817.12267305 Ry
     hartree contribution      =    1980.39576831 Ry
     xc contribution           =    -333.69030527 Ry
     ewald contribution        =    1325.40369150 Ry
     smearing contrib. (-TS)   =       0.01461630 Ry

     convergence has been achieved in  33 iterations

     negative rho (up, down):  1.281E-03 0.000E+00

     Forces acting on atoms (cartesian axes, Ry/au):

     atom    1 type  1   force =     0.00207194   -0.00098591   -0.00940772
     atom    2 type  1   force =     0.00129674    0.00164525   -0.00349063
     atom    3 type  1   force =    -0.00104519   -0.00582536   -0.00244942
     atom    4 type  1   force =    -0.00054727    0.00073365   -0.00398173
     atom    5 type  1   force =    -0.00022233    0.00225677   -0.00233273
     atom    6 type  1   force =     0.00105490    0.00214464   -0.00178487
     atom    7 type  1   force =     0.00444217   -0.00187664   -0.00497409
     atom    8 type  1   force =    -0.00368733   -0.00186863   -0.00454531
     atom    9 type  1   force =     0.01239570    0.00716529    0.03421958
     atom   10 type  1   force =    -0.03922879    0.00063095   -0.07631066
     atom   11 type  1   force =    -0.00468734    0.00451511    0.04691984
     atom   12 type  1   force =     0.00526469    0.01972443    0.07416881
     atom   13 type  2   force =    -0.00084120    0.00242455    0.00801061
     atom   14 type  2   force =     0.00181840   -0.00329811    0.01282444
     atom   15 type  2   force =     0.00209796    0.00218718    0.00761741
     atom   16 type  2   force =     0.00072894   -0.00089948   -0.00296695
     atom   17 type  2   force =    -0.00331662    0.00061337   -0.04534540
     atom   18 type  2   force =    -0.00348240   -0.01089508   -0.03301756
     atom   19 type  2   force =    -0.00208347   -0.00078081   -0.00005762
     atom   20 type  2   force =    -0.00137506   -0.00260823   -0.00145863
     atom   21 type  2   force =    -0.00047311   -0.00049833   -0.00015719
     atom   22 type  2   force =    -0.00125960   -0.00257601   -0.00038310
     atom   23 type  2   force =     0.01302929    0.01855718    0.01932177
     atom   24 type  2   force =     0.01915258    0.03656443   -0.00040125
     atom   25 type  2   force =     0.00080675    0.00077416    0.00604046
     atom   26 type  2   force =     0.00140571    0.00135964    0.00493768
     atom   27 type  2   force =    -0.00150226    0.00068966   -0.00096140
     atom   28 type  2   force =    -0.00123645    0.00076358   -0.00107798
     atom   29 type  2   force =    -0.00112648   -0.00070229   -0.00097731
     atom   30 type  2   force =    -0.00146434   -0.00090207   -0.00116850
     atom   31 type  2   force =     0.00330259   -0.01367696   -0.00081925
     atom   32 type  2   force =    -0.01177369   -0.00376041    0.02240724
     atom   33 type  2   force =    -0.00024524    0.00127715   -0.00078389
     atom   34 type  2   force =     0.00204863    0.00068069   -0.00065157
     atom   35 type  2   force =     0.01535822   -0.03536779   -0.03212218
     atom   36 type  2   force =    -0.00667705   -0.01818557   -0.00484091

     Total force =     0.165115     Total SCF correction =     0.000978

     General routines

     Parallel routines

   This run was terminated on:  15:14:34   3Dec2021

   JOB DONE.