     Program PWSCF v.6.4 starts on 19Nov2021 at 11:27:10

     R & G space division:  proc/nbgrp/npool/nimage =      40
     Waiting for input...
     Reading input from standard input
Warning: card    &IONS ignored
Warning: card      ION_DYNAMICS = 'BFGS' ignored
Warning: card   / ignored
Warning: card    &CELL ignored
Warning: card      CELL_DYNAMICS = 'BFGS', ignored
Warning: card    / ignored

     Current dimensions of program PWSCF are:
     Max number of different atomic species (ntypx) = 10
     Max number of k-points (npk) =  40000
     Max angular momentum in pseudopotentials (lmaxx) =  3

     bravais-lattice index     =            0
     lattice parameter (alat)  =      10.9663  a.u.
     unit-cell volume          =    3346.6634 (a.u.)^3
     number of atoms/cell      =           27
     number of atomic types    =            2
     number of electrons       =       162.00
     number of Kohn-Sham states=           97
     kinetic-energy cutoff     =      45.0000  Ry
     charge density cutoff     =     360.0000  Ry
     convergence threshold     =      1.0E-06
     mixing beta               =       0.7000
     number of iterations used =            8  local-TF  mixing
     Exchange-correlation      = SLA PW GGX GGC ( 1  4  2  2 0 0)

     celldm(1)=  10.966346  celldm(2)=   0.000000  celldm(3)=   0.000000
     celldm(4)=   0.000000  celldm(5)=   0.000000  celldm(6)=   0.000000

     crystal axes: (cart. coord. in units of alat)
               a(1) = (   1.000000   0.000000   0.000000 )
               a(2) = (  -0.036131   1.525811   0.000000 )
               a(3) = (  -0.000936  -0.394225   1.663127 )

     reciprocal axes: (cart. coord. in units 2 pi/alat)
               b(1) = (  1.000000  0.023680  0.006176 )
               b(2) = (  0.000000  0.655389  0.155352 )
               b(3) = (  0.000000  0.000000  0.601277 )

     PseudoPot. # 1 for Mo read from file:
     ~/pseudo/Mo.pw91-n-van.UPF
     MD5 check sum: Not computed, couldn't open file
     Pseudo is Ultrasoft + core correction, Zval =  6.0
     Generated by new atomic code, or converted to UPF format
     Using radial grid of  965 points,  3 beta functions with:
                l(1) =   1
                l(2) =   2
                l(3) =   2
     Q(r) pseudized with  8 coefficients,  rinner =    1.000   1.000   1.000
                                                       1.200   1.200

     PseudoPot. # 2 for S  read from file:
     ~/pseudo/S.pw91-van_ak.UPF
     MD5 check sum: Not computed, couldn't open file
     Pseudo is Ultrasoft, Zval =  6.0
     Generated by new atomic code, or converted to UPF format
     Using radial grid of  811 points,  6 beta functions with:
                l(1) =   0
                l(2) =   0
                l(3) =   1
                l(4) =   1
                l(5) =   2
                l(6) =   2
     Q(r) pseudized with  8 coefficients,  rinner =    1.100   1.100   1.100
                                                       1.100   1.100

     atomic species   valence    mass     pseudopotential
        Mo             6.00    95.50000     Mo( 1.00)
        S              6.00    32.06500     S ( 1.00)

     No symmetry found

   Cartesian axes

     site n.     atom                  positions (alat units)
         1           Mo  tau(   1) = (   0.0268092   0.6356568   0.9802850  )
         2           Mo  tau(   2) = (   0.0284744   0.5425675   1.4389829  )
         3           Mo  tau(   3) = (   0.0386636   0.1674746   1.0809731  )
         4           Mo  tau(   4) = (   0.0158136   1.3692806   0.2752649  )
         5           Mo  tau(   5) = (   0.0270047   0.2175109   0.6086414  )
         6           Mo  tau(   6) = (   0.0005978   1.2877256   0.7397344  )
         7           Mo  tau(   7) = (   0.5363445  -0.0253950   1.6596851  )
         8           Mo  tau(   8) = (   0.5288703   0.7963884   0.3918922  )
         9           Mo  tau(   9) = (   0.4989623   1.1313407   1.3394127  )
        10           S   tau(  10) = (   0.3337526   0.0320501   0.8212870  )
        11           S   tau(  11) = (   0.7798880   0.9011628   0.7089850  )
        12           S   tau(  12) = (   0.2933511   0.7032887   0.0716047  )
        13           S   tau(  13) = (   0.7324166  -0.0698665   0.5094100  )
        14           S   tau(  14) = (   0.2708657   0.5837074   0.6313586  )
        15           S   tau(  15) = (   0.2453864   1.0145263   1.0146333  )
        16           S   tau(  16) = (   0.2587974   0.8754614   1.5801998  )
        17           S   tau(  17) = (   0.7771235   0.4825200   0.3203568  )
        18           S   tau(  18) = (   0.7880466   0.2097909   1.4431270  )
        19           S   tau(  19) = (   0.7635118   0.8070327   1.2638660  )
        20           S   tau(  20) = (   0.7816725  -0.1931553   1.0746199  )
        21           S   tau(  21) = (   0.7953840   1.0212180   0.1460010  )
        22           S   tau(  22) = (   0.3352626   0.4507994   1.1928247  )
        23           S   tau(  23) = (   0.2711975   1.1057980   0.4619131  )
        24           S   tau(  24) = (   0.8109803  -0.3305332   1.6401307  )
        25           S   tau(  25) = (   0.7361549   0.3622036   0.8719973  )
        26           S   tau(  26) = (   0.2866324   0.1828168   0.2608585  )
        27           S   tau(  27) = (   0.2507983  -0.0993774   1.3760573  )

     number of k points=     8  Marzari-Vanderbilt smearing, width (Ry)=  0.0200
                       cart. coord. in units 2pi/alat
        k(    1) = (   0.0000000   0.0000000   0.0000000), wk =   0.1666667
        k(    2) = (   0.0000000   0.0000000  -0.3006385), wk =   0.1666667
        k(    3) = (   0.0000000  -0.3276945  -0.0776762), wk =   0.1666667
        k(    4) = (   0.0000000  -0.3276945  -0.3783147), wk =   0.1666667
        k(    5) = (   0.3333333   0.0078934   0.0020586), wk =   0.3333333
        k(    6) = (   0.3333333   0.0078934  -0.2985800), wk =   0.3333333
        k(    7) = (   0.3333333  -0.3198012  -0.0756176), wk =   0.3333333
        k(    8) = (   0.3333333  -0.3198012  -0.3762561), wk =   0.3333333

     Initial potential from superposition of free atoms

     starting charge  161.98581, renormalised to  162.00000
     Starting wfcs are  153 randomized atomic wfcs

     Self-consistent Calculation

     iteration #  1     ecut=    45.00 Ry     beta= 0.70
     Davidson diagonalization with overlap
     ethr =  1.00E-02,  avg # of iterations =  2.0

     total energy              =    -632.18609333 Ry
     Harris-Foulkes estimate   =    -634.56404380 Ry
     estimated scf accuracy    <       5.98877841 Ry

[...]

     total energy              =    -633.45551021 Ry
     Harris-Foulkes estimate   =    -633.45551057 Ry
     estimated scf accuracy    <       0.00000217 Ry

     iteration # 12     ecut=    45.00 Ry     beta= 0.70
     Davidson diagonalization with overlap
     ethr =  1.34E-09,  avg # of iterations =  3.5

     End of self-consistent calculation

          k = 0.0000 0.0000 0.0000 ( 17053 PWs)   bands (ev):

    -6.2048  -5.2648  -5.2402  -4.9908  -4.9872  -4.7923  -4.6536  -4.5392
    -4.4332  -4.4044  -4.3743  -4.3004  -4.2114  -4.1777  -4.0718  -3.9844
    -3.9024  -3.6651   1.7733   2.4289   2.5116   2.6542   2.6903   2.7297
     2.7757   2.9961   3.0051   3.0873   3.1512   3.2195   3.3414   3.5064
     3.5269   3.5820   3.6868   3.7039   3.8182   3.8478   3.9296   4.1415
     4.2293   4.3006   4.3792   4.4863   4.5219   4.5782   4.6396   4.8224
     4.9537   4.9877   5.0853   5.1491   5.1665   5.2714   5.4419   5.5008
     5.5590   5.6148   5.7589   5.8079   5.8719   5.8969   6.0652   6.2792
     6.3916   6.6183   6.6296   6.6785   6.8354   6.9214   6.9954   7.1690
     7.1928   7.3428   7.5673   7.7151   7.8251   7.9025   7.9675   8.1353
     8.2831   8.3947   8.3993   8.6364   8.8329   8.9270   9.0094   9.1292
     9.3328   9.3610   9.4355   9.5110   9.7914   9.9064  10.0602  10.1086
    10.1564

[...]

          k = 0.3333-0.3198-0.3763 ( 17059 PWs)   bands (ev):

    -5.5659  -5.4960  -5.2405  -5.1873  -4.9962  -4.8218  -4.7673  -4.6850
    -4.4517  -4.4356  -4.3678  -4.3183  -4.2553  -4.2186  -4.0514  -3.9541
    -3.8299  -3.7373   2.2391   2.2592   2.3737   2.4537   2.5630   2.7265
     2.7538   2.7767   2.8401   2.9403   3.0611   3.1745   3.2214   3.3362
     3.4385   3.5922   3.7597   3.8328   4.0064   4.1510   4.2165   4.3395
     4.4199   4.4923   4.5828   4.6560   4.7264   4.7902   4.8373   4.9449
     4.9763   5.0568   5.1199   5.1759   5.3034   5.3593   5.4899   5.5226
     5.6058   5.6869   5.7578   5.7840   5.9457   6.0382   6.1394   6.2051
     6.2990   6.3497   6.5066   6.5818   6.6470   6.8056   6.9051   6.9633
     7.1036   7.1875   7.3260   7.4369   7.6491   7.7345   7.9277   7.9828
     8.1322   8.2362   8.4115   8.5618   8.6798   8.9510   9.0820   9.1757
     9.2824   9.4174   9.6041   9.6737   9.9396  10.0712  10.0993  10.1739
    10.2395

     the Fermi energy is     8.2686 ev

!    total energy              =    -633.45551033 Ry
     Harris-Foulkes estimate   =    -633.45551063 Ry
     estimated scf accuracy    <       0.00000051 Ry

     The total energy is the sum of the following terms:

     one-electron contribution =      96.36090012 Ry
     hartree contribution      =      53.40493994 Ry
     xc contribution           =    -250.33909433 Ry
     ewald contribution        =    -532.88191296 Ry
     smearing contrib. (-TS)   =      -0.00034310 Ry

     convergence has been achieved in  12 iterations

     Forces acting on atoms (cartesian axes, Ry/au):

     atom    1 type  1   force =    -0.01670769    0.04504629   -0.04145881
     atom    2 type  1   force =    -0.03378131   -0.00007909    0.06790605
     atom    3 type  1   force =     0.00937358   -0.02754442    0.06044468
     atom    4 type  1   force =     0.01348693   -0.01003158   -0.06822123
     atom    5 type  1   force =    -0.00097698    0.04239516   -0.04660903
     atom    6 type  1   force =     0.01218028   -0.06919909    0.03893106
     atom    7 type  1   force =     0.00206449    0.00687566    0.01901890
     atom    8 type  1   force =     0.01654679   -0.01756605   -0.00237307
     atom    9 type  1   force =    -0.00766047   -0.00808284   -0.01478479
     atom   10 type  2   force =    -0.01655893    0.00478490    0.01155761
     atom   11 type  2   force =     0.01139078    0.01137341    0.00605269
     atom   12 type  2   force =    -0.02046660    0.02406905   -0.01782457
     atom   13 type  2   force =     0.01911923    0.00998510    0.01884555
     atom   14 type  2   force =    -0.00674444   -0.00994926    0.02296692
     atom   15 type  2   force =    -0.00824353   -0.00095720   -0.01179163
     atom   16 type  2   force =    -0.00113466   -0.00729701   -0.00032700
     atom   17 type  2   force =     0.02309725   -0.01464088    0.02570272
     atom   18 type  2   force =     0.02272272    0.03032288   -0.04563547
     atom   19 type  2   force =     0.02576034   -0.06129661   -0.01552168
     atom   20 type  2   force =     0.00385519    0.01991977   -0.01377658
     atom   21 type  2   force =     0.00676215    0.02889042   -0.00297006
     atom   22 type  2   force =    -0.01550840   -0.00522807   -0.02137155
     atom   23 type  2   force =    -0.02504020    0.06454743    0.01848565
     atom   24 type  2   force =     0.00201707   -0.00094890   -0.00726522
     atom   25 type  2   force =     0.01540274   -0.00028879   -0.00500894
     atom   26 type  2   force =    -0.02937858   -0.05435253    0.03577175
     atom   27 type  2   force =    -0.00157775   -0.00074774   -0.01074395

     Total force =     0.239281     Total SCF correction =     0.001253

     General routines

     Parallel routines

   This run was terminated on:  11:28: 8  19Nov2021

   JOB DONE.