     Program PWSCF v.6.4 starts on 24Dec2021 at 22:39:30

     R & G space division:  proc/nbgrp/npool/nimage =      40
     Waiting for input...
     Reading input from standard input
Warning: card    &IONS ignored
Warning: card      ION_DYNAMICS = 'BFGS' ignored
Warning: card   / ignored
Warning: card    &CELL ignored
Warning: card      CELL_DYNAMICS = 'BFGS', ignored
Warning: card    / ignored

     Current dimensions of program PWSCF are:
     Max number of different atomic species (ntypx) = 10
     Max number of k-points (npk) =  40000
     Max angular momentum in pseudopotentials (lmaxx) =  3

     bravais-lattice index     =            0
     lattice parameter (alat)  =      18.7125  a.u.
     unit-cell volume          =    6449.0331 (a.u.)^3
     number of atoms/cell      =           48
     number of atomic types    =            2
     number of electrons       =       288.00
     number of Kohn-Sham states=          173
     kinetic-energy cutoff     =      45.0000  Ry
     charge density cutoff     =     360.0000  Ry
     convergence threshold     =      1.0E-06
     mixing beta               =       0.7000
     number of iterations used =            8  local-TF  mixing
     Exchange-correlation      = SLA PW GGX GGC ( 1  4  2  2 0 0)

     celldm(1)=  18.712457  celldm(2)=   0.000000  celldm(3)=   0.000000
     celldm(4)=   0.000000  celldm(5)=   0.000000  celldm(6)=   0.000000

     crystal axes: (cart. coord. in units of alat)
               a(1) = (   1.000000   0.000000   0.000000 )
               a(2) = (   0.021461   0.977220   0.000000 )
               a(3) = (   0.007976   0.000246   1.007186 )

     reciprocal axes: (cart. coord. in units 2 pi/alat)
               b(1) = (  1.000000 -0.021962 -0.007914 )
               b(2) = (  0.000000  1.023311 -0.000250 )
               b(3) = (  0.000000  0.000000  0.992865 )

     PseudoPot. # 1 for Mo read from file:
     ~/pseudo/Mo.pw91-n-van.UPF
     MD5 check sum: Not computed, couldn't open file
     Pseudo is Ultrasoft + core correction, Zval =  6.0
     Generated by new atomic code, or converted to UPF format
     Using radial grid of  965 points,  3 beta functions with:
                l(1) =   1
                l(2) =   2
                l(3) =   2
     Q(r) pseudized with  8 coefficients,  rinner =    1.000   1.000   1.000
                                                       1.200   1.200

     PseudoPot. # 2 for S  read from file:
     ~/pseudo/S.pw91-van_ak.UPF
     MD5 check sum: Not computed, couldn't open file
     Pseudo is Ultrasoft, Zval =  6.0
     Generated by new atomic code, or converted to UPF format
     Using radial grid of  811 points,  6 beta functions with:
                l(1) =   0
                l(2) =   0
                l(3) =   1
                l(4) =   1
                l(5) =   2
                l(6) =   2
     Q(r) pseudized with  8 coefficients,  rinner =    1.100   1.100   1.100
                                                       1.100   1.100

     atomic species   valence    mass     pseudopotential
        Mo             6.00    95.50000     Mo( 1.00)
        S              6.00    32.06500     S ( 1.00)

     No symmetry found

   Cartesian axes

     site n.     atom                  positions (alat units)
         1           Mo  tau(   1) = (   1.0113545   0.5743013   0.2493314  )
         2           Mo  tau(   2) = (   0.6084212   0.6004492   0.0947220  )
         3           Mo  tau(   3) = (   0.9454327   0.8572215   0.0938907  )
         4           Mo  tau(   4) = (   0.5927258   0.8634824   0.3780964  )
         5           Mo  tau(   5) = (   0.3781057   0.1048999   0.3919260  )
         6           Mo  tau(   6) = (   0.1007848   0.1171906   0.1015138  )
         7           Mo  tau(   7) = (   0.4026539   0.3870434   0.0862939  )
         8           Mo  tau(   8) = (   0.1366050   0.3351739   0.3482425  )
         9           Mo  tau(   9) = (   0.9098474   0.1149929   0.8954150  )
        10           Mo  tau(  10) = (   0.5958243   0.0975727   0.6070077  )
        11           Mo  tau(  11) = (   0.8657843   0.3571722   0.6979200  )
        12           Mo  tau(  12) = (   0.6236725   0.3863486   0.8948488  )
        13           Mo  tau(  13) = (   0.4118697   0.6038922   0.9050811  )
        14           Mo  tau(  14) = (   0.1690332   0.6688631   0.6644153  )
        15           Mo  tau(  15) = (   0.4041430   0.8797173   0.6100365  )
        16           Mo  tau(  16) = (   0.1355606   0.8842018   0.8825600  )
        17           S   tau(  17) = (   0.8631573   0.6276477   0.0748916  )
        18           S   tau(  18) = (   0.8746338   0.3587234   0.9230115  )
        19           S   tau(  19) = (   0.6301782   0.6195567   0.3433682  )
        20           S   tau(  20) = (   0.6268607   0.1227718   0.3770997  )
        21           S   tau(  21) = (   0.8587706   0.1105556   0.1283089  )
        22           S   tau(  22) = (   0.6343109   0.3576161   0.1303627  )
        23           S   tau(  23) = (   0.8967845   0.3948070   0.3409964  )
        24           S   tau(  24) = (   0.6323385   0.3652060   0.6348556  )
        25           S   tau(  25) = (   0.3582037   0.1385736   0.1324889  )
        26           S   tau(  26) = (   0.3938139   0.8582932   0.8674514  )
        27           S   tau(  27) = (   0.1228079   0.0960889   0.3594230  )
        28           S   tau(  28) = (   0.1803940   0.5775605   0.4297258  )
        29           S   tau(  29) = (   0.3687131   0.6133828   0.1347387  )
        30           S   tau(  30) = (   0.1797176   0.8637018   0.1132218  )
        31           S   tau(  31) = (   0.3607622   0.8423509   0.3752452  )
        32           S   tau(  32) = (   0.1511346   0.8953774   0.6388112  )
        33           S   tau(  33) = (   0.8537668   0.1189655   0.6518508  )
        34           S   tau(  34) = (   0.9234333   0.7899222   0.3376955  )
        35           S   tau(  35) = (   0.6393257   0.1331418   0.8671710  )
        36           S   tau(  36) = (   0.6497040   0.6222648   0.8596109  )
        37           S   tau(  37) = (   0.9362414   0.5823775   0.6426967  )
        38           S   tau(  38) = (   0.6489840   0.8382345   0.6106035  )
        39           S   tau(  39) = (   0.8960344   0.8566597   0.8696452  )
        40           S   tau(  40) = (   0.6277983   0.8512140   0.1297997  )
        41           S   tau(  41) = (   0.3979137   0.6275311   0.6489362  )
        42           S   tau(  42) = (   0.3793966   0.3564533   0.3485048  )
        43           S   tau(  43) = (   0.1606976   0.6331660   0.8936088  )
        44           S   tau(  44) = (   0.1484226   0.1447602   0.8747414  )
        45           S   tau(  45) = (   0.3665285   0.1488785   0.6224245  )
        46           S   tau(  46) = (   0.0863290   0.3207223   0.5925599  )
        47           S   tau(  47) = (   0.3776213   0.3694501   0.8592064  )
        48           S   tau(  48) = (   0.1380800   0.3782103   0.1044027  )

     number of k points=     8  Marzari-Vanderbilt smearing, width (Ry)=  0.0200
                       cart. coord. in units 2pi/alat
        k(    1) = (   0.0000000   0.0000000   0.0000000), wk =   0.2500000
        k(    2) = (   0.0000000   0.0000000  -0.4964327), wk =   0.2500000
        k(    3) = (   0.0000000  -0.5116553   0.0001252), wk =   0.2500000
        k(    4) = (   0.0000000  -0.5116553  -0.4963075), wk =   0.2500000
        k(    5) = (  -0.5000000   0.0109808   0.0039571), wk =   0.2500000
        k(    6) = (  -0.5000000   0.0109808  -0.4924756), wk =   0.2500000
        k(    7) = (  -0.5000000  -0.5006745   0.0040823), wk =   0.2500000
        k(    8) = (  -0.5000000  -0.5006745  -0.4923504), wk =   0.2500000

     Initial potential from superposition of free atoms

     starting charge  287.97477, renormalised to  288.00000
     Starting wfcs are  272 randomized atomic wfcs

     Self-consistent Calculation

     iteration #  1     ecut=    45.00 Ry     beta= 0.70
     Davidson diagonalization with overlap
     ethr =  1.00E-02,  avg # of iterations =  2.0

     total energy              =   -1123.81590752 Ry
     Harris-Foulkes estimate   =   -1128.10807444 Ry
     estimated scf accuracy    <      11.44409357 Ry

[...]

     iteration #  8     ecut=    45.00 Ry     beta= 0.70
     Davidson diagonalization with overlap
     c_bands:  1 eigenvalues not converged
     ethr =  1.05E-06,  avg # of iterations = 14.2

[...]

     total energy              =   -1126.10066159 Ry
     Harris-Foulkes estimate   =   -1126.10066169 Ry
     estimated scf accuracy    <       0.00000179 Ry

     iteration # 14     ecut=    45.00 Ry     beta= 0.70
     Davidson diagonalization with overlap
     ethr =  6.23E-10,  avg # of iterations =  2.8

     End of self-consistent calculation

          k = 0.0000 0.0000 0.0000 ( 32855 PWs)   bands (ev):

    -7.1519  -6.5607  -6.4190  -6.3598  -6.3276  -6.2399  -6.0724  -6.0049
    -5.9128  -5.8733  -5.8340  -5.8285  -5.8150  -5.7310  -5.7109  -5.6928
    -5.6412  -5.6022  -5.5874  -5.4922  -5.4039  -5.3730  -5.2595  -5.1534
    -5.0359  -4.8680  -4.7892  -4.7571  -4.6703  -4.5898  -4.4920  -4.2904
     0.9983   1.0517   1.1394   1.1634   1.4558   1.5145   1.6217   1.6856
     1.7240   1.8273   1.8891   1.8970   2.0433   2.1575   2.1656   2.1949
     2.2395   2.3034   2.4061   2.4705   2.5312   2.5940   2.6051   2.6344
     2.6779   2.7104   2.7425   2.8016   2.8505   2.8812   2.9150   2.9388
     2.9930   3.0225   3.0667   3.0943   3.1786   3.2062   3.2455   3.3073
     3.3493   3.4028   3.4071   3.4336   3.4744   3.5136   3.5454   3.5931
     3.5993   3.6145   3.6896   3.7044   3.7452   3.7784   3.8254   3.8522
     3.8742   3.9282   3.9630   4.0101   4.0511   4.0939   4.1045   4.1296
     4.1729   4.2463   4.2761   4.3403   4.3755   4.4321   4.4630   4.5607
     4.6113   4.6509   4.7346   4.7762   4.8701   4.9020   4.9930   5.1108
     5.2153   5.2493   5.3588   5.4492   5.5074   5.5774   5.6106   5.6799
     5.7210   5.8107   5.8698   5.9340   5.9651   5.9826   6.0603   6.1083
     6.1598   6.2406   6.2744   6.3187   6.4177   6.4373   6.4798   6.5451
     6.6291   6.7173   6.7509   6.8918   6.9552   7.0130   7.0521   7.1437
     7.1709   7.2118   7.2503   7.3859   7.4175   7.6257   7.6831   7.7621
     7.8588   8.0500   8.1716   8.2922   8.2980   8.4093   8.4581   8.4894
     8.5789   8.6842   8.7170   8.8722   8.8977   8.9264   8.9668   9.0086
     9.0678   9.1115   9.1758   9.1871   9.2613

[...]

          k = 0.0000-0.5117-0.4963 ( 32824 PWs)   bands (ev):

[...]

          k =-0.5000 0.0110 0.0040 ( 32844 PWs)   bands (ev):

[...]

          k =-0.5000-0.5007-0.4924 ( 32874 PWs)   bands (ev):

    -6.7841  -6.6556  -6.5903  -6.5347  -6.4256  -6.3076  -6.1826  -6.0329
    -5.9591  -5.8920  -5.8273  -5.8039  -5.7776  -5.7334  -5.7110  -5.6313
    -5.6260  -5.5583  -5.5012  -5.4250  -5.3527  -5.3469  -5.2824  -5.1439
    -4.9931  -4.9003  -4.7611  -4.6983  -4.6547  -4.6180  -4.4824  -4.2963
     1.2136   1.3430   1.3801   1.5014   1.5882   1.6032   1.6557   1.7327
     1.7678   1.8071   1.8623   1.9140   1.9706   1.9899   2.0072   2.1315
     2.1679   2.2226   2.2267   2.2703   2.2897   2.3426   2.4139   2.4309
     2.4419   2.5516   2.5901   2.6852   2.7378   2.7625   2.8020   2.9168
     2.9317   2.9940   3.0096   3.0834   3.1411   3.1572   3.1769   3.2395
     3.3087   3.3599   3.3675   3.4219   3.4546   3.4730   3.5046   3.5351
     3.5749   3.6267   3.6583   3.6772   3.7137   3.7714   3.7751   3.8478
     3.8825   3.9334   4.0059   4.0207   4.0868   4.1211   4.1610   4.2203
     4.2939   4.3620   4.3941   4.5034   4.5547   4.5886   4.6818   4.7668
     4.8095   4.8270   4.8597   4.9298   5.0151   5.0393   5.1361   5.2018
     5.3486   5.3589   5.4060   5.4386   5.5029   5.5954   5.6214   5.6582
     5.7312   5.7878   5.8694   5.9011   5.9699   6.0088   6.1011   6.1583
     6.2032   6.2366   6.2689   6.3276   6.3840   6.4853   6.5013   6.5462
     6.6737   6.7537   6.8443   6.8795   6.9719   7.0031   7.0172   7.0952
     7.1581   7.2610   7.3053   7.3900   7.4415   7.4874   7.6486   7.6967
     7.7604   7.8699   8.0619   8.1932   8.2364   8.3331   8.4094   8.4620
     8.5599   8.6795   8.7985   8.8356   8.9040   8.9626   9.0054   9.0924
     9.1429   9.1785   9.2358   9.2550   9.2667

     the Fermi energy is     7.1466 ev

!    total energy              =   -1126.10066145 Ry
     Harris-Foulkes estimate   =   -1126.10066183 Ry
     estimated scf accuracy    <       0.00000050 Ry

     The total energy is the sum of the following terms:

     one-electron contribution =      42.88630985 Ry
     hartree contribution      =     148.43969226 Ry
     xc contribution           =    -444.84598407 Ry
     ewald contribution        =    -872.57631175 Ry
     smearing contrib. (-TS)   =      -0.00436773 Ry

     convergence has been achieved in  14 iterations

     Forces acting on atoms (cartesian axes, Ry/au):

     atom    1 type  1   force =     0.00011445    0.00566566    0.03385511
     atom    2 type  1   force =    -0.00901251    0.00400007    0.01530090
     atom    3 type  1   force =    -0.07498078    0.04277520    0.01960546
     atom    4 type  1   force =     0.01907471   -0.04221307   -0.01483515
     atom    5 type  1   force =    -0.00111985    0.03323347   -0.04554180
     atom    6 type  1   force =     0.02520772    0.00326633    0.02869763
     atom    7 type  1   force =    -0.01421590   -0.04247363    0.03279506
     atom    8 type  1   force =     0.02149432   -0.02026061    0.05730572
     atom    9 type  1   force =    -0.03937091   -0.02559915    0.00612054
     atom   10 type  1   force =     0.01693244    0.00257471    0.03725884
     atom   11 type  1   force =     0.00675233    0.01294189   -0.06652528
     atom   12 type  1   force =    -0.02321125   -0.03333233   -0.00267408
     atom   13 type  1   force =     0.00981732    0.02168361   -0.04055154
     atom   14 type  1   force =    -0.03342964   -0.03030725   -0.01693179
     atom   15 type  1   force =     0.02316556    0.00527125    0.01694591
     atom   16 type  1   force =     0.02904233   -0.00002588    0.03957104
     atom   17 type  2   force =    -0.00063909   -0.03212621   -0.00087847
     atom   18 type  2   force =     0.00426097    0.02786626    0.03000788
     atom   19 type  2   force =    -0.00379198    0.02480573    0.00440438
     atom   20 type  2   force =     0.00151248    0.00819422   -0.04973970
     atom   21 type  2   force =     0.00350585   -0.00372762    0.01416399
     atom   22 type  2   force =     0.00539047    0.00137069   -0.00458708
     atom   23 type  2   force =     0.00501399    0.02916012   -0.01217323
     atom   24 type  2   force =     0.02947288   -0.00787308    0.01522405
     atom   25 type  2   force =     0.00227673   -0.00366553   -0.00626238
     atom   26 type  2   force =     0.00106838    0.00642192   -0.00401460
     atom   27 type  2   force =    -0.00503430    0.00645891   -0.01587165
     atom   28 type  2   force =    -0.02816261    0.00268124   -0.04010663
     atom   29 type  2   force =    -0.00108494    0.03898586    0.00813094
     atom   30 type  2   force =     0.02227795   -0.01744584    0.00145948
     atom   31 type  2   force =    -0.00419329   -0.00334789   -0.02687624
     atom   32 type  2   force =    -0.00568292    0.01579910   -0.03335355
     atom   33 type  2   force =    -0.00008295    0.00283379   -0.02478265
     atom   34 type  2   force =     0.00942710   -0.02257740   -0.02069106
     atom   35 type  2   force =    -0.00063577   -0.00311764   -0.00901879
     atom   36 type  2   force =    -0.00752483    0.01939022    0.00266160
     atom   37 type  2   force =    -0.00052864   -0.00321243    0.01549054
     atom   38 type  2   force =    -0.00042198   -0.00715075    0.02761922
     atom   39 type  2   force =    -0.02319537   -0.02064205   -0.02262550
     atom   40 type  2   force =     0.01542101   -0.00300955    0.00706285
     atom   41 type  2   force =     0.02259348   -0.00641447   -0.01269048
     atom   42 type  2   force =     0.00527041   -0.00548630    0.00354735
     atom   43 type  2   force =    -0.01713045   -0.00926997    0.01920561
     atom   44 type  2   force =     0.01310560    0.02334773   -0.02491977
     atom   45 type  2   force =    -0.02426662   -0.00100203    0.05382147
     atom   46 type  2   force =     0.01133919    0.00382344    0.00221033
     atom   47 type  2   force =     0.01569426   -0.01140460   -0.00596890
     atom   48 type  2   force =    -0.00151536    0.01313387    0.00915443

     Total force =     0.263764     Total SCF correction =     0.001708

     General routines

     Parallel routines

   This run was terminated on:  22:43: 3  24Dec2021

   JOB DONE.