     Program PWSCF v.6.4 starts on 24Dec2021 at 21: 5:22

     R & G space division:  proc/nbgrp/npool/nimage =      40
     Waiting for input...
     Reading input from standard input
Warning: card    &IONS ignored
Warning: card      ION_DYNAMICS = 'BFGS' ignored
Warning: card   / ignored
Warning: card    &CELL ignored
Warning: card      CELL_DYNAMICS = 'BFGS', ignored
Warning: card    / ignored

     Current dimensions of program PWSCF are:
     Max number of different atomic species (ntypx) = 10
     Max number of k-points (npk) =  40000
     Max angular momentum in pseudopotentials (lmaxx) =  3

     bravais-lattice index     =            0
     lattice parameter (alat)  =      18.9380  a.u.
     unit-cell volume          =    6936.7257 (a.u.)^3
     number of atoms/cell      =           48
     number of atomic types    =            2
     number of electrons       =       288.00
     number of Kohn-Sham states=          173
     kinetic-energy cutoff     =      45.0000  Ry
     charge density cutoff     =     360.0000  Ry
     convergence threshold     =      1.0E-06
     mixing beta               =       0.7000
     number of iterations used =            8  local-TF  mixing
     Exchange-correlation      = SLA PW GGX GGC ( 1  4  2  2 0 0)

     celldm(1)=  18.938034  celldm(2)=   0.000000  celldm(3)=   0.000000
     celldm(4)=   0.000000  celldm(5)=   0.000000  celldm(6)=   0.000000

     crystal axes: (cart. coord. in units of alat)
               a(1) = (   1.000000   0.000000   0.000000 )
               a(2) = (   0.102372   1.028444   0.000000 )
               a(3) = (   0.064389   0.093078   0.993046 )

     reciprocal axes: (cart. coord. in units 2 pi/alat)
               b(1) = (  1.000000 -0.099540 -0.055510 )
               b(2) = (  0.000000  0.972343 -0.091137 )
               b(3) = (  0.000000  0.000000  1.007003 )

     PseudoPot. # 1 for Mo read from file:
     ~/pseudo/Mo.pw91-n-van.UPF
     MD5 check sum: Not computed, couldn't open file
     Pseudo is Ultrasoft + core correction, Zval =  6.0
     Generated by new atomic code, or converted to UPF format
     Using radial grid of  965 points,  3 beta functions with:
                l(1) =   1
                l(2) =   2
                l(3) =   2
     Q(r) pseudized with  8 coefficients,  rinner =    1.000   1.000   1.000
                                                       1.200   1.200

     PseudoPot. # 2 for S  read from file:
     ~/pseudo/S.pw91-van_ak.UPF
     MD5 check sum: Not computed, couldn't open file
     Pseudo is Ultrasoft, Zval =  6.0
     Generated by new atomic code, or converted to UPF format
     Using radial grid of  811 points,  6 beta functions with:
                l(1) =   0
                l(2) =   0
                l(3) =   1
                l(4) =   1
                l(5) =   2
                l(6) =   2
     Q(r) pseudized with  8 coefficients,  rinner =    1.100   1.100   1.100
                                                       1.100   1.100

     atomic species   valence    mass     pseudopotential
        Mo             6.00    95.50000     Mo( 1.00)
        S              6.00    32.06500     S ( 1.00)

     No symmetry found

   Cartesian axes

     site n.     atom                  positions (alat units)
         1           Mo  tau(   1) = (   0.7643297   0.7458592   0.8502629  )
         2           Mo  tau(   2) = (   0.9864033   0.7299382   0.6696326  )
         3           Mo  tau(   3) = (   0.9885657   0.9528249   0.8492250  )
         4           Mo  tau(   4) = (   0.7760155   0.9451685   0.6466402  )
         5           Mo  tau(   5) = (   0.6505393   0.1515416   0.3281085  )
         6           Mo  tau(   6) = (   0.8299563   0.1099904   0.1150216  )
         7           Mo  tau(   7) = (   0.8507704   0.3466944   0.2812490  )
         8           Mo  tau(   8) = (   0.6478985   0.3612565   0.1035777  )
         9           Mo  tau(   9) = (   0.2802132   0.2991485   0.9033100  )
        10           Mo  tau(  10) = (   0.4664084   0.2563700   0.6917892  )
        11           Mo  tau(  11) = (   0.4764043   0.4902708   0.8697642  )
        12           Mo  tau(  12) = (   0.2672555   0.4770810   0.6770983  )
        13           Mo  tau(  13) = (   0.2821422   0.7179969   0.3680044  )
        14           Mo  tau(  14) = (   0.4380303   0.6804138   0.1278108  )
        15           Mo  tau(  15) = (   0.4918980   0.9308675   0.2899742  )
        16           Mo  tau(  16) = (   0.2245154   0.8843103   0.1412113  )
        17           S   tau(  17) = (   0.9976713   0.7195238   0.9011008  )
        18           S   tau(  18) = (   0.2399950   0.5290790   0.9119905  )
        19           S   tau(  19) = (   0.7552713   0.7101270   0.6111476  )
        20           S   tau(  20) = (   0.6602454   0.1612075   0.5763469  )
        21           S   tau(  21) = (   0.8964352   0.1709052   0.8611531  )
        22           S   tau(  22) = (   1.0151149   0.4871392   0.6535220  )
        23           S   tau(  23) = (   0.7265169   0.4965034   0.8531419  )
        24           S   tau(  24) = (   0.5035108   0.4834288   0.6278788  )
        25           S   tau(  25) = (   0.8940488   0.1299994   0.3479096  )
        26           S   tau(  26) = (   0.2636000   0.9539520   0.3669030  )
        27           S   tau(  27) = (   0.7128152   1.0264148   0.1440272  )
        28           S   tau(  28) = (   0.6707621   0.6041383   0.0972504  )
        29           S   tau(  29) = (   0.9470880   0.5503473   0.3520457  )
        30           S   tau(  30) = (   0.9746552   0.8925180   0.1156613  )
        31           S   tau(  31) = (   0.7203226   0.9404073   0.4035250  )
        32           S   tau(  32) = (   0.4439020   0.9139387   0.0608356  )
        33           S   tau(  33) = (   0.5117836   0.2580100   0.9221460  )
        34           S   tau(  34) = (   0.7554192   0.9817464   0.8817193  )
        35           S   tau(  35) = (   0.2295910   0.2377485   0.6801282  )
        36           S   tau(  36) = (   0.2344301   0.7187973   0.6137818  )
        37           S   tau(  37) = (   0.5142961   0.7354720   0.8728343  )
        38           S   tau(  38) = (   0.5406039   1.0273777   0.6725282  )
        39           S   tau(  39) = (   0.2357578   0.9512144   0.8830940  )
        40           S   tau(  40) = (   1.0110543   0.9602029   0.6126809  )
        41           S   tau(  41) = (   0.5099730   0.7017038   0.3602123  )
        42           S   tau(  42) = (   0.6345544   0.3929306   0.3459756  )
        43           S   tau(  43) = (   0.1959294   0.6490766   0.1557217  )
        44           S   tau(  44) = (   0.0810721   0.0954648   0.0782400  )
        45           S   tau(  45) = (   0.3987530   0.1428363   0.3391611  )
        46           S   tau(  46) = (   0.4137181   0.4303409   0.1278043  )
        47           S   tau(  47) = (   0.2481620   0.4756478   0.4238673  )
        48           S   tau(  48) = (   0.8879436   0.3391097   0.0553749  )

     number of k points=     8  Marzari-Vanderbilt smearing, width (Ry)=  0.0200
                       cart. coord. in units 2pi/alat
        k(    1) = (   0.0000000   0.0000000   0.0000000), wk =   0.2500000
        k(    2) = (   0.0000000   0.0000000  -0.5035015), wk =   0.2500000
        k(    3) = (   0.0000000  -0.4861714   0.0455686), wk =   0.2500000
        k(    4) = (   0.0000000  -0.4861714  -0.4579329), wk =   0.2500000
        k(    5) = (  -0.5000000   0.0497702   0.0277552), wk =   0.2500000
        k(    6) = (  -0.5000000   0.0497702  -0.4757463), wk =   0.2500000
        k(    7) = (  -0.5000000  -0.4364012   0.0733238), wk =   0.2500000
        k(    8) = (  -0.5000000  -0.4364012  -0.4301777), wk =   0.2500000

     Initial potential from superposition of free atoms

     starting charge  287.97477, renormalised to  288.00000
     Starting wfcs are  272 randomized atomic wfcs

     Self-consistent Calculation

     iteration #  1     ecut=    45.00 Ry     beta= 0.70
     Davidson diagonalization with overlap
     ethr =  1.00E-02,  avg # of iterations =  2.0

     total energy              =   -1123.44985856 Ry
     Harris-Foulkes estimate   =   -1127.79857948 Ry
     estimated scf accuracy    <      11.75926940 Ry

[...]

     iteration #  6     ecut=    45.00 Ry     beta= 0.70
     Davidson diagonalization with overlap
     c_bands:  1 eigenvalues not converged
     ethr =  1.67E-05,  avg # of iterations = 11.4

[...]

     iteration #  8     ecut=    45.00 Ry     beta= 0.70
     Davidson diagonalization with overlap
     c_bands:  1 eigenvalues not converged
     ethr =  2.39E-06,  avg # of iterations = 11.8

[...]

     total energy              =   -1125.79460404 Ry
     Harris-Foulkes estimate   =   -1125.79460439 Ry
     estimated scf accuracy    <       0.00000297 Ry

     iteration # 14     ecut=    45.00 Ry     beta= 0.70
     Davidson diagonalization with overlap
     ethr =  8.74E-10,  avg # of iterations =  1.0

     End of self-consistent calculation

          k = 0.0000 0.0000 0.0000 ( 35407 PWs)   bands (ev):

    -7.9823  -7.4489  -7.2725  -7.2342  -7.1863  -7.1441  -7.0868  -6.8938
    -6.8613  -6.8357  -6.7641  -6.7384  -6.7328  -6.6859  -6.6708  -6.6516
    -6.5019  -6.4576  -6.3460  -6.1629  -6.0946  -5.9568  -5.9452  -5.8962
    -5.7567  -5.6236  -5.4737  -5.4318  -5.3359  -5.3184  -5.2629  -5.0825
     0.3094   0.4032   0.4593   0.5065   0.5749   0.6453   0.7756   0.8613
     0.9221   1.1016   1.1156   1.1311   1.1994   1.2478   1.2520   1.3404
     1.3830   1.4412   1.4597   1.5500   1.5622   1.6679   1.7211   1.7312
     1.7673   1.8231   1.8471   1.8888   1.9584   1.9978   2.1147   2.1277
     2.1918   2.2157   2.2823   2.2942   2.3343   2.3938   2.4153   2.4437
     2.4936   2.5370   2.5618   2.5952   2.6179   2.6528   2.6887   2.7268
     2.7476   2.7906   2.8022   2.8625   2.8855   2.9122   2.9263   3.0095
     3.0321   3.0591   3.0993   3.1569   3.3022   3.3047   3.3777   3.4379
     3.4824   3.5411   3.5970   3.6172   3.6762   3.7740   3.8246   3.8344
     3.9100   4.0022   4.0803   4.1098   4.1574   4.2178   4.3307   4.3512
     4.4089   4.4566   4.5145   4.5496   4.6750   4.6972   4.7792   4.8498
     4.9380   4.9839   5.0342   5.1041   5.1616   5.1837   5.2371   5.2463
     5.3304   5.4108   5.4454   5.5443   5.5609   5.6105   5.6398   5.7245
     5.8042   5.8469   5.8831   5.9462   6.0274   6.0987   6.1220   6.2143
     6.2274   6.3385   6.3620   6.3802   6.4408   6.5383   6.5602   6.6033
     6.8792   7.0944   7.1701   7.3845   7.4390   7.5875   7.6023   7.6484
     7.7510   7.7899   7.8395   7.8535   7.9263   7.9891   8.0471   8.1467
     8.1830   8.2392   8.2620   8.2938   8.3412

[...]

          k = 0.0000-0.4862-0.4579 ( 35378 PWs)   bands (ev):

[...]

          k =-0.5000 0.0498 0.0278 ( 35350 PWs)   bands (ev):

[...]

          k =-0.5000-0.4364-0.4302 ( 35388 PWs)   bands (ev):

    -7.6747  -7.6034  -7.4560  -7.3702  -7.2463  -7.1560  -7.0627  -6.9357
    -6.9101  -6.8357  -6.7621  -6.7433  -6.7215  -6.7082  -6.6272  -6.6013
    -6.4112  -6.3713  -6.3030  -6.1734  -6.0885  -5.9688  -5.9327  -5.8717
    -5.7387  -5.6050  -5.4879  -5.4384  -5.3284  -5.3174  -5.2526  -5.0821
     0.2001   0.5519   0.6338   0.6561   0.6814   0.7220   0.8037   0.8232
     0.9314   0.9854   1.0303   1.0720   1.1249   1.1863   1.2032   1.2203
     1.2572   1.2871   1.3890   1.4815   1.5659   1.5713   1.5998   1.6545
     1.7319   1.7752   1.8251   1.9355   1.9813   2.0382   2.0727   2.0888
     2.1209   2.1726   2.2237   2.2793   2.3005   2.3584   2.3667   2.4093
     2.4334   2.4841   2.5484   2.5671   2.6165   2.6520   2.6695   2.7252
     2.7809   2.8102   2.8340   2.8756   2.9340   2.9479   2.9639   3.0424
     3.1032   3.1128   3.2281   3.3129   3.3582   3.4267   3.4814   3.5161
     3.5708   3.6078   3.7356   3.7394   3.7805   3.8282   3.8723   3.9010
     4.0107   4.0326   4.0734   4.1403   4.2327   4.2785   4.3017   4.3463
     4.3865   4.4334   4.5464   4.5902   4.6526   4.6956   4.7636   4.8253
     4.8363   4.9372   5.0056   5.1019   5.1577   5.1842   5.2063   5.3043
     5.3879   5.4137   5.4500   5.5356   5.5668   5.5970   5.7038   5.7356
     5.8162   5.8552   5.8896   5.9511   6.0191   6.0300   6.1122   6.1307
     6.1780   6.2658   6.3271   6.3928   6.4802   6.5164   6.5995   6.6599
     6.8498   6.9703   7.1366   7.2583   7.3200   7.4461   7.6559   7.7221
     7.7902   7.8019   7.8842   7.9160   7.9852   8.0399   8.0685   8.1035
     8.1610   8.1876   8.2662   8.2813   8.3108

     the Fermi energy is     6.1896 ev

!    total energy              =   -1125.79460387 Ry
     Harris-Foulkes estimate   =   -1125.79460419 Ry
     estimated scf accuracy    <       0.00000046 Ry

     The total energy is the sum of the following terms:

     one-electron contribution =     -69.97843065 Ry
     hartree contribution      =     195.82802879 Ry
     xc contribution           =    -444.32466218 Ry
     ewald contribution        =    -807.31801090 Ry
     smearing contrib. (-TS)   =      -0.00152893 Ry

     convergence has been achieved in  14 iterations

     Forces acting on atoms (cartesian axes, Ry/au):

     atom    1 type  1   force =     0.01044043   -0.00947194   -0.01042504
     atom    2 type  1   force =    -0.00295543   -0.04221067   -0.00743210
     atom    3 type  1   force =     0.05339692    0.04492811    0.01476977
     atom    4 type  1   force =    -0.02823002   -0.01190682   -0.01313084
     atom    5 type  1   force =    -0.05513602   -0.02159917   -0.01239636
     atom    6 type  1   force =    -0.01458859   -0.03534070   -0.05622284
     atom    7 type  1   force =     0.07519508    0.08275044    0.06894929
     atom    8 type  1   force =    -0.03417190   -0.02081569   -0.02061988
     atom    9 type  1   force =    -0.03172365   -0.01427186   -0.00615297
     atom   10 type  1   force =    -0.02109576   -0.04106708   -0.01001011
     atom   11 type  1   force =     0.02809869    0.00901285    0.01567230
     atom   12 type  1   force =    -0.02728177   -0.00958660   -0.02677101
     atom   13 type  1   force =    -0.02612922   -0.06106556   -0.00683426
     atom   14 type  1   force =    -0.03117011    0.00641332    0.01851364
     atom   15 type  1   force =    -0.01404976    0.03614407    0.00996327
     atom   16 type  1   force =    -0.00923066   -0.03733178   -0.03359596
     atom   17 type  2   force =    -0.00149446   -0.01932857    0.00811685
     atom   18 type  2   force =     0.00737279   -0.00047364   -0.01652272
     atom   19 type  2   force =    -0.00785432   -0.00267514    0.00876336
     atom   20 type  2   force =     0.01041438    0.00526120    0.01900428
     atom   21 type  2   force =    -0.00397911   -0.00579543    0.01972002
     atom   22 type  2   force =     0.00217310    0.02773230   -0.00129254
     atom   23 type  2   force =    -0.00429977    0.00260877    0.00410496
     atom   24 type  2   force =    -0.00854027    0.00032041   -0.00191875
     atom   25 type  2   force =     0.01121910   -0.00369436    0.00867166
     atom   26 type  2   force =     0.00277345    0.02839445    0.01788334
     atom   27 type  2   force =     0.02706623    0.05243581    0.00083754
     atom   28 type  2   force =     0.02119912    0.01922797    0.01434294
     atom   29 type  2   force =    -0.00699935   -0.05371007   -0.00282293
     atom   30 type  2   force =     0.00588015    0.00567962    0.00192928
     atom   31 type  2   force =     0.00717872    0.00333920   -0.00678539
     atom   32 type  2   force =     0.01602902   -0.00101039   -0.00166022
     atom   33 type  2   force =     0.00025772   -0.01653275    0.00315768
     atom   34 type  2   force =    -0.00536843   -0.00648752    0.00936536
     atom   35 type  2   force =     0.00029895    0.00238204    0.00767433
     atom   36 type  2   force =    -0.00506529   -0.00049723    0.00611179
     atom   37 type  2   force =    -0.01007395    0.00507816   -0.00234518
     atom   38 type  2   force =     0.01159630    0.02988437   -0.00204152
     atom   39 type  2   force =    -0.01642268    0.00504035    0.00778291
     atom   40 type  2   force =     0.01728131    0.02716418   -0.00967444
     atom   41 type  2   force =     0.02456210   -0.01352271   -0.00449828
     atom   42 type  2   force =    -0.01383063   -0.00334503   -0.01430422
     atom   43 type  2   force =     0.02034445    0.00886650    0.00945508
     atom   44 type  2   force =     0.02057636    0.01693604   -0.00708190
     atom   45 type  2   force =     0.01043250   -0.01679342    0.00640110
     atom   46 type  2   force =     0.01045909   -0.00985868   -0.00299335
     atom   47 type  2   force =    -0.00133567    0.03603989    0.00324725
     atom   48 type  2   force =    -0.01321912    0.00275281   -0.00690520

     Total force =     0.268399     Total SCF correction =     0.001324

     General routines

     Parallel routines

   This run was terminated on:  21: 9:51  24Dec2021

   JOB DONE.