     Program PWSCF v.6.4 starts on 19Nov2021 at 21:52:58

     R & G space division:  proc/nbgrp/npool/nimage =      40
     Waiting for input...
     Reading input from standard input
Warning: card    &IONS ignored
Warning: card      ION_DYNAMICS = 'BFGS' ignored
Warning: card   / ignored
Warning: card    &CELL ignored
Warning: card      CELL_DYNAMICS = 'BFGS', ignored
Warning: card    / ignored

     Current dimensions of program PWSCF are:
     Max number of different atomic species (ntypx) = 10
     Max number of k-points (npk) =  40000
     Max angular momentum in pseudopotentials (lmaxx) =  3

     bravais-lattice index     =            0
     lattice parameter (alat)  =      11.9894  a.u.
     unit-cell volume          =    6837.1614 (a.u.)^3
     number of atoms/cell      =           36
     number of atomic types    =            2
     number of electrons       =       216.00
     number of Kohn-Sham states=          130
     kinetic-energy cutoff     =      45.0000  Ry
     charge density cutoff     =     360.0000  Ry
     convergence threshold     =      1.0E-06
     mixing beta               =       0.7000
     number of iterations used =            8  local-TF  mixing
     Exchange-correlation      = SLA PW GGX GGC ( 1  4  2  2 0 0)

     celldm(1)=  11.989414  celldm(2)=   0.000000  celldm(3)=   0.000000
     celldm(4)=   0.000000  celldm(5)=   0.000000  celldm(6)=   0.000000

     crystal axes: (cart. coord. in units of alat)
               a(1) = (   1.000000   0.000000   0.000000 )
               a(2) = (   0.032334   1.754536   0.000000 )
               a(3) = (   0.494628   0.007869   2.261100 )

     reciprocal axes: (cart. coord. in units 2 pi/alat)
               b(1) = (  1.000000 -0.018429 -0.218691 )
               b(2) = (  0.000000  0.569951 -0.001983 )
               b(3) = (  0.000000  0.000000  0.442263 )

     PseudoPot. # 1 for Mo read from file:
     ~/pseudo/Mo.pw91-n-van.UPF
     MD5 check sum: Not computed, couldn't open file
     Pseudo is Ultrasoft + core correction, Zval =  6.0
     Generated by new atomic code, or converted to UPF format
     Using radial grid of  965 points,  3 beta functions with:
                l(1) =   1
                l(2) =   2
                l(3) =   2
     Q(r) pseudized with  8 coefficients,  rinner =    1.000   1.000   1.000
                                                       1.200   1.200

     PseudoPot. # 2 for S  read from file:
     ~/pseudo/S.pw91-van_ak.UPF
     MD5 check sum: Not computed, couldn't open file
     Pseudo is Ultrasoft, Zval =  6.0
     Generated by new atomic code, or converted to UPF format
     Using radial grid of  811 points,  6 beta functions with:
                l(1) =   0
                l(2) =   0
                l(3) =   1
                l(4) =   1
                l(5) =   2
                l(6) =   2
     Q(r) pseudized with  8 coefficients,  rinner =    1.100   1.100   1.100
                                                       1.100   1.100

     atomic species   valence    mass     pseudopotential
        Mo             6.00    95.50000     Mo( 1.00)
        S              6.00    32.06500     S ( 1.00)

     No symmetry found

   Cartesian axes

     site n.     atom                  positions (alat units)
         1           Mo  tau(   1) = (   1.0425883   1.4585922   1.5068244  )
         2           Mo  tau(   2) = (   1.2844798   1.0193161   1.5080775  )
         3           Mo  tau(   3) = (   0.5436983   1.4590776   1.5060381  )
         4           Mo  tau(   4) = (   0.7853870   1.0198551   1.5083713  )
         5           Mo  tau(   5) = (   0.5270383   0.5817924   1.5086067  )
         6           Mo  tau(   6) = (   1.0276639   0.5822976   1.5077851  )
         7           Mo  tau(   7) = (   0.7689027   0.1426686   1.5063611  )
         8           Mo  tau(   8) = (   1.2691788   0.1428701   1.5057718  )
         9           Mo  tau(   9) = (   0.4347011   0.6808216   0.3513092  )
        10           Mo  tau(  10) = (   0.9211254   0.6587632   0.4150494  )
        11           Mo  tau(  11) = (   0.7879882   1.0828574   0.3937119  )
        12           Mo  tau(  12) = (   0.3047977   1.0909881   0.4615138  )
        13           S   tau(  13) = (   1.2927940   1.3117087   1.7567822  )
        14           S   tau(  14) = (   1.0506662   1.7502122   1.7569773  )
        15           S   tau(  15) = (   0.7917408   1.3115038   1.7582671  )
        16           S   tau(  16) = (   0.5503195   1.7500504   1.7570529  )
        17           S   tau(  17) = (   0.5699797   1.3036336   0.5838722  )
        18           S   tau(  18) = (   0.9722571   0.9398715   0.6810067  )
        19           S   tau(  19) = (   1.2914634   1.3112028   1.2580996  )
        20           S   tau(  20) = (   1.0172773  -0.0046591   1.2551109  )
        21           S   tau(  21) = (   0.7918549   1.3104425   1.2559554  )
        22           S   tau(  22) = (   0.5500229   1.7505354   1.2542726  )
        23           S   tau(  23) = (   0.7372092   0.8005981   0.1226506  )
        24           S   tau(  24) = (   1.0524498   1.3226489   0.3282365  )
        25           S   tau(  25) = (   0.5338911   0.8728360   1.7594043  )
        26           S   tau(  26) = (   1.0341529   0.8724926   1.7598891  )
        27           S   tau(  27) = (   0.5337728   0.8724852   1.2580509  )
        28           S   tau(  28) = (   1.0329302   0.8734955   1.2552684  )
        29           S   tau(  29) = (   0.7753575   0.4350888   1.2575439  )
        30           S   tau(  30) = (   0.2765404   0.4355056   1.2564950  )
        31           S   tau(  31) = (   0.2475305   0.7604965   0.6609820  )
        32           S   tau(  32) = (   0.6555315   0.4252209   0.4909565  )
        33           S   tau(  33) = (   0.7768303   0.4337196   1.7580887  )
        34           S   tau(  34) = (   1.2760935   0.4333704   1.7580269  )
        35           S   tau(  35) = (   0.1703625   0.4674582   0.2261118  )
        36           S   tau(  36) = (   0.4868304   1.0117693   0.1453378  )

     number of k points=     4  Marzari-Vanderbilt smearing, width (Ry)=  0.0200
                       cart. coord. in units 2pi/alat
        k(    1) = (   0.0000000   0.0000000   0.0000000), wk =   0.3333333
        k(    2) = (   0.0000000  -0.2849757   0.0009917), wk =   0.3333333
        k(    3) = (   0.3333333  -0.0061429  -0.0728971), wk =   0.6666667
        k(    4) = (   0.3333333  -0.2911186  -0.0719054), wk =   0.6666667

     Initial potential from superposition of free atoms

     starting charge  215.98107, renormalised to  216.00000
     Starting wfcs are  204 randomized atomic wfcs

     Self-consistent Calculation

     iteration #  1     ecut=    45.00 Ry     beta= 0.70
     Davidson diagonalization with overlap
     ethr =  1.00E-02,  avg # of iterations =  2.0

     total energy              =    -843.64855463 Ry
     Harris-Foulkes estimate   =    -846.06820489 Ry
     estimated scf accuracy    <       6.23443161 Ry

[...]

     iteration #  6     ecut=    45.00 Ry     beta= 0.70
     Davidson diagonalization with overlap
     c_bands:  2 eigenvalues not converged
     c_bands:  2 eigenvalues not converged
     ethr =  1.25E-05,  avg # of iterations = 13.2

[...]

     iteration #  7     ecut=    45.00 Ry     beta= 0.70
     Davidson diagonalization with overlap
     c_bands:  2 eigenvalues not converged
     ethr =  1.64E-06,  avg # of iterations = 12.5

[...]

     total energy              =    -844.84890501 Ry
     Harris-Foulkes estimate   =    -844.84890586 Ry
     estimated scf accuracy    <       0.00000298 Ry

     iteration # 19     ecut=    45.00 Ry     beta= 0.70
     Davidson diagonalization with overlap
     ethr =  1.38E-09,  avg # of iterations =  3.8

     End of self-consistent calculation

          k = 0.0000 0.0000 0.0000 ( 34879 PWs)   bands (ev):

   -12.4557 -12.1863 -11.0555 -10.2807 -10.2721  -9.8882  -9.5167  -9.5128
    -9.2784  -9.2701  -9.2626  -9.2541  -9.1975  -9.0608  -9.0511  -8.9904
    -8.9855  -8.9549  -8.9366  -8.8570  -8.5312  -8.5163  -8.3833  -8.2305
    -2.7105  -2.7076  -2.6956  -2.6665  -2.5758  -2.4831  -2.0646  -2.0576
    -2.0505  -2.0090  -1.9355  -1.8929  -1.8455  -1.8421  -1.8261  -1.7953
    -1.7596  -1.7537  -1.5931  -1.0381  -1.0321  -1.0203  -0.8103  -0.7836
    -0.7009  -0.5885  -0.5741  -0.5308  -0.5155  -0.4836  -0.2544  -0.2513
    -0.2410  -0.2182  -0.1033  -0.0150  -0.0125   0.0144   0.1394   0.1643
     0.1719   0.2682   0.2943   0.3632   0.4572   0.4872   0.5902   0.6844
     0.6867   0.6909   0.7222   1.0002   1.0379   1.0489   1.1356   1.2105
     1.2324   1.3043   1.3179   1.3625   1.3786   1.5017   1.6012   1.6134
     1.6361   1.6806   1.8982   1.9787   2.1765   2.1801   2.1867   2.2003
     2.2755   2.2872   2.4005   2.4506   2.4808   2.8023   2.8555   3.1894
     3.3164   3.4631   3.9705   4.0871   4.2223   4.2630   4.3630   4.4322
     4.7165   4.9944   5.0126   5.0658   5.0697   5.0736   5.0920   5.1141
     5.2828   5.3101   5.5400   5.5831   5.5951   5.6049   5.6277   5.7067
     5.7119   5.7181

[...]

          k = 0.3333-0.2911-0.0719 ( 34844 PWs)   bands (ev):

   -12.4030 -12.2271 -10.5806 -10.5563  -9.9069  -9.8683  -9.6614  -9.6325
    -9.4577  -9.4265  -9.3353  -9.2847  -9.1799  -9.1322  -9.1212  -9.0900
    -8.9724  -8.9140  -8.8360  -8.7783  -8.6268  -8.5999  -8.3619  -8.2708
    -2.6622  -2.6420  -2.1617  -2.1156  -2.1059  -2.0894  -2.0738  -2.0351
    -2.0307  -2.0161  -2.0084  -1.9706  -1.9324  -1.7759  -1.7380  -1.5951
    -1.5702  -1.5322  -0.9971  -0.9601  -0.8842  -0.8006  -0.7811  -0.7500
    -0.7396  -0.7244  -0.6136  -0.4650  -0.3959  -0.3744  -0.3338  -0.2247
    -0.1944  -0.1907  -0.1723  -0.1061  -0.0149   0.0437   0.0988   0.1129
     0.1268   0.2030   0.2310   0.2873   0.2926   0.3152   0.3954   0.4782
     0.6728   0.6908   0.7351   0.7727   0.7852   0.8857   0.8918   0.9047
     1.0461   1.0727   1.1262   1.2722   1.3573   1.3803   1.4053   1.4457
     1.4640   1.4846   1.5240   1.6110   1.8980   1.9395   2.0135   2.0875
     2.3422   2.4383   2.4806   2.5364   2.6542   2.6864   2.7114   3.0097
     3.1044   3.3890   3.9176   4.0836   4.1239   4.4353   4.7374   4.7667
     4.9472   4.9690   4.9800   5.0005   5.0294   5.0419   5.0636   5.0718
     5.1005   5.1520   5.2279   5.2787   5.3386   5.3646   5.3815   5.4501
     5.4840   5.5454

     the Fermi energy is     4.1477 ev

!    total energy              =    -844.84890523 Ry
     Harris-Foulkes estimate   =    -844.84890559 Ry
     estimated scf accuracy    <       0.00000042 Ry

     The total energy is the sum of the following terms:

     one-electron contribution =    -845.23013097 Ry
     hartree contribution      =     520.03608095 Ry
     xc contribution           =    -334.12648544 Ry
     ewald contribution        =    -185.51405943 Ry
     smearing contrib. (-TS)   =      -0.01431034 Ry

     convergence has been achieved in  19 iterations

     Forces acting on atoms (cartesian axes, Ry/au):

     atom    1 type  1   force =     0.00304102   -0.00079077    0.00145035
     atom    2 type  1   force =     0.00298322    0.00010890   -0.00062037
     atom    3 type  1   force =     0.00188632   -0.00239736    0.00225304
     atom    4 type  1   force =     0.00173589   -0.00137455   -0.00182279
     atom    5 type  1   force =     0.00398734   -0.00360906   -0.00105252
     atom    6 type  1   force =     0.00028493   -0.00385251   -0.00228178
     atom    7 type  1   force =     0.00353173   -0.00120635    0.00029905
     atom    8 type  1   force =     0.00141430   -0.00226812    0.00122503
     atom    9 type  1   force =    -0.00616095    0.02371281   -0.07331968
     atom   10 type  1   force =     0.02126032    0.01358687    0.07800310
     atom   11 type  1   force =     0.01292348   -0.01085993   -0.08352957
     atom   12 type  1   force =    -0.02477675   -0.02777872    0.07174385
     atom   13 type  2   force =    -0.00318425    0.00180079    0.00017144
     atom   14 type  2   force =    -0.00201050    0.00097895   -0.00242717
     atom   15 type  2   force =    -0.00081769    0.00235611   -0.00321646
     atom   16 type  2   force =    -0.00183528    0.00130541   -0.00310000
     atom   17 type  2   force =    -0.02672716    0.02055214    0.04208435
     atom   18 type  2   force =    -0.10930179    0.04025558    0.01697015
     atom   19 type  2   force =    -0.00049350   -0.00055196   -0.00325227
     atom   20 type  2   force =    -0.00013990    0.00088673    0.00379707
     atom   21 type  2   force =    -0.00084690    0.00114405    0.00299869
     atom   22 type  2   force =    -0.00068727    0.00012448    0.00493821
     atom   23 type  2   force =     0.11319228   -0.06537701   -0.01658186
     atom   24 type  2   force =    -0.00259377    0.02293509   -0.03510723
     atom   25 type  2   force =    -0.00141155    0.00128981   -0.00287692
     atom   26 type  2   force =    -0.00181957    0.00143469   -0.00496871
     atom   27 type  2   force =    -0.00132808    0.00161687    0.00096202
     atom   28 type  2   force =     0.00126576   -0.00064516    0.00994438
     atom   29 type  2   force =     0.00055617    0.00093819    0.00071121
     atom   30 type  2   force =    -0.00209921    0.00030944    0.00282008
     atom   31 type  2   force =     0.11060440   -0.04149201    0.00547516
     atom   32 type  2   force =     0.02289803   -0.02453023    0.03408933
     atom   33 type  2   force =    -0.00181677    0.00055434   -0.00201668
     atom   34 type  2   force =    -0.00205773    0.00066492   -0.00180292
     atom   35 type  2   force =     0.00314983   -0.01735650   -0.04243138
     atom   36 type  2   force =    -0.11460639    0.06753406    0.00047177

     Total force =     0.314444     Total SCF correction =     0.001212

     General routines

     Parallel routines

   This run was terminated on:  21:55: 2  19Nov2021

   JOB DONE.