     Program PWSCF v.6.4 starts on  2Sep2021 at 19:54:46

     R & G space division:  proc/nbgrp/npool/nimage =      40
     Waiting for input...
     Reading input from standard input
Warning: card    &IONS ignored
Warning: card      ION_DYNAMICS = 'BFGS' ignored
Warning: card   / ignored
Warning: card    &CELL ignored
Warning: card      CELL_DYNAMICS = 'BFGS', ignored
Warning: card    / ignored

     Current dimensions of program PWSCF are:
     Max number of different atomic species (ntypx) = 10
     Max number of k-points (npk) =  40000
     Max angular momentum in pseudopotentials (lmaxx) =  3

     bravais-lattice index     =            0
     lattice parameter (alat)  =      12.2356  a.u.
     unit-cell volume          =    4049.1000 (a.u.)^3
     number of atoms/cell      =           24
     number of atomic types    =            2
     number of electrons       =       144.00
     number of Kohn-Sham states=           86
     kinetic-energy cutoff     =      45.0000  Ry
     charge density cutoff     =     360.0000  Ry
     convergence threshold     =      1.0E-06
     mixing beta               =       0.7000
     number of iterations used =            8  local-TF  mixing
     Exchange-correlation      = SLA PW GGX GGC ( 1  4  2  2 0 0)

     celldm(1)=  12.235591  celldm(2)=   0.000000  celldm(3)=   0.000000
     celldm(4)=   0.000000  celldm(5)=   0.000000  celldm(6)=   0.000000

     crystal axes: (cart. coord. in units of alat)
               a(1) = (   1.000000   0.000000   0.000000 )
               a(2) = (   0.493248   0.865048   0.000000 )
               a(3) = (   0.431656  -0.156694   2.555308 )

     reciprocal axes: (cart. coord. in units 2 pi/alat)
               b(1) = (  1.000000 -0.570197 -0.203890 )
               b(2) = (  0.000000  1.156005  0.070888 )
               b(3) = (  0.000000  0.000000  0.391342 )

     PseudoPot. # 1 for Mo read from file:
     ~/pseudo/Mo.pw91-n-van.UPF
     MD5 check sum: Not computed, couldn't open file
     Pseudo is Ultrasoft + core correction, Zval =  6.0
     Generated by new atomic code, or converted to UPF format
     Using radial grid of  965 points,  3 beta functions with:
                l(1) =   1
                l(2) =   2
                l(3) =   2
     Q(r) pseudized with  8 coefficients,  rinner =    1.000   1.000   1.000
                                                       1.200   1.200

     PseudoPot. # 2 for S  read from file:
     ~/pseudo/S.pw91-van_ak.UPF
     MD5 check sum: Not computed, couldn't open file
     Pseudo is Ultrasoft, Zval =  6.0
     Generated by new atomic code, or converted to UPF format
     Using radial grid of  811 points,  6 beta functions with:
                l(1) =   0
                l(2) =   0
                l(3) =   1
                l(4) =   1
                l(5) =   2
                l(6) =   2
     Q(r) pseudized with  8 coefficients,  rinner =    1.100   1.100   1.100
                                                       1.100   1.100

     atomic species   valence    mass     pseudopotential
        Mo             6.00    95.50000     Mo( 1.00)
        S              6.00    32.06500     S ( 1.00)

     No symmetry found

   Cartesian axes

     site n.     atom                  positions (alat units)
         1           Mo  tau(   1) = (   0.5324337  -0.1114417   2.0481904  )
         2           Mo  tau(   2) = (   1.2891728   0.3153593   2.0522225  )
         3           Mo  tau(   3) = (   1.0407334  -0.0978753   2.0529700  )
         4           Mo  tau(   4) = (   0.7919519   0.3209903   2.0483282  )
         5           Mo  tau(   5) = (   1.3947898   0.8000843   0.4888482  )
         6           Mo  tau(   6) = (   0.6539550   0.4077654   0.5097410  )
         7           Mo  tau(   7) = (   0.8724985   0.8018682   0.4918671  )
         8           Mo  tau(   8) = (   1.1273445   0.3895998   0.4988044  )
         9           S   tau(   9) = (   0.7812076   0.0325918   2.2912568  )
        10           S   tau(  10) = (   1.5403818   0.4681776   2.2877033  )
        11           S   tau(  11) = (   1.2932151   0.0317443   2.3040553  )
        12           S   tau(  12) = (   1.0380796   0.4664711   2.2921518  )
        13           S   tau(  13) = (   0.8780087   0.2355378   0.2561981  )
        14           S   tau(  14) = (   0.6344336   0.6578112   0.2360688  )
        15           S   tau(  15) = (   0.3926380   0.2446872   0.2745336  )
        16           S   tau(  16) = (   1.1324715   0.6780588   0.2478646  )
        17           S   tau(  17) = (   0.8943942   0.2265522   0.7392145  )
        18           S   tau(  18) = (   0.6280446   0.6869606   0.7656612  )
        19           S   tau(  19) = (   0.3890580   0.2369009   0.7234704  )
        20           S   tau(  20) = (   1.1321015   0.6761679   0.7338543  )
        21           S   tau(  21) = (   0.7866444   0.0313414   1.8071149  )
        22           S   tau(  22) = (   1.5378054   0.4744965   1.8167897  )
        23           S   tau(  23) = (   1.2892899   0.0350258   1.8033772  )
        24           S   tau(  24) = (   1.0432107   0.4638005   1.8059437  )

     number of k points=     5  Marzari-Vanderbilt smearing, width (Ry)=  0.0200
                       cart. coord. in units 2pi/alat
        k(    1) = (   0.0000000   0.0000000   0.0000000), wk =   0.2222222
        k(    2) = (   0.0000000   0.3853349   0.0236292), wk =   0.4444444
        k(    3) = (   0.3333333  -0.1900656  -0.0679635), wk =   0.4444444
        k(    4) = (   0.3333333   0.1952694  -0.0443343), wk =   0.4444444
        k(    5) = (   0.3333333  -0.5754005  -0.0915927), wk =   0.4444444

     Initial potential from superposition of free atoms

     starting charge  143.98738, renormalised to  144.00000
     Starting wfcs are  136 randomized atomic wfcs

     Self-consistent Calculation

     iteration #  1     ecut=    45.00 Ry     beta= 0.70
     Davidson diagonalization with overlap
     ethr =  1.00E-02,  avg # of iterations =  2.0

     total energy              =    -562.69939169 Ry
     Harris-Foulkes estimate   =    -564.48750302 Ry
     estimated scf accuracy    <       4.58826399 Ry

[...]

     iteration #  6     ecut=    45.00 Ry     beta= 0.70
     Davidson diagonalization with overlap
     c_bands:  1 eigenvalues not converged
     c_bands:  1 eigenvalues not converged
     c_bands:  1 eigenvalues not converged
     ethr =  2.82E-06,  avg # of iterations = 17.2

[...]

     total energy              =    -563.59265085 Ry
     Harris-Foulkes estimate   =    -563.59265167 Ry
     estimated scf accuracy    <       0.00000358 Ry

     iteration # 16     ecut=    45.00 Ry     beta= 0.70
     Davidson diagonalization with overlap
     ethr =  2.49E-09,  avg # of iterations =  3.6

     End of self-consistent calculation

          k = 0.0000 0.0000 0.0000 ( 20589 PWs)   bands (ev):

    -9.8640  -9.7357  -8.6900  -8.5135  -8.2995  -8.1814  -8.1537  -8.1034
    -8.0373  -8.0027  -7.9649  -7.8599  -7.8004  -7.7501  -7.6784  -7.6050
    -1.5687  -1.4673  -1.4405  -1.4193  -1.3898  -1.3506  -1.3366  -1.0813
    -0.6298  -0.5417  -0.4621  -0.4335  -0.4121  -0.3759  -0.0137   0.0568
     0.0909   0.2523   0.3388   0.4029   1.0075   1.0439   1.0597   1.0904
     1.1551   1.1735   1.4524   1.5603   1.5884   1.6217   1.6332   1.9688
     2.1055   2.3354   2.4178   2.5359   2.5982   2.6681   2.6845   2.7728
     2.8695   2.9259   2.9744   3.0696   3.1317   3.1617   3.2761   3.3183
     3.3544   3.4993   3.5628   3.6478   3.6878   3.7681   4.0152   4.5262
     5.8549   5.9122   6.0922   6.1438   6.2605   6.2959   6.3758   6.4850
     6.5283   6.6426   6.6636   6.6686   6.7210   6.7878

[...]

          k = 0.3333-0.5754-0.0916 ( 20678 PWs)   bands (ev):

    -8.9821  -8.9249  -8.8830  -8.8076  -8.7996  -8.7486  -8.3266  -8.2197
    -8.1464  -8.0745  -8.0421  -7.9903  -7.9182  -7.8183  -7.6254  -7.5603
    -1.0365  -0.9868  -0.7941  -0.7712  -0.7194  -0.5511  -0.5279  -0.5023
    -0.2414  -0.1995  -0.0408   0.0907   0.1858   0.2428   0.3052   0.3341
     0.4343   0.4553   0.5322   0.5453   0.5856   0.6255   0.6678   0.7088
     0.7432   0.8340   0.9118   1.0396   1.0930   1.1471   1.2599   1.3886
     1.4402   1.5114   1.8143   1.9044   2.1176   2.1975   2.2541   2.2971
     2.3858   2.5521   2.7592   2.9193   2.9735   3.0968   3.1555   3.2709
     3.3586   3.3895   3.4219   3.4532   3.5108   3.5884   4.2033   4.3343
     5.1204   5.4523   5.6207   5.6601   5.9276   5.9756   6.1242   6.1466
     6.3538   6.4266   6.4576   6.5157   6.5653   6.6109

     the Fermi energy is     4.4882 ev

!    total energy              =    -563.59265164 Ry
     Harris-Foulkes estimate   =    -563.59265196 Ry
     estimated scf accuracy    <       0.00000063 Ry

     The total energy is the sum of the following terms:

     one-electron contribution =    -690.30874605 Ry
     hartree contribution      =     415.96730778 Ry
     xc contribution           =    -222.65031689 Ry
     ewald contribution        =     -66.61056613 Ry
     smearing contrib. (-TS)   =       0.00966965 Ry

     convergence has been achieved in  16 iterations

     Forces acting on atoms (cartesian axes, Ry/au):

     atom    1 type  1   force =     0.03113386   -0.00317683    0.00517213
     atom    2 type  1   force =     0.00449546    0.03453496    0.00347950
     atom    3 type  1   force =    -0.00239996   -0.04522554    0.00425581
     atom    4 type  1   force =    -0.01713892    0.00595505    0.00387473
     atom    5 type  1   force =    -0.04179913    0.05620022    0.02406879
     atom    6 type  1   force =    -0.06482943   -0.09998039   -0.01354504
     atom    7 type  1   force =     0.02800906    0.05755656    0.01721761
     atom    8 type  1   force =     0.03498818   -0.02381991   -0.02617738
     atom    9 type  2   force =     0.00696226    0.00759162   -0.00059248
     atom   10 type  2   force =    -0.00114915    0.00314978    0.00159878
     atom   11 type  2   force =    -0.00989012    0.00455537   -0.02710304
     atom   12 type  2   force =    -0.00100045   -0.00867683   -0.01081349
     atom   13 type  2   force =     0.02361731    0.00823450    0.01286530
     atom   14 type  2   force =     0.00802796    0.02399051    0.02406691
     atom   15 type  2   force =     0.00121015    0.00688512   -0.02064872
     atom   16 type  2   force =    -0.00348981   -0.02310912    0.00864181
     atom   17 type  2   force =    -0.00555279    0.01243056    0.00414694
     atom   18 type  2   force =     0.01889531   -0.02010743   -0.03950663
     atom   19 type  2   force =     0.00138060    0.01221367    0.03239352
     atom   20 type  2   force =     0.00097661   -0.00673651    0.00852246
     atom   21 type  2   force =    -0.00149646    0.00844605   -0.00179467
     atom   22 type  2   force =     0.00142227   -0.00849983   -0.01548764
     atom   23 type  2   force =    -0.00430776    0.00062652    0.00310364
     atom   24 type  2   force =    -0.00806505   -0.00303813    0.00226115

     Total force =     0.199996     Total SCF correction =     0.001484

     General routines

     Parallel routines

   This run was terminated on:  19:55:41   2Sep2021

   JOB DONE.