     Program PWSCF v.6.4 starts on 18Oct2021 at 11: 9:58

     R & G space division:  proc/nbgrp/npool/nimage =      40
     Waiting for input...
     Reading input from standard input
Warning: card    &IONS ignored
Warning: card      ION_DYNAMICS = 'BFGS' ignored
Warning: card   / ignored
Warning: card    &CELL ignored
Warning: card      CELL_DYNAMICS = 'BFGS', ignored
Warning: card    / ignored

     Current dimensions of program PWSCF are:
     Max number of different atomic species (ntypx) = 10
     Max number of k-points (npk) =  40000
     Max angular momentum in pseudopotentials (lmaxx) =  3

     bravais-lattice index     =            0
     lattice parameter (alat)  =      12.7097  a.u.
     unit-cell volume          =    5074.8718 (a.u.)^3
     number of atoms/cell      =           24
     number of atomic types    =            2
     number of electrons       =       144.00
     number of Kohn-Sham states=           86
     kinetic-energy cutoff     =      45.0000  Ry
     charge density cutoff     =     360.0000  Ry
     convergence threshold     =      1.0E-06
     mixing beta               =       0.7000
     number of iterations used =            8  local-TF  mixing
     Exchange-correlation      = SLA PW GGX GGC ( 1  4  2  2 0 0)

     celldm(1)=  12.709658  celldm(2)=   0.000000  celldm(3)=   0.000000
     celldm(4)=   0.000000  celldm(5)=   0.000000  celldm(6)=   0.000000

     crystal axes: (cart. coord. in units of alat)
               a(1) = (   1.000000   0.000000   0.000000 )
               a(2) = (   0.525802   0.821593   0.000000 )
               a(3) = (   2.515457   0.294464   3.008617 )

     reciprocal axes: (cart. coord. in units 2 pi/alat)
               b(1) = (  1.000000 -0.639979 -0.773447 )
               b(2) = (  0.000000  1.217148 -0.119127 )
               b(3) = (  0.000000  0.000000  0.332379 )

     PseudoPot. # 1 for Mo read from file:
     ~/pseudo/Mo.pw91-n-van.UPF
     MD5 check sum: Not computed, couldn't open file
     Pseudo is Ultrasoft + core correction, Zval =  6.0
     Generated by new atomic code, or converted to UPF format
     Using radial grid of  965 points,  3 beta functions with:
                l(1) =   1
                l(2) =   2
                l(3) =   2
     Q(r) pseudized with  8 coefficients,  rinner =    1.000   1.000   1.000
                                                       1.200   1.200

     PseudoPot. # 2 for S  read from file:
     ~/pseudo/S.pw91-van_ak.UPF
     MD5 check sum: Not computed, couldn't open file
     Pseudo is Ultrasoft, Zval =  6.0
     Generated by new atomic code, or converted to UPF format
     Using radial grid of  811 points,  6 beta functions with:
                l(1) =   0
                l(2) =   0
                l(3) =   1
                l(4) =   1
                l(5) =   2
                l(6) =   2
     Q(r) pseudized with  8 coefficients,  rinner =    1.100   1.100   1.100
                                                       1.100   1.100

     atomic species   valence    mass     pseudopotential
        Mo             6.00    95.50000     Mo( 1.00)
        S              6.00    32.06500     S ( 1.00)

     No symmetry found

   Cartesian axes

     site n.     atom                  positions (alat units)
         1           Mo  tau(   1) = (   0.4510424   0.0575064   0.5540473  )
         2           Mo  tau(   2) = (   0.9495370   0.0913070   0.5788082  )
         3           Mo  tau(   3) = (   1.1949086   0.4739604   0.6149880  )
         4           Mo  tau(   4) = (   0.6962088   0.4754478   0.6092268  )
         5           Mo  tau(   5) = (   3.5884064   1.0543038   2.4725377  )
         6           Mo  tau(   6) = (   3.0696428   1.0454868   2.4559240  )
         7           Mo  tau(   7) = (   2.8353180   0.6777474   2.4533798  )
         8           Mo  tau(   8) = (   3.3227543   0.6250468   2.4437772  )
         9           S   tau(   9) = (   1.4279540   0.3404098   0.3322082  )
        10           S   tau(  10) = (   0.9405043   0.3373588   0.3233448  )
        11           S   tau(  11) = (   1.2315123   0.7693486   0.3337487  )
        12           S   tau(  12) = (   1.7108660   0.7821103   0.3362863  )
        13           S   tau(  13) = (   2.3516069   0.3639819   2.6640172  )
        14           S   tau(  14) = (   2.7973694   0.3764562   2.6889080  )
        15           S   tau(  15) = (   3.0597857   0.7623067   2.6744812  )
        16           S   tau(  16) = (   3.5839629   0.8027092   2.6657867  )
        17           S   tau(  17) = (   2.3287282   0.3395260   2.2184404  )
        18           S   tau(  18) = (   2.8559484   0.3747502   2.2329582  )
        19           S   tau(  19) = (   3.0874321   0.8028699   2.2195270  )
        20           S   tau(  20) = (   2.6004478   0.8062585   2.1886500  )
        21           S   tau(  21) = (   1.4545264   0.3478938   0.7832156  )
        22           S   tau(  22) = (   0.9343455   0.3392722   0.8416280  )
        23           S   tau(  23) = (   1.2220574   0.7352099   0.7814452  )
        24           S   tau(  24) = (   1.7187657   0.7480629   0.8418762  )

     number of k points=     7  Marzari-Vanderbilt smearing, width (Ry)=  0.0200
                       cart. coord. in units 2pi/alat
        k(    1) = (   0.0000000   0.0000000   0.0000000), wk =   0.1666667
        k(    2) = (   0.0000000   0.4057161  -0.0397089), wk =   0.3333333
        k(    3) = (   0.2500000  -0.1599947  -0.1933618), wk =   0.3333333
        k(    4) = (   0.2500000   0.2457214  -0.2330707), wk =   0.3333333
        k(    5) = (   0.2500000  -0.5657108  -0.1536529), wk =   0.3333333
        k(    6) = (  -0.5000000   0.3199894   0.3867236), wk =   0.1666667
        k(    7) = (  -0.5000000   0.7257055   0.3470147), wk =   0.3333333

     Initial potential from superposition of free atoms

     starting charge  143.98738, renormalised to  144.00000

     negative rho (up, down):  1.407E-04 0.000E+00
     Starting wfcs are  136 randomized atomic wfcs

     Self-consistent Calculation

     iteration #  1     ecut=    45.00 Ry     beta= 0.70
     Davidson diagonalization with overlap
     ethr =  1.00E-02,  avg # of iterations =  2.0

     negative rho (up, down):  1.725E-06 0.000E+00

     total energy              =    -562.09291864 Ry
     Harris-Foulkes estimate   =    -563.92966956 Ry
     estimated scf accuracy    <       4.79186315 Ry

[...]

     iteration #  8     ecut=    45.00 Ry     beta= 0.70
     Davidson diagonalization with overlap
     c_bands:  1 eigenvalues not converged
     ethr =  2.17E-06,  avg # of iterations =  4.9

[...]

     total energy              =    -563.03092711 Ry
     Harris-Foulkes estimate   =    -563.03092882 Ry
     estimated scf accuracy    <       0.00000112 Ry

     iteration # 15     ecut=    45.00 Ry     beta= 0.70
     Davidson diagonalization with overlap
     ethr =  7.76E-10,  avg # of iterations =  3.0

[...]

     End of self-consistent calculation

          k = 0.0000 0.0000 0.0000 ( 25869 PWs)   bands (ev):

   -11.9385 -11.7982 -10.7330 -10.6769 -10.5774 -10.5692 -10.4469 -10.3039
    -9.9979  -9.9340  -9.8854  -9.7132  -9.6607  -9.6420  -9.5507  -9.4026
    -3.8468  -3.6376  -3.4243  -3.3341  -3.2531  -3.2252  -3.1801  -3.1460
    -2.6083  -2.5334  -2.5230  -2.4442  -2.3312  -2.2496  -2.0861  -1.8971
    -1.8708  -1.7214  -1.6973  -1.5642  -1.4404  -1.3634  -1.3211  -1.1192
    -0.9742  -0.9450  -0.7705  -0.6867  -0.2793  -0.2476  -0.1119  -0.0894
    -0.0081   0.1409   0.2417   0.3162   0.4772   0.5415   0.5562   0.6206
     0.8914   0.9211   1.0222   1.1131   1.2473   1.3169   1.3874   1.4228
     1.5536   1.6020   1.6668   1.9004   1.9698   2.2284   2.4547   2.5563
     3.2860   3.5513   3.5710   3.5907   3.8042   3.9125   3.9315   4.1402
     4.1496   4.2036   4.3059   4.3472   4.5050   4.6310

[...]

          k = 0.2500-0.5657-0.1537 ( 25894 PWs)   bands (ev):

[...]

          k =-0.5000 0.3200 0.3867 ( 25838 PWs)   bands (ev):

[...]

          k =-0.5000 0.7257 0.3470 ( 25853 PWs)   bands (ev):

   -11.5483 -11.4266 -10.9410 -10.7715 -10.6892 -10.5986 -10.5150 -10.3544
   -10.1861 -10.1715  -9.9256  -9.8179  -9.7094  -9.6766  -9.4994  -9.4028
    -3.4376  -3.2603  -3.0861  -2.9397  -2.8996  -2.7196  -2.6956  -2.6334
    -2.5628  -2.5081  -2.1947  -2.1609  -2.1137  -2.0118  -1.9299  -1.8576
    -1.8459  -1.6295  -1.6033  -1.4185  -1.3616  -1.3578  -1.2760  -1.1965
    -1.1817  -1.0611  -0.9466  -0.8472  -0.7998  -0.7407  -0.5560  -0.5105
    -0.2526  -0.1669   0.0697   0.0844   0.1934   0.2928   0.3770   0.4297
     0.5858   0.7266   0.8050   0.8213   0.9396   1.0067   1.0250   1.2090
     1.2853   1.4128   1.5155   1.5759   1.8900   1.9247   2.0978   2.2356
     3.0814   3.4245   3.4673   3.6486   3.7263   3.8312   3.8640   3.9303
     4.0593   4.1472   4.2581   4.3050   4.3927   4.5794

     the Fermi energy is     2.5541 ev

!    total energy              =    -563.03092668 Ry
     Harris-Foulkes estimate   =    -563.03092733 Ry
     estimated scf accuracy    <       0.00000056 Ry

     The total energy is the sum of the following terms:

     one-electron contribution =   -1289.62010905 Ry
     hartree contribution      =     704.89651445 Ry
     xc contribution           =    -222.62872837 Ry
     ewald contribution        =     244.30889650 Ry
     smearing contrib. (-TS)   =       0.01249979 Ry

     convergence has been achieved in  15 iterations

     negative rho (up, down):  2.591E-04 0.000E+00

     Forces acting on atoms (cartesian axes, Ry/au):

     atom    1 type  1   force =    -0.04320127    0.05529755    0.05891942
     atom    2 type  1   force =    -0.00270677   -0.09867082    0.00098348
     atom    3 type  1   force =    -0.05404338   -0.13475184   -0.33450142
     atom    4 type  1   force =     0.09410217    0.09301401   -0.20862463
     atom    5 type  1   force =     0.05041021    0.14731276   -0.16048866
     atom    6 type  1   force =     0.28498156   -0.00061412   -0.07842114
     atom    7 type  1   force =    -0.10482647   -0.17517897   -0.13266925
     atom    8 type  1   force =     0.03633522    0.12035035   -0.05890620
     atom    9 type  2   force =     0.02113492    0.01933524    0.05826326
     atom   10 type  2   force =    -0.00325191    0.05016843    0.08822616
     atom   11 type  2   force =     0.00171088   -0.03831582    0.03125640
     atom   12 type  2   force =    -0.00098614   -0.06543536    0.04701749
     atom   13 type  2   force =    -0.17802628    0.05442656    0.20252100
     atom   14 type  2   force =     0.01978432    0.01231751   -0.01337844
     atom   15 type  2   force =     0.12240984    0.03099035    0.10528501
     atom   16 type  2   force =    -0.04840756   -0.16176380    0.13602476
     atom   17 type  2   force =    -0.07133248    0.06165193   -0.02683484
     atom   18 type  2   force =    -0.08554361    0.03335410   -0.00460342
     atom   19 type  2   force =     0.00785537   -0.09100705   -0.04741124
     atom   20 type  2   force =    -0.03384914   -0.03160185    0.07926442
     atom   21 type  2   force =    -0.03934242   -0.13368590    0.16110749
     atom   22 type  2   force =     0.02267785    0.00499441   -0.01663799
     atom   23 type  2   force =     0.00367470    0.21482296    0.17915800
     atom   24 type  2   force =     0.00044039    0.03298936   -0.06554965

     Total force =     0.876856     Total SCF correction =     0.001214

     General routines

     Parallel routines

   This run was terminated on:  11:11:13  18Oct2021

   JOB DONE.