     Program PWSCF v.6.4 starts on  2Sep2021 at  9:36: 7

     R & G space division:  proc/nbgrp/npool/nimage =      40
     Waiting for input...
     Reading input from standard input
Warning: card    &IONS ignored
Warning: card      ION_DYNAMICS = 'BFGS' ignored
Warning: card   / ignored
Warning: card    &CELL ignored
Warning: card      CELL_DYNAMICS = 'BFGS', ignored
Warning: card    / ignored

     Current dimensions of program PWSCF are:
     Max number of different atomic species (ntypx) = 10
     Max number of k-points (npk) =  40000
     Max angular momentum in pseudopotentials (lmaxx) =  3

     Found symmetry operation: I + ( -0.5000 -0.5000 -0.0000)
     This is a supercell, fractional translations are disabled

     bravais-lattice index     =            0
     lattice parameter (alat)  =       6.0995  a.u.
     unit-cell volume          =    3399.5330 (a.u.)^3
     number of atoms/cell      =           24
     number of atomic types    =            2
     number of electrons       =       144.00
     number of Kohn-Sham states=           86
     kinetic-energy cutoff     =      45.0000  Ry
     charge density cutoff     =     360.0000  Ry
     convergence threshold     =      1.0E-06
     mixing beta               =       0.7000
     number of iterations used =            8  local-TF  mixing
     Exchange-correlation      = SLA PW GGX GGC ( 1  4  2  2 0 0)

     celldm(1)=   6.099535  celldm(2)=   0.000000  celldm(3)=   0.000000
     celldm(4)=   0.000000  celldm(5)=   0.000000  celldm(6)=   0.000000

     crystal axes: (cart. coord. in units of alat)
               a(1) = (   1.000000   0.000000   0.000000 )
               a(2) = (  -0.000109   1.731933   0.000000 )
               a(3) = (  -0.429254  -0.787558   8.649641 )

     reciprocal axes: (cart. coord. in units 2 pi/alat)
               b(1) = (  1.000000  0.000063  0.049633 )
               b(2) = (  0.000000  0.577390  0.052572 )
               b(3) = (  0.000000  0.000000  0.115612 )

     PseudoPot. # 1 for Mo read from file:
     ~/pseudo/Mo.pw91-n-van.UPF
     MD5 check sum: Not computed, couldn't open file
     Pseudo is Ultrasoft + core correction, Zval =  6.0
     Generated by new atomic code, or converted to UPF format
     Using radial grid of  965 points,  3 beta functions with:
                l(1) =   1
                l(2) =   2
                l(3) =   2
     Q(r) pseudized with  8 coefficients,  rinner =    1.000   1.000   1.000
                                                       1.200   1.200

     PseudoPot. # 2 for S  read from file:
     ~/pseudo/S.pw91-van_ak.UPF
     MD5 check sum: Not computed, couldn't open file
     Pseudo is Ultrasoft, Zval =  6.0
     Generated by new atomic code, or converted to UPF format
     Using radial grid of  811 points,  6 beta functions with:
                l(1) =   0
                l(2) =   0
                l(3) =   1
                l(4) =   1
                l(5) =   2
                l(6) =   2
     Q(r) pseudized with  8 coefficients,  rinner =    1.100   1.100   1.100
                                                       1.100   1.100

     atomic species   valence    mass     pseudopotential
        Mo             6.00    95.50000     Mo( 1.00)
        S              6.00    32.06500     S ( 1.00)

     No symmetry found

   Cartesian axes

     site n.     atom                  positions (alat units)
         1           Mo  tau(   1) = (   0.0390746  -0.2494653   7.5445879  )
         2           Mo  tau(   2) = (   0.5794822   0.6633802   3.3056715  )
         3           Mo  tau(   3) = (   0.5390202   0.6165015   7.5445879  )
         4           Mo  tau(   4) = (   0.0795366  -0.2025863   3.3056715  )
         5           Mo  tau(   5) = (   0.5655262   1.2238551   5.4272250  )
         6           Mo  tau(   6) = (   0.9548214   0.2360922   1.0166404  )
         7           Mo  tau(   7) = (   0.0655806   0.3578884   5.4272251  )
         8           Mo  tau(   8) = (   0.4547670   1.1020585   1.0166404  )
         9           S   tau(   9) = (   0.5395137   0.0396442   7.0548533  )
        10           S   tau(  10) = (   0.0791764   0.9516349   2.8172989  )
        11           S   tau(  11) = (   0.0394593   0.9056109   7.0548547  )
        12           S   tau(  12) = (   0.5792308   0.0856684   2.8172988  )
        13           S   tau(  13) = (   0.0659117   0.9356622   4.9374502  )
        14           S   tau(  14) = (   0.4547029   1.6793532   0.5265724  )
        15           S   tau(  15) = (   0.5659661   0.0696957   4.9374500  )
        16           S   tau(  16) = (   0.9547573   0.8133868   0.5265727  )
        17           S   tau(  17) = (   0.5386931   0.0387658   8.0343638  )
        18           S   tau(  18) = (   0.0794876   0.9520136   3.7957390  )
        19           S   tau(  19) = (   0.0386387   0.9047325   8.0343623  )
        20           S   tau(  20) = (   0.5795420   0.0860471   3.7957390  )
        21           S   tau(  21) = (   0.0650848   0.9347257   5.9169564  )
        22           S   tau(  22) = (   0.4551294  -0.0521422   1.5050152  )
        23           S   tau(  23) = (   0.5651392   0.0687592   5.9169562  )
        24           S   tau(  24) = (   0.9550749   0.8138242   1.5050155  )

     number of k points=     8  Marzari-Vanderbilt smearing, width (Ry)=  0.0200
                       cart. coord. in units 2pi/alat
        k(    1) = (   0.0000000   0.0000000   0.0000000), wk =   0.1333333
        k(    2) = (   0.0000000   0.1924632   0.0175240), wk =   0.2666667
        k(    3) = (   0.2000000   0.0000126   0.0099265), wk =   0.2666667
        k(    4) = (   0.2000000   0.1924758   0.0274505), wk =   0.2666667
        k(    5) = (   0.2000000  -0.1924506  -0.0075975), wk =   0.2666667
        k(    6) = (   0.4000000   0.0000251   0.0198530), wk =   0.2666667
        k(    7) = (   0.4000000   0.1924883   0.0373770), wk =   0.2666667
        k(    8) = (   0.4000000  -0.1924381   0.0023291), wk =   0.2666667

     Initial potential from superposition of free atoms

     starting charge  143.98738, renormalised to  144.00000
     Starting wfcs are  136 randomized atomic wfcs

     Self-consistent Calculation

     iteration #  1     ecut=    45.00 Ry     beta= 0.70
     Davidson diagonalization with overlap
     ethr =  1.00E-02,  avg # of iterations =  2.0

     total energy              =    -562.79450684 Ry
     Harris-Foulkes estimate   =    -564.57868709 Ry
     estimated scf accuracy    <       4.56488754 Ry

[...]

     iteration #  6     ecut=    45.00 Ry     beta= 0.70
     Davidson diagonalization with overlap
     c_bands:  3 eigenvalues not converged
     c_bands:  2 eigenvalues not converged
     c_bands:  4 eigenvalues not converged
     c_bands:  3 eigenvalues not converged
     ethr =  7.59E-07,  avg # of iterations = 13.2

[...]

     total energy              =    -563.68568570 Ry
     Harris-Foulkes estimate   =    -563.68568623 Ry
     estimated scf accuracy    <       0.00000217 Ry

     iteration # 11     ecut=    45.00 Ry     beta= 0.70
     Davidson diagonalization with overlap
     ethr =  1.50E-09,  avg # of iterations =  2.8

     End of self-consistent calculation

          k = 0.0000 0.0000 0.0000 ( 17373 PWs)   bands (ev):

    -7.8826  -7.8517  -7.8316  -7.8110  -6.7253  -6.6723  -6.6422  -6.6076
    -6.1741  -6.1529  -6.1226  -6.1170  -5.9032  -5.8753  -5.8410  -5.8375
     0.4669   0.4977   0.5123   0.5412   0.5470   0.6230   0.6991   0.8666
     1.4271   1.4588   1.4758   1.4823   2.0157   2.0646   2.2019   2.2322
     3.0034   3.0123   3.0261   3.0270   3.5303   3.5309   3.5338   3.5343
     3.5435   3.5443   3.5452   3.5456   3.9092   4.0413   4.1709   4.3143
     4.3723   4.4725   4.4794   4.6161   4.6177   4.6227   4.6237   4.6347
     4.6360   4.6411   4.6420   5.0259   5.1194   5.1387   5.1631   5.1651
     5.3628   5.4335   5.5410   5.5782   5.8050   6.1713   6.2547   6.4374
     8.0894   8.0964   8.1132   8.1146   8.5641   8.5824   8.6279   8.6355
     8.7428   8.7448   8.7611   8.7644   8.7834   8.7904

[...]

          k = 0.4000-0.1924 0.0023 ( 17257 PWs)   bands (ev):

    -6.4433  -6.4160  -6.3961  -6.3774  -6.1253  -6.1036  -6.0737  -6.0679
    -6.0280  -5.9903  -5.9677  -5.9483  -5.8639  -5.8368  -5.8032  -5.7992
     0.7550   0.7807   0.7853   0.8051   0.8119   0.8165   0.8346   0.8573
     1.2946   1.3107   1.3381   1.3451   1.7218   1.7617   1.7834   1.8092
     2.0891   2.0969   2.1635   2.2054   2.2652   2.2776   2.3339   2.3765
     2.9633   3.0018   3.0306   3.0361   3.1354   3.1486   3.1612   3.1655
     4.0693   4.0777   4.0808   4.1574   4.1648   4.2289   4.2663   4.3500
     4.4392   4.4471   4.4760   4.6442   4.8218   4.8542   4.8700   4.8795
     5.2137   5.2829   5.3067   5.3431   5.6648   5.6807   5.7248   5.7315
     8.0705   8.0827   8.0987   8.1066   8.1160   8.1266   8.1339   8.1373
     8.3007   8.3999   8.4402   8.5627   8.6735   8.6879

     the Fermi energy is     6.1902 ev

!    total energy              =    -563.68568568 Ry
     Harris-Foulkes estimate   =    -563.68568609 Ry
     estimated scf accuracy    <       0.00000051 Ry

     The total energy is the sum of the following terms:

     one-electron contribution =     -84.96262652 Ry
     hartree contribution      =     123.57214376 Ry
     xc contribution           =    -222.65597823 Ry
     ewald contribution        =    -379.65571041 Ry
     smearing contrib. (-TS)   =       0.01648572 Ry

     convergence has been achieved in  11 iterations

     Forces acting on atoms (cartesian axes, Ry/au):

     atom    1 type  1   force =     0.00009454   -0.00046320    0.00070752
     atom    2 type  1   force =    -0.00022508    0.00052523    0.00469908
     atom    3 type  1   force =     0.00009389   -0.00046896    0.00070534
     atom    4 type  1   force =    -0.00022490    0.00052697    0.00469687
     atom    5 type  1   force =    -0.00002645   -0.00031009   -0.00117523
     atom    6 type  1   force =     0.00024015   -0.00040676   -0.00439918
     atom    7 type  1   force =    -0.00002424   -0.00031197   -0.00117404
     atom    8 type  1   force =     0.00023823   -0.00040657   -0.00439807
     atom    9 type  2   force =    -0.00065318   -0.00065395    0.00830616
     atom   10 type  2   force =     0.00060248    0.00047903    0.00332912
     atom   11 type  2   force =    -0.00065302   -0.00065364    0.00830369
     atom   12 type  2   force =     0.00060246    0.00047962    0.00332906
     atom   13 type  2   force =    -0.00041703   -0.00044868    0.00841150
     atom   14 type  2   force =    -0.00028268    0.00016564    0.00909950
     atom   15 type  2   force =    -0.00041708   -0.00045280    0.00840892
     atom   16 type  2   force =    -0.00028270    0.00016393    0.00909816
     atom   17 type  2   force =     0.00066151    0.00030212   -0.00823166
     atom   18 type  2   force =     0.00007659    0.00018409   -0.00907959
     atom   19 type  2   force =     0.00066158    0.00030245   -0.00822853
     atom   20 type  2   force =     0.00007643    0.00018457   -0.00907966
     atom   21 type  2   force =     0.00046000    0.00081190   -0.00854004
     atom   22 type  2   force =    -0.00053061   -0.00017734   -0.00312658
     atom   23 type  2   force =     0.00045980    0.00080755   -0.00853626
     atom   24 type  2   force =    -0.00053067   -0.00017914   -0.00312608

     Total force =     0.032071     Total SCF correction =     0.001037

     General routines

     Parallel routines

   This run was terminated on:   9:36:58   2Sep2021

   JOB DONE.