     Program PWSCF v.6.4 starts on 17Nov2021 at 10:26:52

     R & G space division:  proc/nbgrp/npool/nimage =      40
     Waiting for input...
     Reading input from standard input
Warning: card    &IONS ignored
Warning: card      ION_DYNAMICS = 'BFGS' ignored
Warning: card   / ignored
Warning: card    &CELL ignored
Warning: card      CELL_DYNAMICS = 'BFGS', ignored
Warning: card    / ignored

     Current dimensions of program PWSCF are:
     Max number of different atomic species (ntypx) = 10
     Max number of k-points (npk) =  40000
     Max angular momentum in pseudopotentials (lmaxx) =  3

     bravais-lattice index     =            0
     lattice parameter (alat)  =      12.2411  a.u.
     unit-cell volume          =    4032.4947 (a.u.)^3
     number of atoms/cell      =           18
     number of atomic types    =            2
     number of electrons       =       108.00
     number of Kohn-Sham states=           65
     kinetic-energy cutoff     =      45.0000  Ry
     charge density cutoff     =     360.0000  Ry
     convergence threshold     =      1.0E-06
     mixing beta               =       0.7000
     number of iterations used =            8  local-TF  mixing
     Exchange-correlation      = SLA PW GGX GGC ( 1  4  2  2 0 0)

     celldm(1)=  12.241125  celldm(2)=   0.000000  celldm(3)=   0.000000
     celldm(4)=   0.000000  celldm(5)=   0.000000  celldm(6)=   0.000000

     crystal axes: (cart. coord. in units of alat)
               a(1) = (   1.000000   0.000000   0.000000 )
               a(2) = (   0.466799   0.846173   0.000000 )
               a(3) = (   0.394042   0.170429   2.598069 )

     reciprocal axes: (cart. coord. in units 2 pi/alat)
               b(1) = (  1.000000 -0.551659 -0.115479 )
               b(2) = (  0.000000  1.181792 -0.077524 )
               b(3) = (  0.000000  0.000000  0.384901 )

     PseudoPot. # 1 for Mo read from file:
     ~/pseudo/Mo.pw91-n-van.UPF
     MD5 check sum: Not computed, couldn't open file
     Pseudo is Ultrasoft + core correction, Zval =  6.0
     Generated by new atomic code, or converted to UPF format
     Using radial grid of  965 points,  3 beta functions with:
                l(1) =   1
                l(2) =   2
                l(3) =   2
     Q(r) pseudized with  8 coefficients,  rinner =    1.000   1.000   1.000
                                                       1.200   1.200

     PseudoPot. # 2 for S  read from file:
     ~/pseudo/S.pw91-van_ak.UPF
     MD5 check sum: Not computed, couldn't open file
     Pseudo is Ultrasoft, Zval =  6.0
     Generated by new atomic code, or converted to UPF format
     Using radial grid of  811 points,  6 beta functions with:
                l(1) =   0
                l(2) =   0
                l(3) =   1
                l(4) =   1
                l(5) =   2
                l(6) =   2
     Q(r) pseudized with  8 coefficients,  rinner =    1.100   1.100   1.100
                                                       1.100   1.100

     atomic species   valence    mass     pseudopotential
        Mo             6.00    95.50000     Mo( 1.00)
        S              6.00    32.06500     S ( 1.00)

     No symmetry found

   Cartesian axes

     site n.     atom                  positions (alat units)
         1           Mo  tau(   1) = (   0.4034526   0.3977624   0.9350541  )
         2           Mo  tau(   2) = (   1.1369277   0.8207577   0.9349321  )
         3           Mo  tau(   3) = (   0.6368040   0.8208483   0.9351516  )
         4           Mo  tau(   4) = (   0.9034914   0.3975999   0.9349318  )
         5           Mo  tau(   5) = (   1.1936350   0.2072877   2.0092823  )
         6           Mo  tau(   6) = (   1.4223514   0.6216556   2.0092497  )
         7           S   tau(   7) = (   0.4165388   0.1146101   0.6904103  )
         8           S   tau(   8) = (   1.1499385   0.5377285   0.6902807  )
         9           S   tau(   9) = (   0.6499796   0.5377429   0.6903976  )
        10           S   tau(  10) = (   0.9165528   0.1146179   0.6902974  )
        11           S   tau(  11) = (   1.2497659   0.4467129   1.7444132  )
        12           S   tau(  12) = (   1.5310350   0.8434277   1.7418914  )
        13           S   tau(  13) = (   0.4165593   0.1145565   1.1796635  )
        14           S   tau(  14) = (   1.1498744   0.5376829   1.1791507  )
        15           S   tau(  15) = (   0.6499666   0.5376202   1.1796860  )
        16           S   tau(  16) = (   0.9164521   0.1145943   1.1795149  )
        17           S   tau(  17) = (   1.1330505   0.5108307   2.1989802  )
        18           S   tau(  18) = (   1.3827873   0.9248510   2.2035805  )

     number of k points=     5  Marzari-Vanderbilt smearing, width (Ry)=  0.0200
                       cart. coord. in units 2pi/alat
        k(    1) = (   0.0000000   0.0000000   0.0000000), wk =   0.2222222
        k(    2) = (   0.0000000   0.3939305  -0.0258412), wk =   0.4444444
        k(    3) = (   0.3333333  -0.1838864  -0.0384932), wk =   0.4444444
        k(    4) = (   0.3333333   0.2100441  -0.0643343), wk =   0.4444444
        k(    5) = (   0.3333333  -0.5778169  -0.0126520), wk =   0.4444444

     Initial potential from superposition of free atoms

     starting charge  107.99054, renormalised to  108.00000
     Starting wfcs are  102 randomized atomic wfcs

     Self-consistent Calculation

     iteration #  1     ecut=    45.00 Ry     beta= 0.70
     Davidson diagonalization with overlap
     ethr =  1.00E-02,  avg # of iterations =  2.0

     total energy              =    -421.57566507 Ry
     Harris-Foulkes estimate   =    -423.07686625 Ry
     estimated scf accuracy    <       3.96233815 Ry

[...]

     iteration # 12     ecut=    45.00 Ry     beta= 0.70
     Davidson diagonalization with overlap
     c_bands:  1 eigenvalues not converged
     ethr =  3.05E-06,  avg # of iterations = 11.4

[...]

     iteration # 15     ecut=    45.00 Ry     beta= 0.70
     Davidson diagonalization with overlap
     c_bands:  1 eigenvalues not converged
     c_bands:  1 eigenvalues not converged
     ethr =  2.97E-06,  avg # of iterations = 13.2

[...]

     negative rho (up, down):  8.062E-08 0.000E+00

[...]

     total energy              =    -422.31487553 Ry
     Harris-Foulkes estimate   =    -422.31487747 Ry
     estimated scf accuracy    <       0.00001132 Ry

     iteration # 24     ecut=    45.00 Ry     beta= 0.70
     Davidson diagonalization with overlap
     ethr =  1.05E-08,  avg # of iterations =  1.0

[...]

     End of self-consistent calculation

          k = 0.0000 0.0000 0.0000 ( 20499 PWs)   bands (ev):

   -12.1788 -11.0388 -10.9872 -10.4996 -10.3430 -10.3384 -10.2758 -10.1166
   -10.0894 -10.0843  -9.8373  -9.7893  -3.8544  -3.7936  -3.7912  -3.6657
    -2.9093  -2.9083  -2.8356  -2.7989  -2.7402  -2.1910  -2.1584  -2.1440
    -2.0839  -1.4488  -1.4052  -1.3869  -1.3811  -1.2591  -0.9252  -0.9131
    -0.6964  -0.4529  -0.4453  -0.1665  -0.0545  -0.0103   0.0292   0.1352
     0.2868   0.5137   0.5828   0.7587   0.8164   0.8185   1.0421   1.2309
     1.2664   1.2757   1.4579   1.6141   1.8605   1.9491   2.2504   2.7571
     2.9626   3.3146   3.8453   3.8676   3.8709   3.9309   4.1111   4.3692
     4.4855

[...]

          k = 0.3333-0.5778-0.0127 ( 20555 PWs)   bands (ev):

   -11.2045 -11.1997 -11.1238 -10.7596 -10.5338 -10.5313 -10.4550 -10.1791
   -10.1460 -10.0141  -9.9820  -9.8928  -3.4234  -2.9765  -2.9646  -2.9505
    -2.6418  -2.3760  -2.2781  -2.2134  -2.1242  -1.9263  -1.9211  -1.9110
    -1.7609  -1.7012  -1.6916  -1.6848  -1.6105  -1.4357  -1.3292  -1.2203
    -1.2115  -1.1372  -1.0187  -0.5510  -0.4940  -0.3005  -0.0759  -0.0712
    -0.0324   0.0028   0.1558   0.5225   0.7656   0.7716   0.8254   0.8912
     0.9878   1.0917   1.0967   1.4491   1.5539   1.8237   2.1489   2.6726
     3.2266   3.4965   3.5053   3.6439   3.6971   3.7082   4.0442   4.1288
     4.1515

     the Fermi energy is     1.9462 ev

!    total energy              =    -422.31487644 Ry
     Harris-Foulkes estimate   =    -422.31487665 Ry
     estimated scf accuracy    <       0.00000022 Ry

     The total energy is the sum of the following terms:

     one-electron contribution =    -719.25718074 Ry
     hartree contribution      =     403.79799779 Ry
     xc contribution           =    -166.64639923 Ry
     ewald contribution        =      59.77599422 Ry
     smearing contrib. (-TS)   =       0.01471153 Ry

     convergence has been achieved in  24 iterations

     negative rho (up, down):  4.008E-07 0.000E+00

     Forces acting on atoms (cartesian axes, Ry/au):

     atom    1 type  1   force =    -0.00005174   -0.00001878   -0.00005411
     atom    2 type  1   force =    -0.00017249   -0.00000852   -0.00042895
     atom    3 type  1   force =     0.00002033    0.00000063   -0.00004238
     atom    4 type  1   force =    -0.00010274    0.00007579   -0.00044987
     atom    5 type  1   force =     0.00019892   -0.00131231    0.00131671
     atom    6 type  1   force =     0.00141830    0.00040695    0.00140836
     atom    7 type  2   force =    -0.00016318    0.00014341    0.00012055
     atom    8 type  2   force =     0.00012677   -0.00011852   -0.00030687
     atom    9 type  2   force =    -0.00018366    0.00014903    0.00014248
     atom   10 type  2   force =     0.00014971   -0.00010420   -0.00028483
     atom   11 type  2   force =     0.00388448   -0.00228608    0.00198558
     atom   12 type  2   force =    -0.00244149    0.00126669    0.00164308
     atom   13 type  2   force =    -0.00013454    0.00007085    0.00003845
     atom   14 type  2   force =     0.00008879   -0.00009377   -0.00060723
     atom   15 type  2   force =    -0.00020356   -0.00004118   -0.00009185
     atom   16 type  2   force =     0.00000513   -0.00006655   -0.00094671
     atom   17 type  2   force =     0.00114484   -0.00026888   -0.00113773
     atom   18 type  2   force =    -0.00358388    0.00220542   -0.00230468

     Total force =     0.008370     Total SCF correction =     0.001077
     SCF correction compared to forces is large: reduce conv_thr to get better values

     General routines

     Parallel routines

   This run was terminated on:  10:27:55  17Nov2021

   JOB DONE.