     Program PWSCF v.6.4 starts on 25Dec2021 at  0:11: 9

     R & G space division:  proc/nbgrp/npool/nimage =      40
     Waiting for input...
     Reading input from standard input
Warning: card    &IONS ignored
Warning: card      ION_DYNAMICS = 'BFGS' ignored
Warning: card   / ignored
Warning: card    &CELL ignored
Warning: card      CELL_DYNAMICS = 'BFGS', ignored
Warning: card    / ignored

     Current dimensions of program PWSCF are:
     Max number of different atomic species (ntypx) = 10
     Max number of k-points (npk) =  40000
     Max angular momentum in pseudopotentials (lmaxx) =  3

     Found symmetry operation: I + (  0.0000 -0.5000  0.0000)
     This is a supercell, fractional translations are disabled

     bravais-lattice index     =            0
     lattice parameter (alat)  =      12.1536  a.u.
     unit-cell volume          =    5394.2596 (a.u.)^3
     number of atoms/cell      =           36
     number of atomic types    =            2
     number of electrons       =       216.00
     number of Kohn-Sham states=          130
     kinetic-energy cutoff     =      45.0000  Ry
     charge density cutoff     =     360.0000  Ry
     convergence threshold     =      1.0E-06
     mixing beta               =       0.7000
     number of iterations used =            8  local-TF  mixing
     Exchange-correlation      = SLA PW GGX GGC ( 1  4  2  2 0 0)

     celldm(1)=  12.153560  celldm(2)=   0.000000  celldm(3)=   0.000000
     celldm(4)=   0.000000  celldm(5)=   0.000000  celldm(6)=   0.000000

     crystal axes: (cart. coord. in units of alat)
               a(1) = (   1.000000   0.000000   0.000000 )
               a(2) = (  -0.500000   0.866026   0.000000 )
               a(3) = (   0.000000   0.000000   3.469690 )

     reciprocal axes: (cart. coord. in units 2 pi/alat)
               b(1) = (  1.000000  0.577350  0.000000 )
               b(2) = (  0.000000  1.154700  0.000000 )
               b(3) = (  0.000000  0.000000  0.288210 )

     PseudoPot. # 1 for Mo read from file:
     ~/pseudo/Mo.pw91-n-van.UPF
     MD5 check sum: Not computed, couldn't open file
     Pseudo is Ultrasoft + core correction, Zval =  6.0
     Generated by new atomic code, or converted to UPF format
     Using radial grid of  965 points,  3 beta functions with:
                l(1) =   1
                l(2) =   2
                l(3) =   2
     Q(r) pseudized with  8 coefficients,  rinner =    1.000   1.000   1.000
                                                       1.200   1.200

     PseudoPot. # 2 for S  read from file:
     ~/pseudo/S.pw91-van_ak.UPF
     MD5 check sum: Not computed, couldn't open file
     Pseudo is Ultrasoft, Zval =  6.0
     Generated by new atomic code, or converted to UPF format
     Using radial grid of  811 points,  6 beta functions with:
                l(1) =   0
                l(2) =   0
                l(3) =   1
                l(4) =   1
                l(5) =   2
                l(6) =   2
     Q(r) pseudized with  8 coefficients,  rinner =    1.100   1.100   1.100
                                                       1.100   1.100

     atomic species   valence    mass     pseudopotential
        Mo             6.00    95.50000     Mo( 1.00)
        S              6.00    32.06500     S ( 1.00)

     No symmetry found

   Cartesian axes

     site n.     atom                  positions (alat units)
         1           Mo  tau(   1) = (   0.2888553   0.6995536   1.6012862  )
         2           Mo  tau(   2) = (   0.5677990  -0.0319306   2.9797005  )
         3           Mo  tau(   3) = (   0.3750000   0.6495192   0.3322790  )
         4           Mo  tau(   4) = (   0.5388553   0.2665410   1.6012862  )
         5           Mo  tau(   5) = (   0.8177988   0.4010823   2.9797005  )
         6           Mo  tau(   6) = (   0.6250000   0.2165063   0.3322790  )
         7           Mo  tau(   7) = (   1.0677989  -0.0319306   2.9797005  )
         8           Mo  tau(   8) = (   0.0388553   0.2665410   1.6012862  )
         9           Mo  tau(   9) = (  -0.2111447   0.6995536   1.6012862  )
        10           Mo  tau(  10) = (   0.3177990   0.4010823   2.9797005  )
        11           Mo  tau(  11) = (   0.1250000   0.2165063   0.3322790  )
        12           Mo  tau(  12) = (  -0.1250000   0.6495192   0.3322790  )
        13           S   tau(  13) = (   0.3177996   0.6897570   2.7342068  )
        14           S   tau(  14) = (   0.3177996   0.6897570   3.2251423  )
        15           S   tau(  15) = (   0.3749997   0.0721689   0.0867969  )
        16           S   tau(  16) = (   0.3749997   0.0721689   0.5776964  )
        17           S   tau(  17) = (   0.5388550   0.5552163   1.3557261  )
        18           S   tau(  18) = (   0.5388550   0.5552163   1.8468248  )
        19           S   tau(  19) = (   0.5677995   0.2567442   2.7342068  )
        20           S   tau(  20) = (   0.5677995   0.2567442   3.2251417  )
        21           S   tau(  21) = (   0.6249998   0.5051816   0.0867969  )
        22           S   tau(  22) = (   0.6249997   0.5051817   0.5776964  )
        23           S   tau(  23) = (   0.7888549   0.1222036   1.3557261  )
        24           S   tau(  24) = (   0.7888549   0.1222036   1.8468248  )
        25           S   tau(  25) = (   0.8749998   0.0721689   0.0867969  )
        26           S   tau(  26) = (   0.8749998   0.0721689   0.5776964  )
        27           S   tau(  27) = (   0.0677996   0.2567442   2.7342068  )
        28           S   tau(  28) = (   0.0677996   0.2567442   3.2251423  )
        29           S   tau(  29) = (  -0.1822004   0.6897570   2.7342068  )
        30           S   tau(  30) = (  -0.1822004   0.6897570   3.2251423  )
        31           S   tau(  31) = (   0.1249998   0.5051817   0.0867969  )
        32           S   tau(  32) = (   0.1249998   0.5051817   0.5776964  )
        33           S   tau(  33) = (   0.2888551   0.1222036   1.3557260  )
        34           S   tau(  34) = (   0.2888551   0.1222036   1.8468247  )
        35           S   tau(  35) = (   0.0388551   0.5552163   1.3557261  )
        36           S   tau(  36) = (   0.0388551   0.5552163   1.8468248  )

     number of k points=     5  Marzari-Vanderbilt smearing, width (Ry)=  0.0200
                       cart. coord. in units 2pi/alat
        k(    1) = (   0.0000000   0.0000000   0.0000000), wk =   0.2222222
        k(    2) = (   0.0000000   0.3849001   0.0000000), wk =   0.4444444
        k(    3) = (   0.3333333   0.5773502   0.0000000), wk =   0.4444444
        k(    4) = (  -0.3333333   0.1924501   0.0000000), wk =   0.4444444
        k(    5) = (   0.3333333   0.1924501   0.0000000), wk =   0.4444444

     Initial potential from superposition of free atoms

     starting charge  215.98107, renormalised to  216.00000
     Starting wfcs are  204 randomized atomic wfcs

     Self-consistent Calculation

     iteration #  1     ecut=    45.00 Ry     beta= 0.70
     Davidson diagonalization with overlap
     ethr =  1.00E-02,  avg # of iterations =  2.0

     total energy              =    -844.12694853 Ry
     Harris-Foulkes estimate   =    -846.64207570 Ry
     estimated scf accuracy    <       6.40228409 Ry

[...]

     iteration #  6     ecut=    45.00 Ry     beta= 0.70
     Davidson diagonalization with overlap
     c_bands:  1 eigenvalues not converged
     c_bands:  1 eigenvalues not converged
     ethr =  2.25E-06,  avg # of iterations = 13.8

[...]

     total energy              =    -845.37353983 Ry
     Harris-Foulkes estimate   =    -845.37354078 Ry
     estimated scf accuracy    <       0.00000421 Ry

     iteration # 19     ecut=    45.00 Ry     beta= 0.70
     Davidson diagonalization with overlap
     ethr =  1.95E-09,  avg # of iterations =  2.0

     End of self-consistent calculation

          k = 0.0000 0.0000 0.0000 ( 27457 PWs)   bands (ev):

    -9.4470  -8.4890  -8.4031  -7.8127  -7.7195  -7.2960  -7.2943  -7.2240
    -7.0245  -6.9787  -6.9598  -6.7685  -6.7509  -6.7509  -6.7508  -6.7015
    -6.7004  -6.6575  -6.5854  -6.5783  -6.4856  -6.4856  -6.4855  -6.3712
    -0.9353  -0.8759  -0.8636  -0.8614  -0.6267  -0.6126  -0.2849  -0.1180
    -0.1180  -0.1180   0.0347   0.1679   0.3864   0.4102   0.5395   0.5759
     0.5993   0.7946   0.8245   0.8245   0.8245   1.1003   1.3628   1.3997
     1.5131   1.5134   1.5135   1.6004   1.6357   1.9100   1.9820   2.0753
     2.0828   2.3479   2.3556   2.3996   2.4055   2.4055   2.4055   2.6730
     2.7448   2.8443   2.8751   2.9252   2.9252   2.9527   2.9538   3.4679
     3.5514   3.6576   3.6579   3.6587   3.7486   3.7599   3.8102   3.8269
     3.8483   3.9512   3.9970   4.0139   4.0382   4.0382   4.1370   4.1490
     4.2096   4.4686   4.4849   4.5659   4.5659   4.5660   4.6672   4.6849
     4.6849   4.7870   4.7885   4.8575   4.8578   4.8584   4.8676   4.8855
     5.0108   5.2431   5.4876   6.7299   7.2687   7.3476   7.3703   7.3732
     7.5134   7.5157   7.5271   7.5303   7.5303   7.5306   7.8353   7.8711
     7.9005   7.9069   7.9740   8.0487   8.0489   8.0489   8.0693   8.0751
     8.1299   8.1328

[...]

          k =-0.3333 0.1925 0.0000 ( 27482 PWs)   bands (ev):

[...]

          k = 0.3333 0.1925 0.0000 ( 27482 PWs)   bands (ev):

    -9.0728  -8.1243  -8.1177  -8.0519  -7.6791  -7.5709  -7.4917  -7.2735
    -7.2670  -7.1196  -7.0061  -6.8563  -6.8482  -6.7911  -6.7729  -6.7728
    -6.7200  -6.6743  -6.6612  -6.6466  -6.5256  -6.4726  -6.4726  -6.3996
    -0.5926  -0.4699  -0.4590  -0.4320  -0.1597   0.0842   0.1053   0.3331
     0.3332   0.3985   0.4105   0.4351   0.4487   0.5718   0.6450   0.7547
     0.7547   0.8666   0.9044   0.9405   1.0914   1.4030   1.4451   1.6474
     1.6657   1.6667   1.7348   1.7358   1.7826   1.8165   1.9014   2.0289
     2.1178   2.1254   2.2024   2.2347   2.3372   2.3617   2.3621   2.3859
     2.4055   2.6241   2.6621   2.7071   2.7214   2.8724   2.9136   3.0474
     3.2009   3.2012   3.2270   3.2303   3.2325   3.3279   3.3419   3.4479
     3.5058   3.5082   3.6433   3.7891   3.7929   3.8163   3.8873   3.9114
     3.9888   4.1275   4.1330   4.1652   4.2105   4.2149   4.4376   4.4408
     4.5431   4.5985   4.6945   4.8532   4.8782   5.0112   5.0114   5.0246
     5.0299   5.0967   5.1839   5.2114   7.2455   7.3291   7.3519   7.4721
     7.4913   7.5611   7.5655   7.5708   7.5720   7.5887   7.5908   7.6095
     7.7020   7.7202   7.7555   7.9002   7.9106   7.9112   7.9849   7.9912
     7.9976   8.0719

     the Fermi energy is     6.7742 ev

!    total energy              =    -845.37353940 Ry
     Harris-Foulkes estimate   =    -845.37354014 Ry
     estimated scf accuracy    <       0.00000076 Ry

     The total energy is the sum of the following terms:

     one-electron contribution =    -847.77764262 Ry
     hartree contribution      =     540.04718682 Ry
     xc contribution           =    -334.69553344 Ry
     ewald contribution        =    -202.94428740 Ry
     smearing contrib. (-TS)   =      -0.00326276 Ry

     convergence has been achieved in  19 iterations

     Forces acting on atoms (cartesian axes, Ry/au):

     atom    1 type  1   force =     0.00014454   -0.00028753   -0.00074695
     atom    2 type  1   force =     0.00063995   -0.00018126   -0.00748980
     atom    3 type  1   force =    -0.00170681    0.00261681    0.01545913
     atom    4 type  1   force =    -0.00025929    0.00022118   -0.00100281
     atom    5 type  1   force =     0.00011949   -0.00109285   -0.00755226
     atom    6 type  1   force =    -0.00165147    0.00160970    0.01544346
     atom    7 type  1   force =     0.00024791   -0.00054641   -0.00768481
     atom    8 type  1   force =     0.00026074    0.00006528   -0.00073216
     atom    9 type  1   force =    -0.00017120    0.00002720   -0.00069462
     atom   10 type  1   force =     0.00080111   -0.00087832   -0.00766960
     atom   11 type  1   force =    -0.00255462    0.00115517    0.01545460
     atom   12 type  1   force =    -0.00250054    0.00209822    0.01544402
     atom   13 type  2   force =     0.00091198   -0.00069564   -0.00179894
     atom   14 type  2   force =     0.00475736   -0.00609902   -0.05111425
     atom   15 type  2   force =    -0.00534757    0.00568040    0.04577866
     atom   16 type  2   force =     0.00092675   -0.00098374   -0.00000589
     atom   17 type  2   force =     0.00011291    0.00009795   -0.00051848
     atom   18 type  2   force =    -0.00000851    0.00004949    0.00038297
     atom   19 type  2   force =     0.00084226   -0.00055865   -0.00159956
     atom   20 type  2   force =     0.00470549   -0.00571215   -0.05104559
     atom   21 type  2   force =    -0.00499263    0.00628237    0.04576475
     atom   22 type  2   force =     0.00125036   -0.00042750   -0.00000293
     atom   23 type  2   force =     0.00009065    0.00000238   -0.00058091
     atom   24 type  2   force =     0.00002165   -0.00002128    0.00040033
     atom   25 type  2   force =    -0.00503885    0.00590578    0.04558372
     atom   26 type  2   force =     0.00116099   -0.00074453    0.00017259
     atom   27 type  2   force =     0.00097852   -0.00058127   -0.00190324
     atom   28 type  2   force =     0.00500803   -0.00585361   -0.05120635
     atom   29 type  2   force =     0.00095498   -0.00057048   -0.00168899
     atom   30 type  2   force =     0.00499511   -0.00594551   -0.05101699
     atom   31 type  2   force =    -0.00545103    0.00613402    0.04557679
     atom   32 type  2   force =     0.00087667   -0.00058633    0.00012732
     atom   33 type  2   force =    -0.00002989   -0.00018117   -0.00049328
     atom   34 type  2   force =    -0.00002349    0.00000229    0.00043011
     atom   35 type  2   force =    -0.00002213    0.00004931   -0.00030733
     atom   36 type  2   force =    -0.00004941   -0.00005030    0.00083727

     Total force =     0.143273     Total SCF correction =     0.001852

     General routines

     Parallel routines

   This run was terminated on:   0:13:11  25Dec2021

   JOB DONE.