     Program PWSCF v.6.4 starts on 24Dec2021 at 23:14:57

     R & G space division:  proc/nbgrp/npool/nimage =      40
     Waiting for input...
     Reading input from standard input
Warning: card    &IONS ignored
Warning: card      ION_DYNAMICS = 'BFGS' ignored
Warning: card   / ignored
Warning: card    &CELL ignored
Warning: card      CELL_DYNAMICS = 'BFGS', ignored
Warning: card    / ignored

     Current dimensions of program PWSCF are:
     Max number of different atomic species (ntypx) = 10
     Max number of k-points (npk) =  40000
     Max angular momentum in pseudopotentials (lmaxx) =  3

     bravais-lattice index     =            0
     lattice parameter (alat)  =      18.3627  a.u.
     unit-cell volume          =    6766.2134 (a.u.)^3
     number of atoms/cell      =           48
     number of atomic types    =            2
     number of electrons       =       288.00
     number of Kohn-Sham states=          173
     kinetic-energy cutoff     =      45.0000  Ry
     charge density cutoff     =     360.0000  Ry
     convergence threshold     =      1.0E-06
     mixing beta               =       0.7000
     number of iterations used =            8  local-TF  mixing
     Exchange-correlation      = SLA PW GGX GGC ( 1  4  2  2 0 0)

     celldm(1)=  18.362741  celldm(2)=   0.000000  celldm(3)=   0.000000
     celldm(4)=   0.000000  celldm(5)=   0.000000  celldm(6)=   0.000000

     crystal axes: (cart. coord. in units of alat)
               a(1) = (   1.000000   0.000000   0.000000 )
               a(2) = (  -0.034505   1.038738   0.000000 )
               a(3) = (   0.082803   0.014298   1.052027 )

     reciprocal axes: (cart. coord. in units 2 pi/alat)
               b(1) = (  1.000000  0.033218 -0.079159 )
               b(2) = (  0.000000  0.962706 -0.013084 )
               b(3) = (  0.000000  0.000000  0.950546 )

     PseudoPot. # 1 for Mo read from file:
     ~/pseudo/Mo.pw91-n-van.UPF
     MD5 check sum: Not computed, couldn't open file
     Pseudo is Ultrasoft + core correction, Zval =  6.0
     Generated by new atomic code, or converted to UPF format
     Using radial grid of  965 points,  3 beta functions with:
                l(1) =   1
                l(2) =   2
                l(3) =   2
     Q(r) pseudized with  8 coefficients,  rinner =    1.000   1.000   1.000
                                                       1.200   1.200

     PseudoPot. # 2 for S  read from file:
     ~/pseudo/S.pw91-van_ak.UPF
     MD5 check sum: Not computed, couldn't open file
     Pseudo is Ultrasoft, Zval =  6.0
     Generated by new atomic code, or converted to UPF format
     Using radial grid of  811 points,  6 beta functions with:
                l(1) =   0
                l(2) =   0
                l(3) =   1
                l(4) =   1
                l(5) =   2
                l(6) =   2
     Q(r) pseudized with  8 coefficients,  rinner =    1.100   1.100   1.100
                                                       1.100   1.100

     atomic species   valence    mass     pseudopotential
        Mo             6.00    95.50000     Mo( 1.00)
        S              6.00    32.06500     S ( 1.00)

     No symmetry found

   Cartesian axes

     site n.     atom                  positions (alat units)
         1           Mo  tau(   1) = (   0.8992080   0.3161620   0.4402590  )
         2           Mo  tau(   2) = (   0.6757514   0.1319374   0.3986587  )
         3           Mo  tau(   3) = (   0.9133567   0.0759956   0.2032592  )
         4           Mo  tau(   4) = (   0.7664848   0.3077174   0.1711456  )
         5           Mo  tau(   5) = (   0.4096785   0.4495031   0.7598482  )
         6           Mo  tau(   6) = (   0.2173717   0.2345991   0.8914455  )
         7           Mo  tau(   7) = (   0.3982432   0.1660452   0.6492394  )
         8           Mo  tau(   8) = (   0.1422472   0.3649910   0.6468236  )
         9           Mo  tau(   9) = (   0.9064755   0.8465962   0.9453176  )
        10           Mo  tau(  10) = (   0.6808162   0.6898467   0.9970235  )
        11           Mo  tau(  11) = (   0.8408005   0.6350542   0.7305243  )
        12           Mo  tau(  12) = (   0.6225012   0.8406134   0.7400992  )
        13           Mo  tau(  13) = (   0.3542457   0.9015528   0.3423065  )
        14           Mo  tau(  14) = (   0.1377482   0.6756741   0.3490876  )
        15           Mo  tau(  15) = (   0.3534796   0.6832261   0.1482938  )
        16           Mo  tau(  16) = (   0.1156596   0.8792820   0.1481114  )
        17           S   tau(  17) = (   0.9130794   0.0748211   0.4476500  )
        18           S   tau(  18) = (   0.8662827   0.8852241   0.7009157  )
        19           S   tau(  19) = (   0.6736391   0.3803980   0.3811500  )
        20           S   tau(  20) = (   0.5969490   0.4141756   0.0156501  )
        21           S   tau(  21) = (   0.9604384   0.2511853   0.9757500  )
        22           S   tau(  22) = (   0.6501792   0.0935210   0.6513365  )
        23           S   tau(  23) = (   0.8901394   0.3775002   0.6829798  )
        24           S   tau(  24) = (   0.6059085   0.6037627   0.6535279  )
        25           S   tau(  25) = (   0.4620410   0.2438754   0.8784723  )
        26           S   tau(  26) = (   0.3558257   0.9276323   0.1068896  )
        27           S   tau(  27) = (   0.1902132   0.4751190   0.8638903  )
        28           S   tau(  28) = (   0.1250385   0.4212574   0.4031185  )
        29           S   tau(  29) = (   0.4181114   0.1070533   0.3963063  )
        30           S   tau(  30) = (   0.1171180   0.0780400   0.0514851  )
        31           S   tau(  31) = (   0.4126678   0.4335665   0.1228209  )
        32           S   tau(  32) = (   0.1133968   0.6346161   0.1114805  )
        33           S   tau(  33) = (   0.9127019   0.6099747   0.9619172  )
        34           S   tau(  34) = (   1.0037934   0.3119619   0.2060877  )
        35           S   tau(  35) = (   0.6769553   0.9342136   0.9589207  )
        36           S   tau(  36) = (   0.5951193   0.9087863   0.4108371  )
        37           S   tau(  37) = (   0.9085206   0.6326945   0.4725287  )
        38           S   tau(  38) = (   0.6106431   0.6906473   0.1869499  )
        39           S   tau(  39) = (   0.8600677   0.8710155   0.1451792  )
        40           S   tau(  40) = (   0.6740658   0.0897230   0.1532923  )
        41           S   tau(  41) = (   0.3731341   0.6647121   0.3972260  )
        42           S   tau(  42) = (   0.3706044   0.3818757   0.5319436  )
        43           S   tau(  43) = (   0.1203113   0.9117416   0.3994761  )
        44           S   tau(  44) = (   0.1519426   0.8797892   0.9344028  )
        45           S   tau(  45) = (   0.4509057   0.6666434   0.9131606  )
        46           S   tau(  46) = (   0.0725920   0.6430049   0.6143997  )
        47           S   tau(  47) = (   0.3999839   0.9399109   0.6681317  )
        48           S   tau(  48) = (   0.1588309   0.1228027   0.6877425  )

     number of k points=     8  Marzari-Vanderbilt smearing, width (Ry)=  0.0200
                       cart. coord. in units 2pi/alat
        k(    1) = (   0.0000000   0.0000000   0.0000000), wk =   0.2500000
        k(    2) = (   0.0000000   0.0000000  -0.4752729), wk =   0.2500000
        k(    3) = (   0.0000000  -0.4813531   0.0065418), wk =   0.2500000
        k(    4) = (   0.0000000  -0.4813531  -0.4687311), wk =   0.2500000
        k(    5) = (  -0.5000000  -0.0166090   0.0395795), wk =   0.2500000
        k(    6) = (  -0.5000000  -0.0166090  -0.4356934), wk =   0.2500000
        k(    7) = (  -0.5000000  -0.4979621   0.0461213), wk =   0.2500000
        k(    8) = (  -0.5000000  -0.4979621  -0.4291515), wk =   0.2500000

     Initial potential from superposition of free atoms

     starting charge  287.97477, renormalised to  288.00000
     Starting wfcs are  272 randomized atomic wfcs

     Self-consistent Calculation

     iteration #  1     ecut=    45.00 Ry     beta= 0.70
     Davidson diagonalization with overlap
     ethr =  1.00E-02,  avg # of iterations =  2.0

     total energy              =   -1123.76510737 Ry
     Harris-Foulkes estimate   =   -1127.45505636 Ry
     estimated scf accuracy    <       9.89248585 Ry

[...]

     total energy              =   -1125.68658647 Ry
     Harris-Foulkes estimate   =   -1125.68658661 Ry
     estimated scf accuracy    <       0.00000113 Ry

     iteration # 14     ecut=    45.00 Ry     beta= 0.70
     Davidson diagonalization with overlap
     ethr =  3.91E-10,  avg # of iterations =  1.8

     End of self-consistent calculation

          k = 0.0000 0.0000 0.0000 ( 34537 PWs)   bands (ev):

    -9.0300  -8.1646  -7.7519  -7.1789  -7.0701  -6.8894  -6.7683  -6.6947
    -6.6082  -6.5608  -6.4459  -6.4065  -6.3797  -6.3261  -6.3203  -6.2612
    -6.2404  -6.2387  -6.1207  -6.0250  -5.9600  -5.9045  -5.7846  -5.6665
    -5.5411  -5.4665  -5.0929  -4.9956  -4.9421  -4.8101  -4.7920  -4.1492
     0.2984   0.5148   0.6276   0.7311   0.8477   0.9599   1.0508   1.1124
     1.1441   1.2003   1.2398   1.3273   1.3685   1.4812   1.4985   1.6007
     1.6382   1.7197   1.7463   1.8054   1.8616   1.8939   1.9578   2.0078
     2.0901   2.1065   2.1736   2.2117   2.2318   2.3142   2.3735   2.3922
     2.4728   2.4846   2.5345   2.5712   2.6082   2.6293   2.7041   2.7551
     2.7861   2.7932   2.8232   2.8462   2.8742   2.8985   2.9389   2.9685
     3.0130   3.0586   3.0865   3.1233   3.1371   3.1748   3.2309   3.2969
     3.3323   3.3806   3.4509   3.5002   3.5090   3.5801   3.6003   3.6503
     3.6953   3.7475   3.8836   3.9855   4.0009   4.0168   4.0861   4.1004
     4.1770   4.2395   4.3053   4.3628   4.4259   4.4937   4.5779   4.5860
     4.7057   4.7343   4.8057   4.9879   5.0161   5.0844   5.1263   5.2550
     5.2914   5.3314   5.4127   5.4378   5.4948   5.6166   5.6639   5.7163
     5.7682   5.8254   5.9156   5.9769   5.9895   6.1420   6.1820   6.2402
     6.3416   6.3955   6.4054   6.5085   6.5589   6.6260   6.6707   6.7119
     6.8166   6.8511   6.9398   7.0368   7.1263   7.2429   7.2886   7.3309
     7.4120   7.5327   7.6025   7.6799   7.7406   7.8815   7.9189   7.9444
     8.0375   8.1446   8.1913   8.2489   8.3049   8.3304   8.4343   8.4932
     8.5370   8.5504   8.6205   8.6550   8.7410

[...]

          k = 0.0000-0.4814-0.4687 ( 34504 PWs)   bands (ev):

[...]

          k =-0.5000-0.0166 0.0396 ( 34462 PWs)   bands (ev):

[...]

          k =-0.5000-0.4980-0.4292 ( 34464 PWs)   bands (ev):

    -9.0245  -8.1464  -7.7400  -7.1801  -6.9857  -6.9653  -6.8597  -6.7267
    -6.7016  -6.5800  -6.4770  -6.4191  -6.3790  -6.3308  -6.3056  -6.2557
    -6.2089  -6.1330  -6.0932  -6.0427  -5.9516  -5.8784  -5.7542  -5.6654
    -5.5110  -5.4647  -5.0951  -4.9940  -4.9289  -4.8390  -4.7701  -4.1465
     0.2604   0.5894   0.6642   0.8268   0.9595   1.0077   1.0468   1.2023
     1.2525   1.2663   1.2842   1.3209   1.3666   1.4315   1.5028   1.5549
     1.6022   1.6471   1.6944   1.7457   1.8131   1.8431   1.9061   1.9390
     1.9750   2.0482   2.0876   2.1176   2.1961   2.2419   2.2996   2.3496
     2.3767   2.4281   2.4864   2.5034   2.5915   2.5933   2.6310   2.6507
     2.6872   2.7195   2.7537   2.8009   2.8386   2.8793   2.9278   2.9545
     2.9688   3.0516   3.0888   3.1483   3.1852   3.2265   3.3025   3.3578
     3.3881   3.4376   3.4577   3.4850   3.5492   3.5779   3.6410   3.6839
     3.8128   3.8335   3.9319   3.9852   4.0324   4.0990   4.1589   4.1781
     4.2579   4.3697   4.4093   4.4426   4.4975   4.5939   4.6309   4.7124
     4.8036   4.8319   4.9167   4.9728   5.0263   5.1368   5.1524   5.2288
     5.2811   5.3242   5.3568   5.3993   5.4749   5.6092   5.6698   5.7017
     5.7818   5.8072   5.9192   5.9601   6.0084   6.0586   6.1491   6.2564
     6.3173   6.3878   6.4417   6.5046   6.5838   6.6301   6.6611   6.7110
     6.7694   6.8214   6.8650   7.0184   7.1265   7.2084   7.2321   7.2796
     7.4222   7.4851   7.5685   7.6346   7.7340   7.8281   7.9243   7.9749
     8.0078   8.0936   8.1506   8.2188   8.3083   8.3435   8.3948   8.4474
     8.4640   8.5179   8.5586   8.7114   8.7558

     the Fermi energy is     6.7794 ev

!    total energy              =   -1125.68658631 Ry
     Harris-Foulkes estimate   =   -1125.68658659 Ry
     estimated scf accuracy    <       0.00000037 Ry

     The total energy is the sum of the following terms:

     one-electron contribution =     -15.60467274 Ry
     hartree contribution      =     171.93679975 Ry
     xc contribution           =    -444.84080079 Ry
     ewald contribution        =    -837.17510320 Ry
     smearing contrib. (-TS)   =      -0.00280933 Ry

     convergence has been achieved in  14 iterations

     Forces acting on atoms (cartesian axes, Ry/au):

     atom    1 type  1   force =     0.01688173    0.03348494   -0.02640561
     atom    2 type  1   force =    -0.00431684   -0.03692411   -0.00431060
     atom    3 type  1   force =     0.03233218   -0.00922610   -0.01827414
     atom    4 type  1   force =     0.00828356    0.02758424   -0.03570390
     atom    5 type  1   force =     0.00125582    0.00529202    0.02679932
     atom    6 type  1   force =    -0.00602078    0.00809637    0.03560726
     atom    7 type  1   force =     0.02395252    0.00120219   -0.01925445
     atom    8 type  1   force =     0.02954510    0.06466604   -0.00332263
     atom    9 type  1   force =     0.05088079    0.01206573   -0.06519751
     atom   10 type  1   force =     0.00460274   -0.06477182    0.05650204
     atom   11 type  1   force =    -0.03287925    0.04864740   -0.00774713
     atom   12 type  1   force =     0.00280993    0.04800863   -0.03051923
     atom   13 type  1   force =    -0.01374769    0.00027656    0.04816176
     atom   14 type  1   force =     0.01309751    0.00146908    0.02836444
     atom   15 type  1   force =     0.04851394   -0.01548111   -0.02659026
     atom   16 type  1   force =     0.00421927    0.00007763   -0.01861448
     atom   17 type  2   force =    -0.00004665   -0.02346438    0.01894707
     atom   18 type  2   force =    -0.01442903   -0.01971476    0.00737057
     atom   19 type  2   force =    -0.04235098    0.02962494    0.04471066
     atom   20 type  2   force =    -0.03017898    0.01354316    0.00111058
     atom   21 type  2   force =     0.00682917   -0.00778075    0.00523289
     atom   22 type  2   force =    -0.00407434   -0.00945367    0.00089756
     atom   23 type  2   force =    -0.00295873    0.00222545    0.00758959
     atom   24 type  2   force =    -0.00672073    0.00193675    0.01130927
     atom   25 type  2   force =     0.00696799   -0.00061618    0.00119025
     atom   26 type  2   force =     0.01426994    0.00702155   -0.02520572
     atom   27 type  2   force =    -0.01107225   -0.00997314   -0.00617593
     atom   28 type  2   force =     0.03095935   -0.02607127   -0.02346443
     atom   29 type  2   force =    -0.00821977    0.01192672   -0.01611545
     atom   30 type  2   force =     0.00918487   -0.00540787    0.00713871
     atom   31 type  2   force =    -0.00878673   -0.01689717    0.00605885
     atom   32 type  2   force =    -0.01859413   -0.00274477    0.00745385
     atom   33 type  2   force =     0.00488967   -0.01848968    0.01724529
     atom   34 type  2   force =    -0.02113717   -0.00697896   -0.00970060
     atom   35 type  2   force =    -0.02125831    0.01726066    0.01428670
     atom   36 type  2   force =     0.00850309    0.00393033    0.01053132
     atom   37 type  2   force =    -0.00777131   -0.00603082   -0.01004061
     atom   38 type  2   force =    -0.01350591    0.01140096   -0.04011691
     atom   39 type  2   force =    -0.00457148    0.01816709   -0.00417433
     atom   40 type  2   force =     0.00037712   -0.02248975    0.00185100
     atom   41 type  2   force =     0.01361868   -0.01836061   -0.00654169
     atom   42 type  2   force =     0.02313052   -0.00977521    0.02918519
     atom   43 type  2   force =    -0.03480842    0.02727638   -0.00065511
     atom   44 type  2   force =    -0.02597720   -0.00092975    0.00567936
     atom   45 type  2   force =    -0.00048419    0.00754028    0.00464557
     atom   46 type  2   force =     0.01754487   -0.02738092    0.00050815
     atom   47 type  2   force =    -0.01346551   -0.01482102    0.00806911
     atom   48 type  2   force =    -0.02527400   -0.02894128   -0.00831563

     Total force =     0.263453     Total SCF correction =     0.001200

     General routines

     Parallel routines

   This run was terminated on:  23:19: 9  24Dec2021

   JOB DONE.