     Program PWSCF v.6.4 starts on 12Aug2021 at 13: 7:19

     R & G space division:  proc/nbgrp/npool/nimage =      40
     Waiting for input...
     Reading input from standard input
Warning: card    &IONS ignored
Warning: card      ION_DYNAMICS = 'BFGS' ignored
Warning: card   / ignored
Warning: card    &CELL ignored
Warning: card      CELL_DYNAMICS = 'BFGS', ignored
Warning: card    / ignored

     Current dimensions of program PWSCF are:
     Max number of different atomic species (ntypx) = 10
     Max number of k-points (npk) =  40000
     Max angular momentum in pseudopotentials (lmaxx) =  3

     bravais-lattice index     =            0
     lattice parameter (alat)  =      12.7579  a.u.
     unit-cell volume          =    6714.5570 (a.u.)^3
     number of atoms/cell      =           24
     number of atomic types    =            2
     number of electrons       =       144.00
     number of Kohn-Sham states=           86
     kinetic-energy cutoff     =      45.0000  Ry
     charge density cutoff     =     360.0000  Ry
     convergence threshold     =      1.0E-06
     mixing beta               =       0.7000
     number of iterations used =            8  local-TF  mixing
     Exchange-correlation      = SLA PW GGX GGC ( 1  4  2  2 0 0)

     celldm(1)=  12.757897  celldm(2)=   0.000000  celldm(3)=   0.000000
     celldm(4)=   0.000000  celldm(5)=   0.000000  celldm(6)=   0.000000

     crystal axes: (cart. coord. in units of alat)
               a(1) = (   0.999561  -0.003486  -0.029436 )
               a(2) = (  -0.551384   0.883220   0.013117 )
               a(3) = (  -0.088019  -0.268341   3.674243 )

     reciprocal axes: (cart. coord. in units 2 pi/alat)
               b(1) = (  1.004679  0.626173  0.069799 )
               b(2) = (  0.006404  1.134986  0.083045 )
               b(3) = (  0.008026  0.000965  0.272428 )

     PseudoPot. # 1 for Mo read from file:
     ~/pseudo/Mo.pw91-n-van.UPF
     MD5 check sum: Not computed, couldn't open file
     Pseudo is Ultrasoft + core correction, Zval =  6.0
     Generated by new atomic code, or converted to UPF format
     Using radial grid of  965 points,  3 beta functions with:
                l(1) =   1
                l(2) =   2
                l(3) =   2
     Q(r) pseudized with  8 coefficients,  rinner =    1.000   1.000   1.000
                                                       1.200   1.200

     PseudoPot. # 2 for S  read from file:
     ~/pseudo/S.pw91-van_ak.UPF
     MD5 check sum: Not computed, couldn't open file
     Pseudo is Ultrasoft, Zval =  6.0
     Generated by new atomic code, or converted to UPF format
     Using radial grid of  811 points,  6 beta functions with:
                l(1) =   0
                l(2) =   0
                l(3) =   1
                l(4) =   1
                l(5) =   2
                l(6) =   2
     Q(r) pseudized with  8 coefficients,  rinner =    1.100   1.100   1.100
                                                       1.100   1.100

     atomic species   valence    mass     pseudopotential
        Mo             6.00    95.50000     Mo( 1.00)
        S              6.00    32.06500     S ( 1.00)

     No symmetry found

   Cartesian axes

     site n.     atom                  positions (alat units)
         1           Mo  tau(   1) = (   0.2418961   0.1293416   0.6424238  )
         2           Mo  tau(   2) = (  -0.0399571   0.5573288   0.5249923  )
         3           Mo  tau(   3) = (   0.7318582   0.1299670   0.4970646  )
         4           Mo  tau(   4) = (   0.5360442   0.5503884   0.6376233  )
         5           Mo  tau(   5) = (  -0.1005230   0.0595920   3.0819279  )
         6           Mo  tau(   6) = (  -0.4197310   0.5518142   3.1083168  )
         7           Mo  tau(   7) = (   0.4006394   0.1094227   3.0759399  )
         8           Mo  tau(   8) = (   0.1349985   0.5806654   3.0805919  )
         9           S   tau(   9) = (  -0.0328103  -0.0100941   0.8016939  )
        10           S   tau(  10) = (  -0.1732493   0.6191498   0.8666801  )
        11           S   tau(  11) = (   0.5495631   0.2318937   0.8015151  )
        12           S   tau(  12) = (   0.2127731   0.4640198   0.7583383  )
        13           S   tau(  13) = (  -0.0768643  -0.1945722   3.3384673  )
        14           S   tau(  14) = (  -0.3488683   0.2478862   3.3267767  )
        15           S   tau(  15) = (   0.4256932  -0.1863434   3.2971740  )
        16           S   tau(  16) = (   0.1388952   0.2511459   3.2930933  )
        17           S   tau(  17) = (   0.0516360   0.2410807   0.3498486  )
        18           S   tau(  18) = (  -0.1122775   0.8805304   0.3740107  )
        19           S   tau(  19) = (   0.6599296   0.4261558   0.3173614  )
        20           S   tau(  20) = (   0.2727689   0.6872945   0.3595460  )
        21           S   tau(  21) = (   0.1597553  -0.0537337   2.8524554  )
        22           S   tau(  22) = (  -0.1232064   0.4086938   2.8720994  )
        23           S   tau(  23) = (   0.6594937  -0.0348624   2.8178641  )
        24           S   tau(  24) = (   0.3807159   0.4010228   2.8451815  )

     number of k points=     5  Marzari-Vanderbilt smearing, width (Ry)=  0.0200
                       cart. coord. in units 2pi/alat
        k(    1) = (   0.0000000   0.0000000   0.0000000), wk =   0.2222222
        k(    2) = (   0.0021347   0.3783285   0.0276816), wk =   0.4444444
        k(    3) = (   0.3348930   0.2087243   0.0232664), wk =   0.4444444
        k(    4) = (   0.3370277   0.5870528   0.0509480), wk =   0.4444444
        k(    5) = (   0.3327583  -0.1696042  -0.0044152), wk =   0.4444444

     Initial potential from superposition of free atoms

     starting charge  143.98738, renormalised to  144.00000

     negative rho (up, down):  7.270E-04 0.000E+00
     Starting wfcs are  136 randomized atomic wfcs

     Self-consistent Calculation

     iteration #  1     ecut=    45.00 Ry     beta= 0.70
     Davidson diagonalization with overlap
     ethr =  1.00E-02,  avg # of iterations =  2.0

     negative rho (up, down):  2.274E-04 0.000E+00

     total energy              =    -561.80758123 Ry
     Harris-Foulkes estimate   =    -564.09650214 Ry
     estimated scf accuracy    <       6.54695424 Ry

[...]

     total energy              =    -563.02016424 Ry
     Harris-Foulkes estimate   =    -563.02016451 Ry
     estimated scf accuracy    <       0.00000342 Ry

     iteration # 20     ecut=    45.00 Ry     beta= 0.70
     Davidson diagonalization with overlap
     ethr =  2.01E-09,  avg # of iterations =  1.0

[...]

     End of self-consistent calculation

          k = 0.0000 0.0000 0.0000 ( 34241 PWs)   bands (ev):

   -13.7752 -13.0496 -12.9401 -12.3316 -12.2289 -12.1920 -12.1863 -11.9888
   -11.9642 -11.8942 -11.7626 -11.7397 -11.6310 -11.4586 -11.3342 -10.7778
    -5.7006  -5.0481  -5.0168  -4.9336  -4.8835  -4.7958  -4.6304  -4.6119
    -4.4785  -4.3669  -4.3159  -3.7463  -3.7054  -3.5635  -3.5276  -3.4651
    -3.3937  -3.3242  -3.2927  -3.2600  -3.2276  -3.1616  -3.1366  -3.0237
    -3.0009  -2.7817  -2.7218  -2.6805  -2.4644  -2.2271  -2.1889  -2.1670
    -2.0559  -1.7749  -1.6112  -1.5900  -1.4814  -1.4582  -1.3858  -1.2495
    -1.1231  -1.0643  -0.9481  -0.9443  -0.6901  -0.6301  -0.4593  -0.2948
    -0.2244  -0.1747   0.0669   0.2163   0.2674   0.3188   0.4268   0.4390
     0.6242   0.6563   0.8353   1.1315   1.2721   1.4837   1.5326   1.7141
     1.8276   1.8720   1.9403   2.1143   2.1696   2.5807

[...]

          k = 0.3328-0.1696-0.0044 ( 34245 PWs)   bands (ev):

   -13.5036 -12.9548 -12.7823 -12.5421 -12.4465 -12.2849 -12.2208 -12.0514
   -12.0377 -11.8996 -11.8258 -11.6357 -11.5407 -11.4935 -11.4605 -10.8366
    -5.2586  -5.1702  -4.8413  -4.6387  -4.5411  -4.4501  -4.3934  -4.3363
    -4.2948  -4.0956  -4.0559  -3.9837  -3.9818  -3.8657  -3.7338  -3.6848
    -3.6532  -3.3780  -3.2421  -3.0781  -3.0468  -3.0000  -2.9815  -2.8345
    -2.8244  -2.7870  -2.5630  -2.5570  -2.4234  -2.3646  -2.3178  -2.2214
    -2.1314  -2.0462  -1.9794  -1.8506  -1.7633  -1.7546  -1.6282  -1.5088
    -1.4408  -1.2947  -1.2366  -1.1574  -1.1355  -0.7682  -0.5440  -0.4192
    -0.2545  -0.2047  -0.0957   0.0031   0.2291   0.3880   0.3952   0.6439
     0.8436   0.9720   1.1346   1.4247   1.5171   1.5195   1.5901   1.6963
     1.7704   1.9401   2.0006   2.0797   2.2467   2.3644

     the Fermi energy is     0.6066 ev

!    total energy              =    -563.02016502 Ry
     Harris-Foulkes estimate   =    -563.02016441 Ry
     estimated scf accuracy    <       0.00000027 Ry

     The total energy is the sum of the following terms:

     one-electron contribution =   -2630.46763822 Ry
     hartree contribution      =    1365.24771436 Ry
     xc contribution           =    -221.54196158 Ry
     ewald contribution        =     923.73869114 Ry
     smearing contrib. (-TS)   =       0.00302929 Ry

     convergence has been achieved in  20 iterations

     negative rho (up, down):  1.035E-03 0.000E+00

     Forces acting on atoms (cartesian axes, Ry/au):

     atom    1 type  1   force =     0.02827758   -0.01608836    0.00329873
     atom    2 type  1   force =    -0.01108014    0.01146138   -0.01927441
     atom    3 type  1   force =     0.03583346   -0.02925601    0.02711868
     atom    4 type  1   force =     0.00535697   -0.01599091   -0.04923064
     atom    5 type  1   force =     0.01477680    0.01207100    0.00633499
     atom    6 type  1   force =     0.02792618    0.03599132   -0.00710475
     atom    7 type  1   force =    -0.00295203   -0.01107860    0.03065707
     atom    8 type  1   force =     0.00384228   -0.00449909   -0.04300459
     atom    9 type  2   force =     0.00168959    0.01527768   -0.01042539
     atom   10 type  2   force =    -0.02658663    0.03335313   -0.06027674
     atom   11 type  2   force =     0.02373338   -0.01367639   -0.01001205
     atom   12 type  2   force =    -0.01840691   -0.02201534    0.01786804
     atom   13 type  2   force =     0.00175887    0.01752718    0.03241408
     atom   14 type  2   force =     0.00554040    0.00737700   -0.04661838
     atom   15 type  2   force =    -0.00102136   -0.00237057   -0.02210919
     atom   16 type  2   force =     0.01686457    0.00473221   -0.02839155
     atom   17 type  2   force =    -0.00761250    0.01169041    0.03365301
     atom   18 type  2   force =    -0.02643972   -0.01806687   -0.00147596
     atom   19 type  2   force =     0.00210336    0.03754992    0.03382973
     atom   20 type  2   force =    -0.00565279    0.00526404    0.03497068
     atom   21 type  2   force =    -0.00915940   -0.00242309    0.01199765
     atom   22 type  2   force =    -0.00345464   -0.02160536    0.05076484
     atom   23 type  2   force =    -0.02395010   -0.01488729    0.02375151
     atom   24 type  2   force =    -0.03138720   -0.02033742   -0.00873534

     Total force =     0.195199     Total SCF correction =     0.001096

     General routines

     Parallel routines

   This run was terminated on:  13: 8:59  12Aug2021

   JOB DONE.