     Program PWSCF v.6.4 starts on 19Nov2021 at 19:25:58

     R & G space division:  proc/nbgrp/npool/nimage =      40
     Waiting for input...
     Reading input from standard input
Warning: card    &IONS ignored
Warning: card      ION_DYNAMICS = 'BFGS' ignored
Warning: card   / ignored
Warning: card    &CELL ignored
Warning: card      CELL_DYNAMICS = 'BFGS', ignored
Warning: card    / ignored

     Current dimensions of program PWSCF are:
     Max number of different atomic species (ntypx) = 10
     Max number of k-points (npk) =  40000
     Max angular momentum in pseudopotentials (lmaxx) =  3

     bravais-lattice index     =            0
     lattice parameter (alat)  =      11.9631  a.u.
     unit-cell volume          =    7156.5895 (a.u.)^3
     number of atoms/cell      =           36
     number of atomic types    =            2
     number of electrons       =       216.00
     number of Kohn-Sham states=          130
     kinetic-energy cutoff     =      45.0000  Ry
     charge density cutoff     =     360.0000  Ry
     convergence threshold     =      1.0E-06
     mixing beta               =       0.7000
     number of iterations used =            8  local-TF  mixing
     Exchange-correlation      = SLA PW GGX GGC ( 1  4  2  2 0 0)

     celldm(1)=  11.963131  celldm(2)=   0.000000  celldm(3)=   0.000000
     celldm(4)=   0.000000  celldm(5)=   0.000000  celldm(6)=   0.000000

     crystal axes: (cart. coord. in units of alat)
               a(1) = (   1.000000   0.000000   0.000000 )
               a(2) = (  -0.014451   1.763914   0.000000 )
               a(3) = (  -0.431087  -0.545184   2.369704 )

     reciprocal axes: (cart. coord. in units 2 pi/alat)
               b(1) = (  1.000000  0.008192  0.183801 )
               b(2) = (  0.000000  0.566921  0.130428 )
               b(3) = (  0.000000  0.000000  0.421994 )

     PseudoPot. # 1 for Mo read from file:
     ~/pseudo/Mo.pw91-n-van.UPF
     MD5 check sum: Not computed, couldn't open file
     Pseudo is Ultrasoft + core correction, Zval =  6.0
     Generated by new atomic code, or converted to UPF format
     Using radial grid of  965 points,  3 beta functions with:
                l(1) =   1
                l(2) =   2
                l(3) =   2
     Q(r) pseudized with  8 coefficients,  rinner =    1.000   1.000   1.000
                                                       1.200   1.200

     PseudoPot. # 2 for S  read from file:
     ~/pseudo/S.pw91-van_ak.UPF
     MD5 check sum: Not computed, couldn't open file
     Pseudo is Ultrasoft, Zval =  6.0
     Generated by new atomic code, or converted to UPF format
     Using radial grid of  811 points,  6 beta functions with:
                l(1) =   0
                l(2) =   0
                l(3) =   1
                l(4) =   1
                l(5) =   2
                l(6) =   2
     Q(r) pseudized with  8 coefficients,  rinner =    1.100   1.100   1.100
                                                       1.100   1.100

     atomic species   valence    mass     pseudopotential
        Mo             6.00    95.50000     Mo( 1.00)
        S              6.00    32.06500     S ( 1.00)

     No symmetry found

   Cartesian axes

     site n.     atom                  positions (alat units)
         1           Mo  tau(   1) = (   0.2340276   0.8466665   1.5651799  )
         2           Mo  tau(   2) = (   0.4888426   0.4071716   1.5638745  )
         3           Mo  tau(   3) = (  -0.2640962   0.8483140   1.5671740  )
         4           Mo  tau(   4) = (  -0.0077164   0.4071950   1.5615954  )
         5           Mo  tau(   5) = (  -0.2558727  -0.0372878   1.5558315  )
         6           Mo  tau(   6) = (   0.2442628  -0.0343415   1.5542248  )
         7           Mo  tau(   7) = (  -0.0179208   1.2897675   1.5595292  )
         8           Mo  tau(   8) = (   0.4832920   1.2894349   1.5605677  )
         9           Mo  tau(   9) = (   0.8545859   0.4864486   0.3234459  )
        10           Mo  tau(  10) = (   0.3659950   0.5535238   0.2888539  )
        11           Mo  tau(  11) = (   0.5201654   0.6535984   0.6322779  )
        12           Mo  tau(  12) = (   0.0057029   0.7140614   0.6037595  )
        13           S   tau(  13) = (   0.4837038   0.6992247   1.8178839  )
        14           S   tau(  14) = (   0.2311579   1.1421781   1.8131053  )
        15           S   tau(  15) = (  -0.0148047   0.6973391   1.8181572  )
        16           S   tau(  16) = (  -0.2679499   1.1440094   1.8145829  )
        17           S   tau(  17) = (   0.2437434   0.6389989   0.8792440  )
        18           S   tau(  18) = (   0.8112994   0.3999557   0.6870386  )
        19           S   tau(  19) = (   0.4876305   0.7013401   1.3151161  )
        20           S   tau(  20) = (   0.2344093   1.1393493   1.3119771  )
        21           S   tau(  21) = (  -0.0156844   0.7016157   1.3125820  )
        22           S   tau(  22) = (   0.7336344   1.1391255   1.3104290  )
        23           S   tau(  23) = (   0.3074914   0.8974516   0.4378662  )
        24           S   tau(  24) = (   0.7448113   0.9194786   0.7618491  )
        25           S   tau(  25) = (  -0.2588320   0.2553119   1.8094740  )
        26           S   tau(  26) = (   0.2397044   0.2545995   1.8133036  )
        27           S   tau(  27) = (   0.7415586   0.2586297   1.3116160  )
        28           S   tau(  28) = (   0.2431600   0.2611935   1.3079534  )
        29           S   tau(  29) = (  -0.0040515  -0.1849514   1.3036649  )
        30           S   tau(  30) = (   0.4957883  -0.1859193   1.3040218  )
        31           S   tau(  31) = (   0.5595116   0.3039775   0.4957804  )
        32           S   tau(  32) = (   0.1337697   0.2794773   0.1939937  )
        33           S   tau(  33) = (  -0.0055830  -0.1807816   1.8085600  )
        34           S   tau(  34) = (   0.4922261  -0.1806059   1.8090464  )
        35           S   tau(  35) = (   0.6318093   0.5522605   0.0333042  )
        36           S   tau(  36) = (   0.0639543   0.7914075   0.2408790  )

     number of k points=     4  Marzari-Vanderbilt smearing, width (Ry)=  0.0200
                       cart. coord. in units 2pi/alat
        k(    1) = (   0.0000000   0.0000000   0.0000000), wk =   0.3333333
        k(    2) = (   0.0000000  -0.2834606  -0.0652141), wk =   0.3333333
        k(    3) = (   0.3333333   0.0027308   0.0612668), wk =   0.6666667
        k(    4) = (   0.3333333  -0.2807298  -0.0039472), wk =   0.6666667

     Initial potential from superposition of free atoms

     starting charge  215.98107, renormalised to  216.00000

     negative rho (up, down):  1.230E-06 0.000E+00
     Starting wfcs are  204 randomized atomic wfcs

     Self-consistent Calculation

     iteration #  1     ecut=    45.00 Ry     beta= 0.70
     Davidson diagonalization with overlap
     ethr =  1.00E-02,  avg # of iterations =  2.0

     total energy              =    -843.69279044 Ry
     Harris-Foulkes estimate   =    -846.02810033 Ry
     estimated scf accuracy    <       6.00349567 Ry

[...]

     iteration #  5     ecut=    45.00 Ry     beta= 0.70
     Davidson diagonalization with overlap
     c_bands:  1 eigenvalues not converged
     ethr =  3.87E-05,  avg # of iterations =  7.5

[...]

     negative rho (up, down):  1.275E-05 0.000E+00

[...]

     iteration # 14     ecut=    45.00 Ry     beta= 0.70
     Davidson diagonalization with overlap
     c_bands:  1 eigenvalues not converged
     ethr =  8.57E-08,  avg # of iterations =  7.8

[...]

     total energy              =    -844.83359369 Ry
     Harris-Foulkes estimate   =    -844.83359498 Ry
     estimated scf accuracy    <       0.00000368 Ry

     iteration # 17     ecut=    45.00 Ry     beta= 0.70
     Davidson diagonalization with overlap
     ethr =  1.70E-09,  avg # of iterations =  3.0

[...]

     End of self-consistent calculation

          k = 0.0000 0.0000 0.0000 ( 36479 PWs)   bands (ev):

   -13.1520 -12.7879 -11.3407 -10.5744 -10.5667 -10.1852  -9.8351  -9.8039
    -9.5859  -9.5463  -9.5375  -9.5223  -9.4993  -9.4871  -9.3712  -9.3109
    -9.2961  -9.2760  -9.2618  -9.2548  -9.0709  -9.0207  -8.9941  -8.8094
    -3.5048  -3.1332  -2.9983  -2.9796  -2.9610  -2.8303  -2.7207  -2.6714
    -2.4358  -2.3771  -2.3598  -2.3430  -2.2039  -2.1697  -2.1391  -2.1282
    -2.0817  -2.0635  -2.0345  -1.6515  -1.3693  -1.3427  -1.3193  -1.2026
    -1.1038  -1.0776  -0.9383  -0.8714  -0.8206  -0.8169  -0.7064  -0.6243
    -0.6077  -0.5796  -0.5455  -0.4762  -0.4687  -0.3748  -0.2346  -0.2192
    -0.1994  -0.1165  -0.1029  -0.0274  -0.0108   0.0953   0.1744   0.2466
     0.2993   0.3885   0.4287   0.4417   0.5392   0.7033   0.7880   0.8498
     0.9579   1.0129   1.0343   1.0538   1.1036   1.1248   1.2302   1.2722
     1.3413   1.3832   1.4111   1.7284   1.8152   1.8777   1.8886   1.9474
     1.9759   2.0377   2.0797   2.1308   2.1992   2.3103   2.3152   2.4936
     2.5399   2.6023   3.2560   3.2743   3.4633   3.6510   3.7426   4.1135
     4.1508   4.6539   4.7269   4.7462   4.7747   4.7991   4.8112   4.8346
     4.9815   5.0394   5.0520   5.1625   5.2823   5.3126   5.3235   5.3339
     5.4038   5.4103

[...]

          k = 0.3333-0.2807-0.0039 ( 36478 PWs)   bands (ev):

   -13.0570 -12.8745 -10.8593 -10.8501 -10.1791 -10.1623  -9.9530  -9.9376
    -9.7504  -9.7270  -9.6106  -9.5881  -9.4580  -9.4345  -9.4250  -9.3977
    -9.3666  -9.2489  -9.2258  -9.2052  -9.1524  -9.0942  -8.9778  -8.8642
    -3.4035  -3.2230  -2.6887  -2.6176  -2.4372  -2.4148  -2.3842  -2.3705
    -2.3542  -2.3244  -2.3140  -2.3111  -2.2878  -2.2638  -2.2459  -2.1423
    -1.8525  -1.8251  -1.5703  -1.3399  -1.2685  -1.2024  -1.1459  -1.1108
    -1.0729  -1.0670  -1.0567  -1.0255  -0.8668  -0.7307  -0.7061  -0.6603
    -0.6324  -0.5457  -0.4906  -0.4720  -0.4628  -0.4228  -0.4019  -0.3425
    -0.2424  -0.1737  -0.1351  -0.0994  -0.0820  -0.0569  -0.0122   0.0105
     0.1179   0.2686   0.3496   0.4359   0.4715   0.4890   0.5511   0.6559
     0.7181   0.7513   0.7901   0.8171   0.8645   1.0786   1.0991   1.1194
     1.1948   1.2215   1.2510   1.2879   1.6158   1.6691   1.7419   1.7798
     1.9332   2.0336   2.0928   2.1307   2.2165   2.2441   2.3850   2.4051
     2.5490   2.8652   2.9464   3.1730   3.6534   3.9315   4.0420   4.1801
     4.4347   4.6228   4.6667   4.6891   4.7085   4.7262   4.7645   4.7780
     4.8002   4.8505   4.9627   4.9876   5.0594   5.0870   5.1072   5.1203
     5.1858   5.2190

     the Fermi energy is     3.3927 ev

!    total energy              =    -844.83359377 Ry
     Harris-Foulkes estimate   =    -844.83359437 Ry
     estimated scf accuracy    <       0.00000085 Ry

     The total energy is the sum of the following terms:

     one-electron contribution =   -1146.46111639 Ry
     hartree contribution      =     667.67470892 Ry
     xc contribution           =    -334.45736767 Ry
     ewald contribution        =     -31.59208576 Ry
     smearing contrib. (-TS)   =       0.00226713 Ry

     convergence has been achieved in  17 iterations

     negative rho (up, down):  1.329E-05 0.000E+00

     Forces acting on atoms (cartesian axes, Ry/au):

     atom    1 type  1   force =     0.00298323    0.00417996   -0.00167086
     atom    2 type  1   force =     0.00432620   -0.00330918   -0.00383408
     atom    3 type  1   force =    -0.00502017    0.00029567   -0.00098954
     atom    4 type  1   force =    -0.00946396   -0.00323100    0.00119888
     atom    5 type  1   force =    -0.00202138    0.00382045    0.00628638
     atom    6 type  1   force =    -0.00113004   -0.00219749    0.01288493
     atom    7 type  1   force =     0.00220715   -0.00497159    0.00566480
     atom    8 type  1   force =    -0.00594193   -0.00513432    0.00376399
     atom    9 type  1   force =     0.01781789   -0.12483620   -0.04964197
     atom   10 type  1   force =    -0.00835751    0.04426570   -0.14777237
     atom   11 type  1   force =    -0.01278859   -0.04185285    0.13257076
     atom   12 type  1   force =     0.01104400    0.13617081    0.04930950
     atom   13 type  2   force =     0.00467356   -0.00050220   -0.00637875
     atom   14 type  2   force =     0.00357589    0.00201867   -0.00459927
     atom   15 type  2   force =     0.00240268    0.00111156   -0.00786198
     atom   16 type  2   force =     0.00382157    0.00033654   -0.00495833
     atom   17 type  2   force =     0.03128457   -0.03533967    0.01935664
     atom   18 type  2   force =     0.09635073   -0.02255862    0.10191032
     atom   19 type  2   force =    -0.00008758    0.00085392    0.00779948
     atom   20 type  2   force =    -0.00278976   -0.00330296    0.00003075
     atom   21 type  2   force =    -0.00004634    0.00066117    0.00992953
     atom   22 type  2   force =    -0.00080064   -0.00246244    0.00574198
     atom   23 type  2   force =     0.09787742    0.09516208    0.05059819
     atom   24 type  2   force =     0.03583995    0.03824703   -0.01337034
     atom   25 type  2   force =     0.00173739   -0.00012268   -0.00066087
     atom   26 type  2   force =     0.00262005    0.00193095   -0.00883726
     atom   27 type  2   force =    -0.00150479    0.00601909   -0.00125779
     atom   28 type  2   force =    -0.00253350    0.00127626    0.00341760
     atom   29 type  2   force =    -0.00260184    0.00207204    0.00427559
     atom   30 type  2   force =    -0.00201047    0.00298767    0.00458849
     atom   31 type  2   force =    -0.09637581   -0.09137553   -0.03536754
     atom   32 type  2   force =    -0.03254329   -0.04150168    0.01032407
     atom   33 type  2   force =     0.00220642   -0.00015533   -0.00584597
     atom   34 type  2   force =     0.00449862   -0.00034207   -0.00611349
     atom   35 type  2   force =    -0.03621155    0.03048749   -0.02100988
     atom   36 type  2   force =    -0.10303817    0.01129873   -0.10948161

     Total force =     0.422160     Total SCF correction =     0.001864

     General routines

     Parallel routines

   This run was terminated on:  19:28: 9  19Nov2021

   JOB DONE.