     Program PWSCF v.6.4 starts on  8Sep2021 at 12: 4: 2

     R & G space division:  proc/nbgrp/npool/nimage =      40
     Waiting for input...
     Reading input from standard input
Warning: card    &IONS ignored
Warning: card      ION_DYNAMICS = 'BFGS' ignored
Warning: card   / ignored
Warning: card    &CELL ignored
Warning: card      CELL_DYNAMICS = 'BFGS', ignored
Warning: card    / ignored

     Current dimensions of program PWSCF are:
     Max number of different atomic species (ntypx) = 10
     Max number of k-points (npk) =  40000
     Max angular momentum in pseudopotentials (lmaxx) =  3

     bravais-lattice index     =            0
     lattice parameter (alat)  =      12.5854  a.u.
     unit-cell volume          =    5275.2143 (a.u.)^3
     number of atoms/cell      =           36
     number of atomic types    =            2
     number of electrons       =       216.00
     number of Kohn-Sham states=          130
     kinetic-energy cutoff     =      45.0000  Ry
     charge density cutoff     =     360.0000  Ry
     convergence threshold     =      1.0E-06
     mixing beta               =       0.7000
     number of iterations used =            8  local-TF  mixing
     Exchange-correlation      = SLA PW GGX GGC ( 1  4  2  2 0 0)

     celldm(1)=  12.585412  celldm(2)=   0.000000  celldm(3)=   0.000000
     celldm(4)=   0.000000  celldm(5)=   0.000000  celldm(6)=   0.000000

     crystal axes: (cart. coord. in units of alat)
               a(1) = (   0.998723   0.045595  -0.021739 )
               a(2) = (  -0.248577   0.409869   0.006180 )
               a(3) = (  -1.125840  -3.104315   6.309456 )

     reciprocal axes: (cart. coord. in units 2 pi/alat)
               b(1) = (  0.984483  0.590044  0.465976 )
               b(2) = ( -0.083209  2.371971  1.152186 )
               b(3) = (  0.003473 -0.000290  0.158969 )

     PseudoPot. # 1 for Mo read from file:
     ~/pseudo/Mo.pw91-n-van.UPF
     MD5 check sum: Not computed, couldn't open file
     Pseudo is Ultrasoft + core correction, Zval =  6.0
     Generated by new atomic code, or converted to UPF format
     Using radial grid of  965 points,  3 beta functions with:
                l(1) =   1
                l(2) =   2
                l(3) =   2
     Q(r) pseudized with  8 coefficients,  rinner =    1.000   1.000   1.000
                                                       1.200   1.200

     PseudoPot. # 2 for S  read from file:
     ~/pseudo/S.pw91-van_ak.UPF
     MD5 check sum: Not computed, couldn't open file
     Pseudo is Ultrasoft, Zval =  6.0
     Generated by new atomic code, or converted to UPF format
     Using radial grid of  811 points,  6 beta functions with:
                l(1) =   0
                l(2) =   0
                l(3) =   1
                l(4) =   1
                l(5) =   2
                l(6) =   2
     Q(r) pseudized with  8 coefficients,  rinner =    1.100   1.100   1.100
                                                       1.100   1.100

     atomic species   valence    mass     pseudopotential
        Mo             6.00    95.50000     Mo( 1.00)
        S              6.00    32.06500     S ( 1.00)

     No symmetry found

   Cartesian axes

     site n.     atom                  positions (alat units)
         1           Mo  tau(   1) = (   0.2186742  -0.2047341   1.0611434  )
         2           Mo  tau(   2) = (  -0.5365847  -1.9116975   4.1499394  )
         3           Mo  tau(   3) = (   0.7942333  -0.1347247   1.0257531  )
         4           Mo  tau(   4) = (  -0.0988479  -1.9278163   4.2605992  )
         5           Mo  tau(   5) = (  -0.2629244  -0.7954114   2.0760960  )
         6           Mo  tau(   6) = (  -1.0448700  -2.2361121   5.2613302  )
         7           Mo  tau(   7) = (   0.1583002  -0.8196833   2.0437362  )
         8           Mo  tau(   8) = (  -0.4682236  -2.1666683   5.2717910  )
         9           Mo  tau(   9) = (  -0.5233289  -1.6418728   3.1666407  )
        10           Mo  tau(  10) = (  -1.2541207  -3.1374099   6.3507084  )
        11           Mo  tau(  11) = (   0.0529887  -1.5716711   3.1311308  )
        12           Mo  tau(  12) = (  -0.7497274  -3.1088235   6.2804253  )
        13           S   tau(  13) = (  -0.1087814   0.2559115   0.2513113  )
        14           S   tau(  14) = (  -0.7296594  -1.4893232   3.4238230  )
        15           S   tau(  15) = (   0.3603306   0.2631218   0.2256626  )
        16           S   tau(  16) = (  -0.2358190  -1.4705149   3.3488875  )
        17           S   tau(  17) = (   0.0026874  -0.3315665   0.7907657  )
        18           S   tau(  18) = (  -0.8692898  -1.8314073   4.0171281  )
        19           S   tau(  19) = (   0.5073321  -0.3059566   0.8433595  )
        20           S   tau(  20) = (  -0.2553365  -2.0183575   3.9480797  )
        21           S   tau(  21) = (  -0.2445198  -0.4885240   1.2589809  )
        22           S   tau(  22) = (  -0.7642933  -2.0540405   4.4148038  )
        23           S   tau(  23) = (   0.2600695  -0.4629296   1.3115057  )
        24           S   tau(  24) = (  -0.1320057  -2.2312872   4.4561053  )
        25           S   tau(  25) = (  -0.3126649  -1.1025803   1.8658119  )
        26           S   tau(  26) = (  -0.5168406  -2.4734308   5.0613284  )
        27           S   tau(  27) = (   0.1894337  -1.0772002   1.7906435  )
        28           S   tau(  28) = (  -0.0156485  -2.4488126   4.9868112  )
        29           S   tau(  29) = (  -0.0457002  -0.9475123   2.3227776  )
        30           S   tau(  30) = (  -0.7466246  -2.3388283   5.4658008  )
        31           S   tau(  31) = (   0.4568663  -0.9220071   2.2490414  )
        32           S   tau(  32) = (  -0.2497099  -2.3183284   5.5184209  )
        33           S   tau(  33) = (  -0.4828008  -1.3332050   2.9550989  )
        34           S   tau(  34) = (  -1.3220469  -2.6117034   6.0804792  )
        35           S   tau(  35) = (   0.0109991  -1.3134598   2.8799048  )
        36           S   tau(  36) = (  -0.7216880  -2.8072641   6.0697920  )

     number of k points=    10  Marzari-Vanderbilt smearing, width (Ry)=  0.0200
                       cart. coord. in units 2pi/alat
        k(    1) = (   0.0000000   0.0000000   0.0000000), wk =   0.1111111
        k(    2) = (  -0.0138682   0.3953284   0.1920309), wk =   0.2222222
        k(    3) = (  -0.0277363   0.7906569   0.3840619), wk =   0.2222222
        k(    4) = (   0.0416045  -1.1859853  -0.5760928), wk =   0.1111111
        k(    5) = (   0.3281611   0.1966813   0.1553252), wk =   0.2222222
        k(    6) = (   0.3142930   0.5920097   0.3473562), wk =   0.2222222
        k(    7) = (   0.3004248   0.9873381   0.5393871), wk =   0.2222222
        k(    8) = (   0.3697656  -0.9893041  -0.4207676), wk =   0.2222222
        k(    9) = (   0.3558975  -0.5939756  -0.2287366), wk =   0.2222222
        k(   10) = (   0.3420293  -0.1986472  -0.0367057), wk =   0.2222222

     Initial potential from superposition of free atoms

     starting charge  215.98107, renormalised to  216.00000
     Starting wfcs are  204 randomized atomic wfcs

     Self-consistent Calculation

     iteration #  1     ecut=    45.00 Ry     beta= 0.70
     Davidson diagonalization with overlap
     ethr =  1.00E-02,  avg # of iterations =  2.1

     total energy              =    -843.41126223 Ry
     Harris-Foulkes estimate   =    -846.33574655 Ry
     estimated scf accuracy    <      10.42112002 Ry

[...]

     iteration # 18     ecut=    45.00 Ry     beta= 0.70
     Davidson diagonalization with overlap
     c_bands:  1 eigenvalues not converged
     ethr =  3.09E-09,  avg # of iterations =  9.9

[...]

     total energy              =    -844.94479204 Ry
     Harris-Foulkes estimate   =    -844.94479213 Ry
     estimated scf accuracy    <       0.00000165 Ry

     iteration # 20     ecut=    45.00 Ry     beta= 0.70
     Davidson diagonalization with overlap
     ethr =  7.62E-10,  avg # of iterations =  2.6

     End of self-consistent calculation

          k = 0.0000 0.0000 0.0000 ( 27073 PWs)   bands (ev):

    -8.7773  -8.4823  -7.9743  -7.9292  -7.8841  -7.8237  -7.6657  -7.5600
    -7.0293  -6.9816  -6.9410  -6.9337  -6.8728  -6.8324  -6.5814  -6.3073
    -6.2888  -6.2770  -6.2457  -6.2395  -6.2093  -6.1918  -6.1457  -6.1338
    -0.7235  -0.5105  -0.0779   0.1491   0.1842   0.1995   0.2502   0.3027
     0.6606   0.6788   0.7155   0.7756   0.9122   0.9789   1.3852   1.5201
     1.5376   1.5912   1.6070   1.6429   1.6737   1.6849   1.7431   1.8096
     2.1742   2.1888   2.4895   2.5492   2.7552   2.7904   2.8371   2.8403
     2.8797   2.8881   2.9224   2.9294   2.9764   3.0850   3.0874   3.1230
     3.1297   3.1937   3.2470   3.3352   3.4586   3.4783   3.5664   3.6893
     3.8076   3.9158   3.9656   4.0328   4.1182   4.1917   4.3732   4.3753
     4.4230   4.6854   4.7422   4.7720   4.7737   4.8302   4.8878   4.9490
     4.9876   5.0679   5.1060   5.1335   5.1944   5.2411   5.2745   5.4573
     5.5307   5.5701   5.6028   5.6384   5.6587   5.7718   5.8687   5.9277
     5.9790   6.0163   6.0636   6.1408   6.1922   6.4152   6.4286   6.4707
     6.4777   6.5125   6.5493   6.5705   6.6032   6.6512   6.7060   7.0474
     7.4527   7.7369   7.8874   7.8950   7.9456   7.9802   7.9851   8.0235
     8.0289   8.0685

          k =-0.0139 0.3953 0.1920 ( 26928 PWs)   bands (ev):

[...]

          k =-0.0277 0.7907 0.3841 ( 26883 PWs)   bands (ev):

[...]

          k = 0.3420-0.1986-0.0367 ( 26928 PWs)   bands (ev):

    -8.4421  -8.1377  -7.6018  -7.5596  -7.5132  -7.5102  -7.4489  -7.3841
    -6.9224  -6.8920  -6.8437  -6.8045  -6.7697  -6.7389  -6.6270  -6.3626
    -6.3144  -6.2773  -6.2595  -6.2182  -6.1256  -6.0772  -6.0401  -5.9848
    -0.1965   0.0277   0.2641   0.5342   0.6363   0.6739   0.7225   0.7310
     0.7749   0.9159   1.1011   1.1275   1.1779   1.2238   1.2515   1.3112
     1.3388   1.4477   1.5564   1.5836   1.7969   1.8773   1.9176   1.9377
     1.9604   2.0226   2.0626   2.0998   2.3984   2.4243   2.4897   2.5444
     2.5826   2.6542   2.6921   2.7184   2.7637   2.8597   2.9106   2.9833
     3.0059   3.0337   3.0727   3.1231   3.2772   3.3449   3.3967   3.4151
     3.4424   3.4947   3.5455   3.6025   3.6337   3.7097   3.7705   3.8542
     3.9843   4.0137   4.0473   4.0539   4.0700   4.1173   4.2917   4.5443
     4.7425   4.7783   4.8168   4.8821   4.9881   5.0834   5.0956   5.1609
     5.2746   5.3069   5.3607   5.3810   5.4279   5.4638   5.5202   5.5874
     5.6325   5.6808   5.8082   5.8633   6.0697   6.2973   6.3144   6.3551
     6.3814   6.4600   7.0051   7.0427   7.0911   7.1142   7.1834   7.2165
     7.2731   7.6127   8.0087   8.0214   8.0952   8.1306   8.1664   8.2208
     8.2280   8.3111

     the Fermi energy is     6.0603 ev

!    total energy              =    -844.94479166 Ry
     Harris-Foulkes estimate   =    -844.94479217 Ry
     estimated scf accuracy    <       0.00000054 Ry

     The total energy is the sum of the following terms:

     one-electron contribution =    -140.36166882 Ry
     hartree contribution      =     188.85743036 Ry
     xc contribution           =    -333.72411394 Ry
     ewald contribution        =    -559.72421877 Ry
     smearing contrib. (-TS)   =       0.00777951 Ry

     convergence has been achieved in  20 iterations

     Forces acting on atoms (cartesian axes, Ry/au):

     atom    1 type  1   force =    -0.00093451    0.00091760   -0.00013468
     atom    2 type  1   force =    -0.00037777   -0.00064513    0.00065826
     atom    3 type  1   force =     0.00114895    0.00006987   -0.00043067
     atom    4 type  1   force =     0.00126558   -0.00042043   -0.00088991
     atom    5 type  1   force =    -0.00062356    0.00008491    0.00020624
     atom    6 type  1   force =     0.00002207   -0.00046336    0.00007430
     atom    7 type  1   force =     0.00077823    0.00075073   -0.00067938
     atom    8 type  1   force =     0.00222569    0.00095423   -0.00021192
     atom    9 type  1   force =    -0.00063286    0.00094566    0.00020524
     atom   10 type  1   force =     0.00040680    0.00072736    0.00093730
     atom   11 type  1   force =     0.00099633    0.00016169    0.00046248
     atom   12 type  1   force =     0.00053772    0.00273595   -0.00111560
     atom   13 type  2   force =    -0.00076324    0.00034758    0.00129154
     atom   14 type  2   force =    -0.00063574   -0.00235786   -0.00184143
     atom   15 type  2   force =    -0.00158810   -0.00250935   -0.00135488
     atom   16 type  2   force =    -0.00064699    0.00060726   -0.00034890
     atom   17 type  2   force =     0.00046451    0.00078033    0.00004118
     atom   18 type  2   force =    -0.00055330    0.00050686    0.00063600
     atom   19 type  2   force =     0.00010450   -0.00053531   -0.00016903
     atom   20 type  2   force =     0.00039897    0.00002954    0.00084272
     atom   21 type  2   force =     0.00009213    0.00012395   -0.00074133
     atom   22 type  2   force =    -0.00164631   -0.00037574   -0.00052970
     atom   23 type  2   force =    -0.00017225   -0.00111967    0.00033118
     atom   24 type  2   force =     0.00105477    0.00077207   -0.00112996
     atom   25 type  2   force =    -0.00075741   -0.00045946    0.00047646
     atom   26 type  2   force =    -0.00138160   -0.00074654   -0.00090249
     atom   27 type  2   force =     0.00026250   -0.00038662    0.00005259
     atom   28 type  2   force =    -0.00049228   -0.00009388   -0.00035394
     atom   29 type  2   force =     0.00025000   -0.00032157    0.00123670
     atom   30 type  2   force =    -0.00068957    0.00003508    0.00070884
     atom   31 type  2   force =    -0.00021115    0.00013173   -0.00079669
     atom   32 type  2   force =     0.00031543    0.00073578    0.00050784
     atom   33 type  2   force =     0.00013559   -0.00012305   -0.00033747
     atom   34 type  2   force =     0.00158712    0.00073050    0.00088305
     atom   35 type  2   force =    -0.00006638    0.00043761    0.00235078
     atom   36 type  2   force =     0.00012615   -0.00202833    0.00006524

     Total force =     0.009248     Total SCF correction =     0.002190
     SCF correction compared to forces is large: reduce conv_thr to get better values

     General routines

     Parallel routines

   This run was terminated on:  12: 7:20   8Sep2021

   JOB DONE.