     Program PWSCF v.6.4 starts on  8Sep2021 at 11:28:51

     R & G space division:  proc/nbgrp/npool/nimage =      40
     Waiting for input...
     Reading input from standard input
Warning: card    &IONS ignored
Warning: card      ION_DYNAMICS = 'BFGS' ignored
Warning: card   / ignored
Warning: card    &CELL ignored
Warning: card      CELL_DYNAMICS = 'BFGS', ignored
Warning: card    / ignored

     Current dimensions of program PWSCF are:
     Max number of different atomic species (ntypx) = 10
     Max number of k-points (npk) =  40000
     Max angular momentum in pseudopotentials (lmaxx) =  3

     bravais-lattice index     =            0
     lattice parameter (alat)  =      12.1845  a.u.
     unit-cell volume          =    3209.6278 (a.u.)^3
     number of atoms/cell      =           24
     number of atomic types    =            2
     number of electrons       =       144.00
     number of Kohn-Sham states=           86
     kinetic-energy cutoff     =      45.0000  Ry
     charge density cutoff     =     360.0000  Ry
     convergence threshold     =      1.0E-06
     mixing beta               =       0.7000
     number of iterations used =            8  local-TF  mixing
     Exchange-correlation      = SLA PW GGX GGC ( 1  4  2  2 0 0)

     celldm(1)=  12.184539  celldm(2)=   0.000000  celldm(3)=   0.000000
     celldm(4)=   0.000000  celldm(5)=   0.000000  celldm(6)=   0.000000

     crystal axes: (cart. coord. in units of alat)
               a(1) = (   0.999882  -0.003557  -0.014926 )
               a(2) = (  -0.248140   0.434168   0.018045 )
               a(3) = (  -0.144120  -0.145146   4.092805 )

     reciprocal axes: (cart. coord. in units 2 pi/alat)
               b(1) = (  1.002978  0.570923  0.055565 )
               b(2) = (  0.009426  2.305230  0.082084 )
               b(3) = (  0.003616 -0.008081  0.244172 )

     PseudoPot. # 1 for Mo read from file:
     ~/pseudo/Mo.pw91-n-van.UPF
     MD5 check sum: Not computed, couldn't open file
     Pseudo is Ultrasoft + core correction, Zval =  6.0
     Generated by new atomic code, or converted to UPF format
     Using radial grid of  965 points,  3 beta functions with:
                l(1) =   1
                l(2) =   2
                l(3) =   2
     Q(r) pseudized with  8 coefficients,  rinner =    1.000   1.000   1.000
                                                       1.200   1.200

     PseudoPot. # 2 for S  read from file:
     ~/pseudo/S.pw91-van_ak.UPF
     MD5 check sum: Not computed, couldn't open file
     Pseudo is Ultrasoft, Zval =  6.0
     Generated by new atomic code, or converted to UPF format
     Using radial grid of  811 points,  6 beta functions with:
                l(1) =   0
                l(2) =   0
                l(3) =   1
                l(4) =   1
                l(5) =   2
                l(6) =   2
     Q(r) pseudized with  8 coefficients,  rinner =    1.100   1.100   1.100
                                                       1.100   1.100

     atomic species   valence    mass     pseudopotential
        Mo             6.00    95.50000     Mo( 1.00)
        S              6.00    32.06500     S ( 1.00)

     No symmetry found

   Cartesian axes

     site n.     atom                  positions (alat units)
         1           Mo  tau(   1) = (  -0.0024041  -0.0555399   1.5147484  )
         2           Mo  tau(   2) = (  -0.1353186  -0.1438173   3.6063210  )
         3           Mo  tau(   3) = (   0.4984350  -0.0600126   1.5071051  )
         4           Mo  tau(   4) = (   0.3650182  -0.1436120   3.6072423  )
         5           Mo  tau(   5) = (  -0.0249088  -0.0097237   0.5161251  )
         6           Mo  tau(   6) = (  -0.1259633  -0.0839985   2.5436688  )
         7           Mo  tau(   7) = (   0.4751337  -0.0121659   0.5084807  )
         8           Mo  tau(   8) = (   0.3736051  -0.0849481   2.5360019  )
         9           S   tau(   9) = (   0.2523754   0.0768813   1.7611409  )
        10           S   tau(  10) = (   0.1114860  -0.0122184   3.8584541  )
        11           S   tau(  11) = (   0.7499576   0.0798703   1.7513729  )
        12           S   tau(  12) = (   0.6228524  -0.0091530   3.8440702  )
        13           S   tau(  13) = (  -0.0274706   0.2878617   0.2810572  )
        14           S   tau(  14) = (  -0.1307944   0.2132330   2.3087766  )
        15           S   tau(  15) = (   0.4745526   0.2837719   0.2728001  )
        16           S   tau(  16) = (   0.3694918   0.2126411   2.3009802  )
        17           S   tau(  17) = (  -0.0209210   0.2700882   0.7701322  )
        18           S   tau(  18) = (  -0.1186260   0.1962338   2.7979229  )
        19           S   tau(  19) = (   0.4790081   0.2680552   0.7634134  )
        20           S   tau(  20) = (   0.3800436   0.1950651   2.7898337  )
        21           S   tau(  21) = (   0.2462872   0.0883775   1.2711782  )
        22           S   tau(  22) = (   0.1181309   0.0134286   3.3719801  )
        23           S   tau(  23) = (   0.7412854   0.0908247   1.2656206  )
        24           S   tau(  24) = (   0.6084704   0.0065724   3.3559150  )

     number of k points=    10  Marzari-Vanderbilt smearing, width (Ry)=  0.0200
                       cart. coord. in units 2pi/alat
        k(    1) = (   0.0000000   0.0000000   0.0000000), wk =   0.1111111
        k(    2) = (   0.0015709   0.3842049   0.0136806), wk =   0.2222222
        k(    3) = (   0.0031419   0.7684099   0.0273613), wk =   0.2222222
        k(    4) = (  -0.0047128  -1.1526148  -0.0410419), wk =   0.1111111
        k(    5) = (   0.3343261   0.1903078   0.0185217), wk =   0.2222222
        k(    6) = (   0.3358970   0.5745127   0.0322023), wk =   0.2222222
        k(    7) = (   0.3374679   0.9587177   0.0458829), wk =   0.2222222
        k(    8) = (   0.3296132  -0.9623071  -0.0225202), wk =   0.2222222
        k(    9) = (   0.3311842  -0.5781021  -0.0088396), wk =   0.2222222
        k(   10) = (   0.3327551  -0.1938972   0.0048410), wk =   0.2222222

     Initial potential from superposition of free atoms

     starting charge  143.98738, renormalised to  144.00000
     Starting wfcs are  136 randomized atomic wfcs

     Self-consistent Calculation

     iteration #  1     ecut=    45.00 Ry     beta= 0.70
     Davidson diagonalization with overlap
     ethr =  1.00E-02,  avg # of iterations =  2.1

     total energy              =    -562.79979741 Ry
     Harris-Foulkes estimate   =    -564.56558115 Ry
     estimated scf accuracy    <       4.52006236 Ry

[...]

     iteration #  6     ecut=    45.00 Ry     beta= 0.70
     Davidson diagonalization with overlap
     c_bands:  3 eigenvalues not converged
     c_bands:  5 eigenvalues not converged
     c_bands:  2 eigenvalues not converged
     c_bands:  3 eigenvalues not converged
     ethr =  9.55E-07,  avg # of iterations = 12.3

[...]

     total energy              =    -563.68391385 Ry
     Harris-Foulkes estimate   =    -563.68391437 Ry
     estimated scf accuracy    <       0.00000233 Ry

     iteration # 16     ecut=    45.00 Ry     beta= 0.70
     Davidson diagonalization with overlap
     ethr =  7.94E-10,  avg # of iterations =  2.7

     End of self-consistent calculation

          k = 0.0000 0.0000 0.0000 ( 16403 PWs)   bands (ev):

    -7.2408  -7.1907  -7.1459  -7.1031  -6.0859  -5.9825  -5.9461  -5.8715
    -5.4816  -5.4634  -5.4481  -5.4185  -5.2158  -5.1865  -5.1657  -5.1392
     1.0321   1.1520   1.1787   1.2201   1.2532   1.2851   1.3596   1.6499
     2.0214   2.1244   2.1522   2.2615   2.7613   2.7894   2.8604   2.9278
     3.6751   3.6909   3.7099   3.7352   4.1684   4.1931   4.2070   4.2084
     4.2204   4.2267   4.2454   4.2553   4.4455   4.6579   4.8986   5.0050
     5.0383   5.1401   5.2425   5.2511   5.2881   5.3028   5.3129   5.3337
     5.3491   5.3521   5.3593   5.7911   5.8362   5.8606   5.8822   5.9734
     6.0656   6.1509   6.2181   6.2519   6.4660   6.9938   7.0573   7.2715
     8.7778   8.7940   8.8067   8.8328   9.2846   9.2958   9.3345   9.3644
     9.3919   9.4376   9.4542   9.4932   9.4960   9.5046

[...]

          k =-0.0047-1.1526-0.0410 ( 16242 PWs)   bands (ev):

[...]

          k = 0.3328-0.1939 0.0048 ( 16375 PWs)   bands (ev):

    -6.8791  -6.8318  -6.7861  -6.7454  -5.9032  -5.8147  -5.7735  -5.7122
    -5.5111  -5.4862  -5.4622  -5.4392  -5.2043  -5.1745  -5.1496  -5.1254
     1.4357   1.5831   1.6241   1.6633   1.6704   1.7033   1.7579   2.0067
     2.0307   2.0635   2.0907   2.1233   2.9608   3.0171   3.0380   3.1237
     3.4647   3.4738   3.5038   3.5358   3.5599   3.6576   3.7151   3.7275
     3.7965   4.0040   4.0719   4.2348   4.4224   4.4693   4.5163   4.5474
     4.5921   4.5955   4.6195   4.6430   4.7631   4.7860   4.8054   4.8266
     4.9270   5.0419   5.1542   5.2407   5.4237   5.6521   5.7430   6.2026
     6.2608   6.3119   6.3295   6.3377   6.3638   6.6041   6.6554   6.7185
     8.7165   8.8098   8.8125   8.8651   8.9294   8.9519   9.0007   9.1541
     9.2097   9.2341   9.2754   9.2873   9.3054   9.3080

     the Fermi energy is     7.0455 ev

!    total energy              =    -563.68391397 Ry
     Harris-Foulkes estimate   =    -563.68391405 Ry
     estimated scf accuracy    <       0.00000010 Ry

     The total energy is the sum of the following terms:

     one-electron contribution =     -20.13578702 Ry
     hartree contribution      =      94.86636441 Ry
     xc contribution           =    -222.74860752 Ry
     ewald contribution        =    -415.67600606 Ry
     smearing contrib. (-TS)   =       0.01012223 Ry

     convergence has been achieved in  16 iterations

     Forces acting on atoms (cartesian axes, Ry/au):

     atom    1 type  1   force =    -0.00598610   -0.00627731   -0.00039520
     atom    2 type  1   force =     0.00038760    0.00392477   -0.00370956
     atom    3 type  1   force =    -0.00532645   -0.01211391    0.00582347
     atom    4 type  1   force =    -0.00198402   -0.00589664    0.00185519
     atom    5 type  1   force =    -0.00279358   -0.00194632   -0.00027443
     atom    6 type  1   force =    -0.00017662    0.00111033    0.00160357
     atom    7 type  1   force =     0.00219674   -0.00163601   -0.00056928
     atom    8 type  1   force =    -0.00012615   -0.00062065   -0.00088659
     atom    9 type  2   force =     0.00049138    0.00182614   -0.00601183
     atom   10 type  2   force =     0.01453505    0.01099150   -0.00629399
     atom   11 type  2   force =     0.00338065   -0.00470373    0.00167608
     atom   12 type  2   force =    -0.00584193    0.00016629    0.00604701
     atom   13 type  2   force =     0.00101675   -0.00218481    0.00488206
     atom   14 type  2   force =     0.00588423    0.00015191    0.00366151
     atom   15 type  2   force =    -0.00412470    0.00244803    0.00728678
     atom   16 type  2   force =     0.00436420   -0.00151422    0.00435507
     atom   17 type  2   force =     0.00153186    0.00213473   -0.00434607
     atom   18 type  2   force =    -0.00585341    0.00128029   -0.00306352
     atom   19 type  2   force =     0.00245055    0.00131455   -0.00807491
     atom   20 type  2   force =    -0.00340336    0.00120726   -0.00133769
     atom   21 type  2   force =    -0.00250940    0.01226946    0.00252188
     atom   22 type  2   force =    -0.01244010   -0.00726750   -0.00738470
     atom   23 type  2   force =     0.00879473    0.00751084   -0.00348468
     atom   24 type  2   force =     0.00553209   -0.00217499    0.00611983

     Total force =     0.043541     Total SCF correction =     0.000655

     General routines

     Parallel routines

   This run was terminated on:  11:30: 5   8Sep2021

   JOB DONE.