     Program PWSCF v.6.4 starts on 18Oct2021 at 11: 7: 4

     R & G space division:  proc/nbgrp/npool/nimage =      40
     Waiting for input...
     Reading input from standard input
Warning: card    &IONS ignored
Warning: card      ION_DYNAMICS = 'BFGS' ignored
Warning: card   / ignored
Warning: card    &CELL ignored
Warning: card      CELL_DYNAMICS = 'BFGS', ignored
Warning: card    / ignored

     Current dimensions of program PWSCF are:
     Max number of different atomic species (ntypx) = 10
     Max number of k-points (npk) =  40000
     Max angular momentum in pseudopotentials (lmaxx) =  3

     bravais-lattice index     =            0
     lattice parameter (alat)  =      12.1974  a.u.
     unit-cell volume          =    4202.3074 (a.u.)^3
     number of atoms/cell      =           24
     number of atomic types    =            2
     number of electrons       =       144.00
     number of Kohn-Sham states=           86
     kinetic-energy cutoff     =      45.0000  Ry
     charge density cutoff     =     360.0000  Ry
     convergence threshold     =      1.0E-06
     mixing beta               =       0.7000
     number of iterations used =            8  local-TF  mixing
     Exchange-correlation      = SLA PW GGX GGC ( 1  4  2  2 0 0)

     celldm(1)=  12.197351  celldm(2)=   0.000000  celldm(3)=   0.000000
     celldm(4)=   0.000000  celldm(5)=   0.000000  celldm(6)=   0.000000

     crystal axes: (cart. coord. in units of alat)
               a(1) = (   1.000000   0.000000   0.000000 )
               a(2) = (   0.497983   0.863785   0.000000 )
               a(3) = (   0.285287   0.068325   2.680931 )

     reciprocal axes: (cart. coord. in units 2 pi/alat)
               b(1) = (  1.000000 -0.576513 -0.091720 )
               b(2) = (  0.000000  1.157696 -0.029505 )
               b(3) = (  0.000000  0.000000  0.373005 )

     PseudoPot. # 1 for Mo read from file:
     ~/pseudo/Mo.pw91-n-van.UPF
     MD5 check sum: Not computed, couldn't open file
     Pseudo is Ultrasoft + core correction, Zval =  6.0
     Generated by new atomic code, or converted to UPF format
     Using radial grid of  965 points,  3 beta functions with:
                l(1) =   1
                l(2) =   2
                l(3) =   2
     Q(r) pseudized with  8 coefficients,  rinner =    1.000   1.000   1.000
                                                       1.200   1.200

     PseudoPot. # 2 for S  read from file:
     ~/pseudo/S.pw91-van_ak.UPF
     MD5 check sum: Not computed, couldn't open file
     Pseudo is Ultrasoft, Zval =  6.0
     Generated by new atomic code, or converted to UPF format
     Using radial grid of  811 points,  6 beta functions with:
                l(1) =   0
                l(2) =   0
                l(3) =   1
                l(4) =   1
                l(5) =   2
                l(6) =   2
     Q(r) pseudized with  8 coefficients,  rinner =    1.100   1.100   1.100
                                                       1.100   1.100

     atomic species   valence    mass     pseudopotential
        Mo             6.00    95.50000     Mo( 1.00)
        S              6.00    32.06500     S ( 1.00)

     No symmetry found

   Cartesian axes

     site n.     atom                  positions (alat units)
         1           Mo  tau(   1) = (   1.1284120   0.1958203   0.4730695  )
         2           Mo  tau(   2) = (   0.8568719   0.6823841   0.4544251  )
         3           Mo  tau(   3) = (   1.3336086   0.6483129   0.4692973  )
         4           Mo  tau(   4) = (   0.6201657   0.2086828   0.4883315  )
         5           Mo  tau(   5) = (   0.6640881   0.7204880   2.2580288  )
         6           Mo  tau(   6) = (   0.9400825   0.2935347   2.2084038  )
         7           Mo  tau(   7) = (   0.3903385   0.2822230   2.2166872  )
         8           Mo  tau(   8) = (   1.1597473   0.7113647   2.2578629  )
         9           S   tau(   9) = (   0.3858371   0.3532590   0.2337914  )
        10           S   tau(  10) = (   1.1019156   0.8250041   0.2186890  )
        11           S   tau(  11) = (   0.6194215   0.8019898   0.1838925  )
        12           S   tau(  12) = (   0.8846628   0.3810068   0.2304307  )
        13           S   tau(  13) = (   0.9003688   0.5624898   2.4989328  )
        14           S   tau(  14) = (   1.1724453   0.1447182   2.5037644  )
        15           S   tau(  15) = (   0.6952669   0.1530053   2.4679222  )
        16           S   tau(  16) = (   1.3971646   0.5488824   2.4847001  )
        17           S   tau(  17) = (   0.8987269   0.5895344   1.9712432  )
        18           S   tau(  18) = (   1.1686116   0.1399221   1.9553142  )
        19           S   tau(  19) = (   0.6598631   0.1182818   1.9645080  )
        20           S   tau(  20) = (   1.4084455   0.5896524   2.0084104  )
        21           S   tau(  21) = (   0.3442383   0.3472215   0.7179969  )
        22           S   tau(  22) = (   1.1062007   0.8074176   0.6742767  )
        23           S   tau(  23) = (   0.6400195   0.7949253   0.7163725  )
        24           S   tau(  24) = (   0.8461599   0.3630348   0.6771626  )

     number of k points=     5  Marzari-Vanderbilt smearing, width (Ry)=  0.0200
                       cart. coord. in units 2pi/alat
        k(    1) = (   0.0000000   0.0000000   0.0000000), wk =   0.2222222
        k(    2) = (   0.0000000   0.3858985  -0.0098349), wk =   0.4444444
        k(    3) = (   0.3333333  -0.1921710  -0.0305735), wk =   0.4444444
        k(    4) = (   0.3333333   0.1937275  -0.0404084), wk =   0.4444444
        k(    5) = (   0.3333333  -0.5780695  -0.0207386), wk =   0.4444444

     Initial potential from superposition of free atoms

     starting charge  143.98738, renormalised to  144.00000

     negative rho (up, down):  9.043E-06 0.000E+00
     Starting wfcs are  136 randomized atomic wfcs

     Self-consistent Calculation

     iteration #  1     ecut=    45.00 Ry     beta= 0.70
     Davidson diagonalization with overlap
     ethr =  1.00E-02,  avg # of iterations =  2.0

     negative rho (up, down):  1.585E-08 0.000E+00

     total energy              =    -562.28917735 Ry
     Harris-Foulkes estimate   =    -564.04482573 Ry
     estimated scf accuracy    <       4.57526058 Ry

[...]

     total energy              =    -563.18213030 Ry
     Harris-Foulkes estimate   =    -563.18213050 Ry
     estimated scf accuracy    <       0.00000149 Ry

     iteration # 14     ecut=    45.00 Ry     beta= 0.70
     Davidson diagonalization with overlap
     ethr =  1.03E-09,  avg # of iterations =  2.4

[...]

     End of self-consistent calculation

          k = 0.0000 0.0000 0.0000 ( 21355 PWs)   bands (ev):

   -10.5701 -10.0625  -9.3561  -9.0763  -8.8981  -8.6253  -8.5187  -8.5145
    -8.3815  -8.3018  -8.2598  -8.1438  -8.0991  -8.0199  -7.9389  -7.7240
    -2.3908  -2.1473  -1.9635  -1.8659  -1.8064  -1.6948  -1.6589  -1.4083
    -1.2440  -1.1529  -1.0685  -0.8263  -0.6793  -0.6066  -0.4840  -0.1936
    -0.1592  -0.0615   0.0077   0.1358   0.1942   0.3801   0.6923   0.8040
     0.8471   0.9101   0.9861   1.0293   1.1546   1.2596   1.4659   1.5845
     1.5997   1.7119   2.0148   2.1268   2.2074   2.3385   2.4204   2.4357
     2.6335   2.6922   2.7283   2.8248   2.8349   2.9628   3.0035   3.0492
     3.2102   3.3018   3.3608   3.5141   3.5964   3.6922   4.0286   4.3981
     5.4644   5.5025   5.5358   5.5854   5.6643   5.7661   5.8599   5.9164
     6.0178   6.0497   6.0898   6.1403   6.1558   6.3649

[...]

          k = 0.3333-0.5781-0.0207 ( 21482 PWs)   bands (ev):

   -10.0190  -9.4482  -9.3065  -9.2356  -9.1371  -8.9924  -8.8925  -8.7263
    -8.5543  -8.4117  -8.3206  -8.2806  -8.1564  -8.0151  -7.9119  -7.7313
    -1.9026  -1.7898  -1.4381  -1.2714  -1.2156  -1.0527  -0.9585  -0.9147
    -0.7271  -0.6157  -0.5402  -0.4124  -0.3798  -0.2906  -0.1675  -0.1098
    -0.0453   0.0564   0.1003   0.2241   0.2777   0.3368   0.3879   0.4748
     0.5612   0.6020   0.6473   0.7541   0.8132   0.9440   1.0777   1.1970
     1.2802   1.3181   1.4269   1.5590   1.7087   1.7927   1.8910   2.0295
     2.1772   2.2596   2.3724   2.4860   2.6611   2.7803   2.8244   2.8933
     2.9563   3.0693   3.1432   3.2419   3.3581   3.5139   3.9795   4.1363
     4.7980   4.9849   5.1800   5.2789   5.3839   5.4981   5.6714   5.7451
     5.8575   5.8804   5.9676   6.0183   6.0867   6.1621

     the Fermi energy is     4.2972 ev

!    total energy              =    -563.18212985 Ry
     Harris-Foulkes estimate   =    -563.18213043 Ry
     estimated scf accuracy    <       0.00000039 Ry

     The total energy is the sum of the following terms:

     one-electron contribution =   -1245.55144359 Ry
     hartree contribution      =     691.77989757 Ry
     xc contribution           =    -222.87659859 Ry
     ewald contribution        =     213.45475504 Ry
     smearing contrib. (-TS)   =       0.01125972 Ry

     convergence has been achieved in  14 iterations

     negative rho (up, down):  4.638E-05 0.000E+00

     Forces acting on atoms (cartesian axes, Ry/au):

     atom    1 type  1   force =    -0.08502499    0.10326296   -0.11721787
     atom    2 type  1   force =    -0.00986231   -0.14256464   -0.07396621
     atom    3 type  1   force =     0.18302897   -0.02145136   -0.09374884
     atom    4 type  1   force =    -0.09746917    0.20028688   -0.28959417
     atom    5 type  1   force =    -0.02048084    0.00163925   -0.06826753
     atom    6 type  1   force =    -0.09600103   -0.02903530    0.03724209
     atom    7 type  1   force =     0.12642631   -0.02960878    0.04170589
     atom    8 type  1   force =    -0.04233677    0.03432313   -0.08571728
     atom    9 type  2   force =    -0.04298417    0.01330084    0.02024082
     atom   10 type  2   force =     0.03615676   -0.04842330   -0.02099517
     atom   11 type  2   force =    -0.03645127   -0.01118018    0.08823091
     atom   12 type  2   force =    -0.01390786   -0.04004401    0.01473592
     atom   13 type  2   force =     0.03386628    0.00500322   -0.05219789
     atom   14 type  2   force =    -0.01773463   -0.00068498   -0.08685551
     atom   15 type  2   force =    -0.04925914    0.00200643   -0.04271134
     atom   16 type  2   force =     0.03601707    0.02460091    0.00111702
     atom   17 type  2   force =     0.02533208   -0.01451132    0.07669568
     atom   18 type  2   force =    -0.01266754   -0.01512290    0.05223337
     atom   19 type  2   force =     0.00763008    0.03969598    0.08332483
     atom   20 type  2   force =     0.00421889   -0.01603800   -0.01213075
     atom   21 type  2   force =     0.03992242    0.04449123    0.03511772
     atom   22 type  2   force =    -0.02738419   -0.15114694    0.29342955
     atom   23 type  2   force =    -0.09592105   -0.03579626    0.04005445
     atom   24 type  2   force =     0.15488611    0.08699713    0.15927429

     Total force =     0.719209     Total SCF correction =     0.001053

     General routines

     Parallel routines

   This run was terminated on:  11: 7:45  18Oct2021

   JOB DONE.