     Program PWSCF v.6.4 starts on 18Oct2021 at 15:33: 4

     R & G space division:  proc/nbgrp/npool/nimage =      40
     Waiting for input...
     Reading input from standard input
Warning: card    &IONS ignored
Warning: card      ION_DYNAMICS = 'BFGS' ignored
Warning: card   / ignored
Warning: card    &CELL ignored
Warning: card      CELL_DYNAMICS = 'BFGS', ignored
Warning: card    / ignored

     Current dimensions of program PWSCF are:
     Max number of different atomic species (ntypx) = 10
     Max number of k-points (npk) =  40000
     Max angular momentum in pseudopotentials (lmaxx) =  3

     bravais-lattice index     =            0
     lattice parameter (alat)  =      12.2367  a.u.
     unit-cell volume          =    2540.7437 (a.u.)^3
     number of atoms/cell      =           12
     number of atomic types    =            2
     number of electrons       =        72.00
     number of Kohn-Sham states=           43
     kinetic-energy cutoff     =      45.0000  Ry
     charge density cutoff     =     360.0000  Ry
     convergence threshold     =      1.0E-06
     mixing beta               =       0.7000
     number of iterations used =            8  local-TF  mixing
     Exchange-correlation      = SLA PW GGX GGC ( 1  4  2  2 0 0)

     celldm(1)=  12.236690  celldm(2)=   0.000000  celldm(3)=   0.000000
     celldm(4)=   0.000000  celldm(5)=   0.000000  celldm(6)=   0.000000

     crystal axes: (cart. coord. in units of alat)
               a(1) = (   0.998685  -0.051192  -0.002871 )
               a(2) = (   0.543618   0.839844   0.005526 )
               a(3) = (   0.512017   0.421037   1.602351 )

     reciprocal axes: (cart. coord. in units 2 pi/alat)
               b(1) = (  0.968804 -0.626137 -0.145048 )
               b(2) = (  0.058284  1.155090 -0.322138 )
               b(3) = (  0.001535 -0.005105  0.624934 )

     PseudoPot. # 1 for Mo read from file:
     ~/pseudo/Mo.pw91-n-van.UPF
     MD5 check sum: Not computed, couldn't open file
     Pseudo is Ultrasoft + core correction, Zval =  6.0
     Generated by new atomic code, or converted to UPF format
     Using radial grid of  965 points,  3 beta functions with:
                l(1) =   1
                l(2) =   2
                l(3) =   2
     Q(r) pseudized with  8 coefficients,  rinner =    1.000   1.000   1.000
                                                       1.200   1.200

     PseudoPot. # 2 for S  read from file:
     ~/pseudo/S.pw91-van_ak.UPF
     MD5 check sum: Not computed, couldn't open file
     Pseudo is Ultrasoft, Zval =  6.0
     Generated by new atomic code, or converted to UPF format
     Using radial grid of  811 points,  6 beta functions with:
                l(1) =   0
                l(2) =   0
                l(3) =   1
                l(4) =   1
                l(5) =   2
                l(6) =   2
     Q(r) pseudized with  8 coefficients,  rinner =    1.100   1.100   1.100
                                                       1.100   1.100

     atomic species   valence    mass     pseudopotential
        Mo             6.00    95.50000     Mo( 1.00)
        S              6.00    32.06500     S ( 1.00)

     No symmetry found

   Cartesian axes

     site n.     atom                  positions (alat units)
         1           Mo  tau(   1) = (   1.5056707   0.3556619   1.5910825  )
         2           Mo  tau(   2) = (   1.2636582   0.3547921   0.0020523  )
         3           Mo  tau(   3) = (   0.7653881   0.3787246   0.0013534  )
         4           Mo  tau(   4) = (   1.0101426   0.3815983   1.5930862  )
         5           S   tau(   5) = (   0.2542880   0.1099177   0.2329832  )
         6           S   tau(   6) = (   0.5232848   0.5385452   0.2420353  )
         7           S   tau(   7) = (   1.0226180   0.5129534   0.2445407  )
         8           S   tau(   8) = (   0.7526615   0.0866734   0.2335329  )
         9           S   tau(   9) = (   0.7633015   0.5420597   1.3568303  )
        10           S   tau(  10) = (   1.0332199   0.9539933   1.3662977  )
        11           S   tau(  11) = (   1.5336579   0.9301677   1.3631461  )
        12           S   tau(  12) = (   1.2661607   0.5177593   1.3521350  )

     number of k points=    20  Marzari-Vanderbilt smearing, width (Ry)=  0.0200
                       cart. coord. in units 2pi/alat
        k(    1) = (   0.0000000   0.0000000   0.0000000), wk =   0.0625000
        k(    2) = (  -0.0007675   0.0025526  -0.3124669), wk =   0.0625000
        k(    3) = (   0.0145709   0.2887726  -0.0805345), wk =   0.1250000
        k(    4) = (   0.0138035   0.2913251  -0.3930014), wk =   0.1250000
        k(    5) = (  -0.0291418  -0.5775451   0.1610690), wk =   0.0625000
        k(    6) = (  -0.0299093  -0.5749925  -0.1513980), wk =   0.0625000
        k(    7) = (   0.2422011  -0.1565343  -0.0362619), wk =   0.1250000
        k(    8) = (   0.2414336  -0.1539817  -0.3487288), wk =   0.1250000
        k(    9) = (   0.2567720   0.1322383  -0.1167964), wk =   0.1250000
        k(   10) = (   0.2560045   0.1347909  -0.4292633), wk =   0.1250000
        k(   11) = (   0.2130592  -0.7340794   0.1248071), wk =   0.1250000
        k(   12) = (   0.2122918  -0.7315268  -0.1876599), wk =   0.1250000
        k(   13) = (   0.2276302  -0.4453068   0.0442726), wk =   0.1250000
        k(   14) = (   0.2268627  -0.4427543  -0.2681944), wk =   0.1250000
        k(   15) = (  -0.4844022   0.3130685   0.0725238), wk =   0.0625000
        k(   16) = (  -0.4851696   0.3156211  -0.2399431), wk =   0.0625000
        k(   17) = (  -0.4698313   0.6018411  -0.0080106), wk =   0.1250000
        k(   18) = (  -0.4705987   0.6043937  -0.3204776), wk =   0.1250000
        k(   19) = (  -0.5135440  -0.2644766   0.2335928), wk =   0.0625000
        k(   20) = (  -0.5143115  -0.2619240  -0.0788741), wk =   0.0625000

     Initial potential from superposition of free atoms

     starting charge   71.99369, renormalised to   72.00000
     Starting wfcs are   68 randomized atomic wfcs

     Self-consistent Calculation

     iteration #  1     ecut=    45.00 Ry     beta= 0.70
     Davidson diagonalization with overlap
     ethr =  1.00E-02,  avg # of iterations =  2.0

     total energy              =    -281.39683642 Ry
     Harris-Foulkes estimate   =    -282.28231696 Ry
     estimated scf accuracy    <       2.25665785 Ry

[...]

     negative rho (up, down):  1.432E-08 0.000E+00

[...]

     total energy              =    -281.84015695 Ry
     Harris-Foulkes estimate   =    -281.84015811 Ry
     estimated scf accuracy    <       0.00000455 Ry

     iteration # 12     ecut=    45.00 Ry     beta= 0.70
     Davidson diagonalization with overlap
     ethr =  6.32E-09,  avg # of iterations =  3.0

[...]

     End of self-consistent calculation

          k = 0.0000 0.0000 0.0000 ( 12933 PWs)   bands (ev):

   -11.8926 -10.6433 -10.2408 -10.2257 -10.1997  -9.9108  -9.8875  -9.8709
    -3.5085  -3.5014  -3.4932  -3.3560  -2.5359  -2.5284  -2.5159  -1.9093
    -1.8934  -1.8797  -1.0907  -1.0760  -1.0684  -0.6116  -0.5876   0.2928
     0.3339   0.3794   0.4948   0.5262   0.5504   1.0227   1.0525   1.0745
     1.4591   1.4703   1.4825   2.1679   4.0140   4.0286   4.0588   4.5537
     4.5543   4.5626   4.7288

          k =-0.0008 0.0026-0.3125 ( 12930 PWs)   bands (ev):

[...]

          k = 0.2269-0.4428-0.2682 ( 12964 PWs)   bands (ev):

[...]

          k =-0.5143-0.2619-0.0789 ( 12954 PWs)   bands (ev):

   -11.1631 -11.1382 -10.3349 -10.3277 -10.2244 -10.2138  -9.8874  -9.8544
    -2.8973  -2.8765  -2.7997  -2.7675  -2.6867  -2.6775  -1.7024  -1.6916
    -1.4991  -1.4718  -1.3732  -1.3221  -1.0295  -1.0238  -0.7709  -0.7590
    -0.4162  -0.3646   0.1859   0.2218   0.4951   0.5149   0.8620   0.8709
     1.4021   1.4104   1.5180   1.5819   4.0544   4.0992   4.1995   4.2442
     4.2976   4.3324   4.6408

     the Fermi energy is     2.2269 ev

!    total energy              =    -281.84015764 Ry
     Harris-Foulkes estimate   =    -281.84015800 Ry
     estimated scf accuracy    <       0.00000040 Ry

     The total energy is the sum of the following terms:

     one-electron contribution =    -411.44785859 Ry
     hartree contribution      =     235.62186822 Ry
     xc contribution           =    -111.37215602 Ry
     ewald contribution        =       5.35298284 Ry
     smearing contrib. (-TS)   =       0.00500590 Ry

     convergence has been achieved in  12 iterations

     negative rho (up, down):  1.685E-08 0.000E+00

     Forces acting on atoms (cartesian axes, Ry/au):

     atom    1 type  1   force =     0.00256540   -0.00596487    0.01210921
     atom    2 type  1   force =     0.00080334   -0.00839204   -0.00988471
     atom    3 type  1   force =     0.00467196    0.00628412   -0.00118853
     atom    4 type  1   force =    -0.01390144   -0.00765822    0.00505607
     atom    5 type  2   force =    -0.00179861    0.00497000    0.01549868
     atom    6 type  2   force =     0.00228341   -0.00256640    0.00757064
     atom    7 type  2   force =    -0.00021106   -0.00151028   -0.00499230
     atom    8 type  2   force =     0.00316852    0.00186305    0.01189604
     atom    9 type  2   force =     0.00542771    0.00157504   -0.00541672
     atom   10 type  2   force =     0.00021191    0.00757376   -0.01776223
     atom   11 type  2   force =     0.00193292    0.00634496   -0.01081193
     atom   12 type  2   force =    -0.00515404   -0.00251912   -0.00207421

     Total force =     0.043007     Total SCF correction =     0.001172

     General routines

     Parallel routines

   This run was terminated on:  15:34: 2  18Oct2021

   JOB DONE.