     Program PWSCF v.6.4 starts on 18Oct2021 at 16:24:21

     R & G space division:  proc/nbgrp/npool/nimage =      40
     Waiting for input...
     Reading input from standard input
Warning: card    &IONS ignored
Warning: card      ION_DYNAMICS = 'BFGS' ignored
Warning: card   / ignored
Warning: card    &CELL ignored
Warning: card      CELL_DYNAMICS = 'BFGS', ignored
Warning: card    / ignored

     Current dimensions of program PWSCF are:
     Max number of different atomic species (ntypx) = 10
     Max number of k-points (npk) =  40000
     Max angular momentum in pseudopotentials (lmaxx) =  3

     bravais-lattice index     =            0
     lattice parameter (alat)  =      11.5025  a.u.
     unit-cell volume          =    3052.2109 (a.u.)^3
     number of atoms/cell      =           12
     number of atomic types    =            2
     number of electrons       =        72.00
     number of Kohn-Sham states=           43
     kinetic-energy cutoff     =      45.0000  Ry
     charge density cutoff     =     360.0000  Ry
     convergence threshold     =      1.0E-06
     mixing beta               =       0.7000
     number of iterations used =            8  local-TF  mixing
     Exchange-correlation      = SLA PW GGX GGC ( 1  4  2  2 0 0)

     celldm(1)=  11.502531  celldm(2)=   0.000000  celldm(3)=   0.000000
     celldm(4)=   0.000000  celldm(5)=   0.000000  celldm(6)=   0.000000

     crystal axes: (cart. coord. in units of alat)
               a(1) = (   0.999978  -0.005608   0.003542 )
               a(2) = (   0.453242   0.892094   0.003212 )
               a(3) = (   0.082395   0.002912   2.242102 )

     reciprocal axes: (cart. coord. in units 2 pi/alat)
               b(1) = (  0.997309 -0.506568 -0.035992 )
               b(2) = (  0.006274  1.117777 -0.001682 )
               b(3) = ( -0.001584 -0.000801  0.446069 )

     PseudoPot. # 1 for Mo read from file:
     ~/pseudo/Mo.pw91-n-van.UPF
     MD5 check sum: Not computed, couldn't open file
     Pseudo is Ultrasoft + core correction, Zval =  6.0
     Generated by new atomic code, or converted to UPF format
     Using radial grid of  965 points,  3 beta functions with:
                l(1) =   1
                l(2) =   2
                l(3) =   2
     Q(r) pseudized with  8 coefficients,  rinner =    1.000   1.000   1.000
                                                       1.200   1.200

     PseudoPot. # 2 for S  read from file:
     ~/pseudo/S.pw91-van_ak.UPF
     MD5 check sum: Not computed, couldn't open file
     Pseudo is Ultrasoft, Zval =  6.0
     Generated by new atomic code, or converted to UPF format
     Using radial grid of  811 points,  6 beta functions with:
                l(1) =   0
                l(2) =   0
                l(3) =   1
                l(4) =   1
                l(5) =   2
                l(6) =   2
     Q(r) pseudized with  8 coefficients,  rinner =    1.100   1.100   1.100
                                                       1.100   1.100

     atomic species   valence    mass     pseudopotential
        Mo             6.00    95.50000     Mo( 1.00)
        S              6.00    32.06500     S ( 1.00)

     No symmetry found

   Cartesian axes

     site n.     atom                  positions (alat units)
         1           Mo  tau(   1) = (   0.0903904   0.0107751   2.1283580  )
         2           Mo  tau(   2) = (   0.8167205   0.4539969   2.1322974  )
         3           Mo  tau(   3) = (   1.0574814   0.9550215   0.1099721  )
         4           Mo  tau(   4) = (   0.3306715   0.5121520   0.1056592  )
         5           S   tau(   5) = (   0.9427101   0.2704527   0.1941216  )
         6           S   tau(   6) = (   0.6678219   0.7183654   0.1989660  )
         7           S   tau(   7) = (   0.4233889   0.2604785   0.3953047  )
         8           S   tau(   8) = (   1.1508940   0.7056501   0.3984439  )
         9           S   tau(   9) = (   0.9953412   0.2543438   1.8435025  )
        10           S   tau(  10) = (   0.7234074   0.7042605   1.8418768  )
        11           S   tau(  11) = (   0.4788982   0.2483484   2.0380158  )
        12           S   tau(  12) = (   1.2046394   0.6916044   2.0431058  )

     number of k points=    20  Marzari-Vanderbilt smearing, width (Ry)=  0.0200
                       cart. coord. in units 2pi/alat
        k(    1) = (   0.0000000   0.0000000   0.0000000), wk =   0.0625000
        k(    2) = (   0.0007922   0.0004004  -0.2230347), wk =   0.0625000
        k(    3) = (   0.0015686   0.2794441  -0.0004206), wk =   0.1250000
        k(    4) = (   0.0023608   0.2798445  -0.2234552), wk =   0.1250000
        k(    5) = (  -0.0031372  -0.5588883   0.0008412), wk =   0.0625000
        k(    6) = (  -0.0023449  -0.5584878  -0.2221935), wk =   0.0625000
        k(    7) = (   0.2493272  -0.1266420  -0.0089980), wk =   0.1250000
        k(    8) = (   0.2501194  -0.1262416  -0.2320327), wk =   0.1250000
        k(    9) = (   0.2508958   0.1528021  -0.0094186), wk =   0.1250000
        k(   10) = (   0.2516880   0.1532025  -0.2324533), wk =   0.1250000
        k(   11) = (   0.2461900  -0.6855302  -0.0081569), wk =   0.1250000
        k(   12) = (   0.2469823  -0.6851298  -0.2311915), wk =   0.1250000
        k(   13) = (   0.2477586  -0.4060861  -0.0085775), wk =   0.1250000
        k(   14) = (   0.2485508  -0.4056857  -0.2316121), wk =   0.1250000
        k(   15) = (  -0.4986544   0.2532840   0.0179961), wk =   0.0625000
        k(   16) = (  -0.4978621   0.2536844  -0.2050386), wk =   0.0625000
        k(   17) = (  -0.4970858   0.5327281   0.0175755), wk =   0.1250000
        k(   18) = (  -0.4962935   0.5331285  -0.2054592), wk =   0.1250000
        k(   19) = (  -0.5017915  -0.3056043   0.0188372), wk =   0.0625000
        k(   20) = (  -0.5009993  -0.3052039  -0.2041974), wk =   0.0625000

     Initial potential from superposition of free atoms

     starting charge   71.99369, renormalised to   72.00000

     negative rho (up, down):  9.873E-05 0.000E+00
     Starting wfcs are   68 randomized atomic wfcs

     Self-consistent Calculation

     iteration #  1     ecut=    45.00 Ry     beta= 0.70
     Davidson diagonalization with overlap
     ethr =  1.00E-02,  avg # of iterations =  2.6

     negative rho (up, down):  1.543E-04 0.000E+00

     total energy              =    -280.81437876 Ry
     Harris-Foulkes estimate   =    -281.97845247 Ry
     estimated scf accuracy    <       3.37427919 Ry

[...]

     total energy              =    -281.43645088 Ry
     Harris-Foulkes estimate   =    -281.43645097 Ry
     estimated scf accuracy    <       0.00000115 Ry

     iteration # 14     ecut=    45.00 Ry     beta= 0.70
     Davidson diagonalization with overlap
     ethr =  1.60E-09,  avg # of iterations =  3.3

[...]

     End of self-consistent calculation

          k = 0.0000 0.0000 0.0000 ( 15541 PWs)   bands (ev):

   -13.1951 -12.3891 -11.6771 -11.6391 -11.3966 -10.9530 -10.7300 -10.7281
    -5.1236  -5.1125  -4.1643  -3.9909  -3.9761  -3.9609  -3.9306  -3.8729
    -3.0185  -3.0011  -2.5021  -2.4816  -2.2246  -2.0376  -1.7170  -1.6752
    -1.6713  -1.4754  -0.9570  -0.8665  -0.8501  -0.3250  -0.1912   0.2701
     0.4531   0.5962   0.6059   0.6996   0.7283   1.2251   1.6244   2.4228
     2.4689   2.4767   2.7177

[...]

          k =-0.0031-0.5589 0.0008 ( 15594 PWs)   bands (ev):

[...]

          k = 0.2486-0.4057-0.2316 ( 15576 PWs)   bands (ev):

[...]

          k =-0.5010-0.3052-0.2042 ( 15570 PWs)   bands (ev):

   -12.6119 -12.3982 -11.8767 -11.8372 -11.5006 -11.3044 -10.7695 -10.7674
    -4.9042  -4.6795  -4.5289  -4.3381  -4.3137  -3.4837  -3.4782  -2.8581
    -2.8307  -2.6845  -2.3297  -2.3275  -2.3171  -2.2049  -2.1460  -1.8787
    -1.8580  -1.7581  -1.2642  -1.2612  -0.3109  -0.2733  -0.2059  -0.0224
     0.3385   0.4539   0.4722   0.4809   1.0514   1.1968   1.4809   1.5014
     2.1776   2.7373   2.7468

     the Fermi energy is     0.8602 ev

!    total energy              =    -281.43645091 Ry
     Harris-Foulkes estimate   =    -281.43645111 Ry
     estimated scf accuracy    <       0.00000014 Ry

     The total energy is the sum of the following terms:

     one-electron contribution =    -725.88660133 Ry
     hartree contribution      =     389.13861835 Ry
     xc contribution           =    -110.97640836 Ry
     ewald contribution        =     166.28241864 Ry
     smearing contrib. (-TS)   =       0.00552179 Ry

     convergence has been achieved in  14 iterations

     negative rho (up, down):  2.042E-04 0.000E+00

     Forces acting on atoms (cartesian axes, Ry/au):

     atom    1 type  1   force =    -0.00157666   -0.00476853    0.00220692
     atom    2 type  1   force =    -0.00420677    0.00011396    0.00042611
     atom    3 type  1   force =    -0.00071516    0.00259962   -0.00739401
     atom    4 type  1   force =     0.00071641   -0.00009048   -0.00463829
     atom    5 type  2   force =    -0.00883026   -0.00615053   -0.02847074
     atom    6 type  2   force =    -0.00942427   -0.00599759   -0.03482789
     atom    7 type  2   force =     0.00307296    0.00424706    0.00072351
     atom    8 type  2   force =     0.00428615    0.00106636    0.00309127
     atom    9 type  2   force =    -0.00287448   -0.00066657   -0.00503958
     atom   10 type  2   force =    -0.00295739   -0.00175496    0.00018415
     atom   11 type  2   force =     0.01114895    0.00583111    0.03790027
     atom   12 type  2   force =     0.01136054    0.00557054    0.03583828

     Total force =     0.074420     Total SCF correction =     0.000718

     General routines

     Parallel routines

   This run was terminated on:  16:25: 9  18Oct2021

   JOB DONE.