     Program PWSCF v.6.4 starts on 19Nov2021 at 21: 2: 5

     R & G space division:  proc/nbgrp/npool/nimage =      40
     Waiting for input...
     Reading input from standard input
Warning: card    &IONS ignored
Warning: card      ION_DYNAMICS = 'BFGS' ignored
Warning: card   / ignored
Warning: card    &CELL ignored
Warning: card      CELL_DYNAMICS = 'BFGS', ignored
Warning: card    / ignored

     Current dimensions of program PWSCF are:
     Max number of different atomic species (ntypx) = 10
     Max number of k-points (npk) =  40000
     Max angular momentum in pseudopotentials (lmaxx) =  3

     bravais-lattice index     =            0
     lattice parameter (alat)  =      11.7504  a.u.
     unit-cell volume          =    6192.2257 (a.u.)^3
     number of atoms/cell      =           36
     number of atomic types    =            2
     number of electrons       =       216.00
     number of Kohn-Sham states=          130
     kinetic-energy cutoff     =      45.0000  Ry
     charge density cutoff     =     360.0000  Ry
     convergence threshold     =      1.0E-06
     mixing beta               =       0.7000
     number of iterations used =            8  local-TF  mixing
     Exchange-correlation      = SLA PW GGX GGC ( 1  4  2  2 0 0)

     celldm(1)=  11.750389  celldm(2)=   0.000000  celldm(3)=   0.000000
     celldm(4)=   0.000000  celldm(5)=   0.000000  celldm(6)=   0.000000

     crystal axes: (cart. coord. in units of alat)
               a(1) = (   1.000000   0.000000   0.000000 )
               a(2) = (  -0.095936   1.796963   0.000000 )
               a(3) = (  -0.480971  -0.044117   2.123982 )

     reciprocal axes: (cart. coord. in units 2 pi/alat)
               b(1) = (  1.000000  0.053388  0.227557 )
               b(2) = (  0.000000  0.556494  0.011559 )
               b(3) = (  0.000000  0.000000  0.470814 )

     PseudoPot. # 1 for Mo read from file:
     ~/pseudo/Mo.pw91-n-van.UPF
     MD5 check sum: Not computed, couldn't open file
     Pseudo is Ultrasoft + core correction, Zval =  6.0
     Generated by new atomic code, or converted to UPF format
     Using radial grid of  965 points,  3 beta functions with:
                l(1) =   1
                l(2) =   2
                l(3) =   2
     Q(r) pseudized with  8 coefficients,  rinner =    1.000   1.000   1.000
                                                       1.200   1.200

     PseudoPot. # 2 for S  read from file:
     ~/pseudo/S.pw91-van_ak.UPF
     MD5 check sum: Not computed, couldn't open file
     Pseudo is Ultrasoft, Zval =  6.0
     Generated by new atomic code, or converted to UPF format
     Using radial grid of  811 points,  6 beta functions with:
                l(1) =   0
                l(2) =   0
                l(3) =   1
                l(4) =   1
                l(5) =   2
                l(6) =   2
     Q(r) pseudized with  8 coefficients,  rinner =    1.100   1.100   1.100
                                                       1.100   1.100

     atomic species   valence    mass     pseudopotential
        Mo             6.00    95.50000     Mo( 1.00)
        S              6.00    32.06500     S ( 1.00)

     No symmetry found

   Cartesian axes

     site n.     atom                  positions (alat units)
         1           Mo  tau(   1) = (  -0.1527620   0.4439009   0.6994043  )
         2           Mo  tau(   2) = (   0.0763218   0.8912550   0.7002421  )
         3           Mo  tau(   3) = (   0.3476286   0.4436409   0.6989655  )
         4           Mo  tau(   4) = (   0.5762794   0.8908362   0.7026326  )
         5           Mo  tau(   5) = (   0.3007922   1.3409764   0.7008858  )
         6           Mo  tau(   6) = (  -0.1981372   1.3405527   0.7029202  )
         7           Mo  tau(   7) = (   0.6209846  -0.0064918   0.7001607  )
         8           Mo  tau(   8) = (   0.1213492  -0.0065255   0.6987263  )
         9           Mo  tau(   9) = (  -0.0583138   1.5883781   1.7511973  )
        10           Mo  tau(  10) = (   0.4928528   1.6168756   1.7425198  )
        11           Mo  tau(  11) = (  -0.2618729   0.8693840   1.7680943  )
        12           Mo  tau(  12) = (   0.2921341   0.8982993   1.7628792  )
        13           S   tau(  13) = (   0.0945310   0.5972520   0.4412102  )
        14           S   tau(  14) = (   0.8669644   0.1471783   0.4421737  )
        15           S   tau(  15) = (   0.5940979   0.5981952   0.4418667  )
        16           S   tau(  16) = (   0.3682921   0.1466024   0.4404391  )
        17           S   tau(  17) = (   0.5179408   0.8542270   1.4786879  )
        18           S   tau(  18) = (  -0.0129804   1.1477290   1.7809929  )
        19           S   tau(  19) = (   0.0943593   0.5959501   0.9575092  )
        20           S   tau(  20) = (  -0.1319378   0.1462116   0.9567920  )
        21           S   tau(  21) = (   0.5944680   0.5950890   0.9597472  )
        22           S   tau(  22) = (   0.3668536   0.1469112   0.9568052  )
        23           S   tau(  23) = (  -0.4796016   0.8907971   2.0470241  )
        24           S   tau(  24) = (   0.0257326   0.6372604   1.7791405  )
        25           S   tau(  25) = (   0.3245177   1.0439223   0.4434125  )
        26           S   tau(  26) = (   0.8217627   1.0452078   0.4434143  )
        27           S   tau(  27) = (   0.3221907   1.0448544   0.9597849  )
        28           S   tau(  28) = (  -0.1750457   1.0428789   0.9603092  )
        29           S   tau(  29) = (   0.5466488   1.4943362   0.9600360  )
        30           S   tau(  30) = (   0.0482687   1.4955076   0.9595595  )
        31           S   tau(  31) = (  -0.2786909   1.5816415   1.4638508  )
        32           S   tau(  32) = (   0.3029221   0.0518348   1.7139154  )
        33           S   tau(  33) = (   0.5493711   1.4939233   0.4447624  )
        34           S   tau(  34) = (   0.0459712   1.4940460   0.4422364  )
        35           S   tau(  35) = (  -0.2904549   1.6517246   2.0262765  )
        36           S   tau(  36) = (   0.2460980   1.3396211   1.7804990  )

     number of k points=     8  Marzari-Vanderbilt smearing, width (Ry)=  0.0200
                       cart. coord. in units 2pi/alat
        k(    1) = (   0.0000000   0.0000000   0.0000000), wk =   0.1666667
        k(    2) = (   0.0000000   0.0000000  -0.2354068), wk =   0.1666667
        k(    3) = (   0.0000000  -0.2782472  -0.0057795), wk =   0.1666667
        k(    4) = (   0.0000000  -0.2782472  -0.2411863), wk =   0.1666667
        k(    5) = (   0.3333333   0.0177959   0.0758522), wk =   0.3333333
        k(    6) = (   0.3333333   0.0177959  -0.1595546), wk =   0.3333333
        k(    7) = (   0.3333333  -0.2604513   0.0700728), wk =   0.3333333
        k(    8) = (   0.3333333  -0.2604513  -0.1653341), wk =   0.3333333

     Initial potential from superposition of free atoms

     starting charge  215.98107, renormalised to  216.00000
     Starting wfcs are  204 randomized atomic wfcs

     Self-consistent Calculation

     iteration #  1     ecut=    45.00 Ry     beta= 0.70
     Davidson diagonalization with overlap
     ethr =  1.00E-02,  avg # of iterations =  2.0

     total energy              =    -843.66793014 Ry
     Harris-Foulkes estimate   =    -846.05670310 Ry
     estimated scf accuracy    <       6.08442424 Ry

[...]

     total energy              =    -844.82443597 Ry
     Harris-Foulkes estimate   =    -844.82443637 Ry
     estimated scf accuracy    <       0.00000168 Ry

     iteration # 17     ecut=    45.00 Ry     beta= 0.70
     Davidson diagonalization with overlap
     ethr =  7.76E-10,  avg # of iterations =  2.5

     End of self-consistent calculation

          k = 0.0000 0.0000 0.0000 ( 31611 PWs)   bands (ev):

   -11.8138 -10.0653  -9.2882  -9.2678  -8.9372  -8.5716  -8.5513  -8.4404
    -8.3716  -8.2476  -8.2209  -8.1571  -8.1508  -8.1043  -8.0624  -8.0452
    -8.0228  -7.9997  -7.9210  -7.9126  -7.8379  -7.8207  -7.7834  -7.3502
    -2.3371  -1.7627  -1.7539  -1.6546  -1.6241  -1.5579  -1.1049  -1.0988
    -0.8986  -0.8867  -0.8826  -0.8701  -0.8603  -0.7888  -0.7733  -0.5745
    -0.4395  -0.0545  -0.0309   0.0062   0.0708   0.1409   0.1959   0.2299
     0.3290   0.3818   0.4349   0.4415   0.4625   0.4839   0.5094   0.5514
     0.5945   0.7211   0.7393   0.7765   0.7822   1.1125   1.2108   1.2554
     1.2654   1.2925   1.2996   1.3131   1.4953   1.5274   1.5492   1.5784
     1.9491   1.9678   1.9740   1.9759   2.0106   2.2166   2.2270   2.2672
     2.3355   2.3968   2.4540   2.4877   2.6223   2.6294   2.6333   2.6845
     2.7652   2.8123   2.8311   3.0031   3.0863   3.1547   3.1776   3.1929
     3.2377   3.4560   3.4861   3.4940   3.5137   3.5238   3.6004   3.7744
     3.9912   4.0673   4.1081   4.3593   4.4876   4.9833   5.3244   5.3876
     5.5433   5.9494   5.9546   6.0039   6.0957   6.1265   6.1508   6.1814
     6.3223   6.3422   6.3467   6.4206   6.4784   6.4903   6.5020   6.6446
     6.7813   6.7861

[...]

          k = 0.3333-0.2605-0.1653 ( 31548 PWs)   bands (ev):

   -11.8002  -9.5865  -9.5274  -8.8771  -8.7728  -8.7078  -8.6416  -8.4534
    -8.3665  -8.3572  -8.3006  -8.2545  -8.2088  -8.1586  -8.1399  -8.0838
    -8.0335  -8.0137  -7.9988  -7.9755  -7.9469  -7.9096  -7.8081  -7.3542
    -2.2772  -1.6201  -1.1988  -1.1025  -1.0836  -1.0494  -1.0363  -1.0266
    -1.0107  -0.9947  -0.9818  -0.9036  -0.6021  -0.4527  -0.3658  -0.1133
    -0.0412   0.0523   0.0657   0.1349   0.2083   0.2240   0.2668   0.2985
     0.3185   0.3378   0.4637   0.5006   0.5544   0.5855   0.5959   0.6627
     0.7559   0.8299   0.8551   0.8786   0.9060   0.9561   0.9738   1.0714
     1.1021   1.1547   1.1907   1.2301   1.2604   1.3203   1.3809   1.4227
     1.4606   1.5185   1.6682   1.7007   1.8112   1.9065   1.9250   1.9685
     2.0080   2.0433   2.0954   2.1872   2.3103   2.3216   2.3464   2.4358
     2.4521   2.4936   2.5468   2.8063   2.8613   2.9030   3.0258   3.0480
     3.1968   3.3749   3.4585   3.5310   3.6007   3.6453   3.7608   3.8351
     3.8994   4.0064   4.5008   4.6159   4.9363   5.1890   5.5197   5.7546
     5.8861   5.9642   5.9803   5.9981   6.0178   6.0236   6.0892   6.1162
     6.1677   6.1932   6.2264   6.2641   6.3175   6.3625   6.3908   6.4127
     6.4836   6.5539

     the Fermi energy is     4.6790 ev

!    total energy              =    -844.82443609 Ry
     Harris-Foulkes estimate   =    -844.82443615 Ry
     estimated scf accuracy    <       0.00000008 Ry

     The total energy is the sum of the following terms:

     one-electron contribution =    -525.46732111 Ry
     hartree contribution      =     368.17323746 Ry
     xc contribution           =    -334.24672871 Ry
     ewald contribution        =    -353.28325211 Ry
     smearing contrib. (-TS)   =      -0.00037162 Ry

     convergence has been achieved in  17 iterations

     Forces acting on atoms (cartesian axes, Ry/au):

     atom    1 type  1   force =     0.00749557    0.00345992    0.00101957
     atom    2 type  1   force =     0.00588955    0.00923634   -0.00017257
     atom    3 type  1   force =     0.00759748    0.00313781    0.00343456
     atom    4 type  1   force =     0.00628212    0.01076560    0.00057302
     atom    5 type  1   force =     0.00765724    0.00542575   -0.00108147
     atom    6 type  1   force =     0.00395254    0.00550201    0.00107922
     atom    7 type  1   force =     0.00784033    0.00573668    0.00166227
     atom    8 type  1   force =     0.00760771    0.00614328    0.00252272
     atom    9 type  1   force =     0.11274341   -0.03335302    0.00579520
     atom   10 type  1   force =    -0.11265283   -0.00991003   -0.00940529
     atom   11 type  1   force =     0.12356311    0.00917892   -0.02551401
     atom   12 type  1   force =    -0.11186135    0.03665791    0.00095166
     atom   13 type  2   force =    -0.00422631   -0.00541091    0.00569116
     atom   14 type  2   force =    -0.00251221   -0.00257849    0.00422867
     atom   15 type  2   force =    -0.00211072   -0.00609219    0.00575678
     atom   16 type  2   force =    -0.00393633   -0.00102444    0.00982068
     atom   17 type  2   force =    -0.00676648    0.00454649   -0.03859476
     atom   18 type  2   force =    -0.20378076   -0.10712600   -0.01015799
     atom   19 type  2   force =    -0.00232251   -0.00499524   -0.00518950
     atom   20 type  2   force =    -0.00302343    0.00039720   -0.00543412
     atom   21 type  2   force =    -0.00362680   -0.00567627   -0.01069494
     atom   22 type  2   force =    -0.00165019   -0.00149468   -0.00557592
     atom   23 type  2   force =    -0.02485496   -0.00112458    0.07267049
     atom   24 type  2   force =     0.01177682   -0.06088033    0.00126749
     atom   25 type  2   force =    -0.00613248   -0.00024554    0.00705856
     atom   26 type  2   force =    -0.00313852   -0.00258814    0.01198241
     atom   27 type  2   force =    -0.00344851   -0.00256727   -0.01000050
     atom   28 type  2   force =    -0.00722134   -0.00023402   -0.00761447
     atom   29 type  2   force =    -0.00460592   -0.00339398   -0.01466320
     atom   30 type  2   force =    -0.00334815   -0.00305813   -0.00948635
     atom   31 type  2   force =     0.00700894   -0.00945583   -0.05213705
     atom   32 type  2   force =    -0.01152534    0.05727960   -0.00475951
     atom   33 type  2   force =    -0.00686846   -0.00488836    0.00369850
     atom   34 type  2   force =    -0.00067836   -0.00626999    0.00921614
     atom   35 type  2   force =     0.01587903    0.00528404    0.05772987
     atom   36 type  2   force =     0.20499814    0.10961586    0.00432269

     Total force =     0.432853     Total SCF correction =     0.000590

     General routines

     Parallel routines

   This run was terminated on:  21: 4:45  19Nov2021

   JOB DONE.