     Program PWSCF v.6.4 starts on 23Dec2021 at 23:36:41

     R & G space division:  proc/nbgrp/npool/nimage =      40
     Waiting for input...
     Reading input from standard input
Warning: card    &IONS ignored
Warning: card      ION_DYNAMICS = 'BFGS' ignored
Warning: card   / ignored
Warning: card    &CELL ignored
Warning: card      CELL_DYNAMICS = 'BFGS', ignored
Warning: card    / ignored

     Current dimensions of program PWSCF are:
     Max number of different atomic species (ntypx) = 10
     Max number of k-points (npk) =  40000
     Max angular momentum in pseudopotentials (lmaxx) =  3

     bravais-lattice index     =            0
     lattice parameter (alat)  =      11.7791  a.u.
     unit-cell volume          =    4155.4410 (a.u.)^3
     number of atoms/cell      =           18
     number of atomic types    =            2
     number of electrons       =       108.00
     number of Kohn-Sham states=           65
     kinetic-energy cutoff     =      45.0000  Ry
     charge density cutoff     =     360.0000  Ry
     convergence threshold     =      1.0E-06
     mixing beta               =       0.7000
     number of iterations used =            8  local-TF  mixing
     Exchange-correlation      = SLA PW GGX GGC ( 1  4  2  2 0 0)

     celldm(1)=  11.779099  celldm(2)=   0.000000  celldm(3)=   0.000000
     celldm(4)=   0.000000  celldm(5)=   0.000000  celldm(6)=   0.000000

     crystal axes: (cart. coord. in units of alat)
               a(1) = (   1.000000   0.000000   0.000000 )
               a(2) = (  -0.506514   0.914219   0.000000 )
               a(3) = (  -0.321082  -0.345023   2.781189 )

     reciprocal axes: (cart. coord. in units 2 pi/alat)
               b(1) = (  1.000000  0.554040  0.184180 )
               b(2) = (  0.000000  1.093830  0.135696 )
               b(3) = (  0.000000  0.000000  0.359558 )

     PseudoPot. # 1 for Mo read from file:
     ~/pseudo/Mo.pw91-n-van.UPF
     MD5 check sum: Not computed, couldn't open file
     Pseudo is Ultrasoft + core correction, Zval =  6.0
     Generated by new atomic code, or converted to UPF format
     Using radial grid of  965 points,  3 beta functions with:
                l(1) =   1
                l(2) =   2
                l(3) =   2
     Q(r) pseudized with  8 coefficients,  rinner =    1.000   1.000   1.000
                                                       1.200   1.200

     PseudoPot. # 2 for S  read from file:
     ~/pseudo/S.pw91-van_ak.UPF
     MD5 check sum: Not computed, couldn't open file
     Pseudo is Ultrasoft, Zval =  6.0
     Generated by new atomic code, or converted to UPF format
     Using radial grid of  811 points,  6 beta functions with:
                l(1) =   0
                l(2) =   0
                l(3) =   1
                l(4) =   1
                l(5) =   2
                l(6) =   2
     Q(r) pseudized with  8 coefficients,  rinner =    1.100   1.100   1.100
                                                       1.100   1.100

     atomic species   valence    mass     pseudopotential
        Mo             6.00    95.50000     Mo( 1.00)
        S              6.00    32.06500     S ( 1.00)

     No symmetry found

   Cartesian axes

     site n.     atom                  positions (alat units)
         1           Mo  tau(   1) = (   0.0664511  -0.2447371   2.4925988  )
         2           Mo  tau(   2) = (  -0.1855620   0.2172144   2.4967834  )
         3           Mo  tau(   3) = (   0.5647535  -0.2428191   2.4923151  )
         4           Mo  tau(   4) = (   0.3138093   0.2170134   2.4923139  )
         5           Mo  tau(   5) = (   0.3142467   0.1962064   0.7476224  )
         6           Mo  tau(   6) = (  -0.1775048   0.1972932   0.7429056  )
         7           S   tau(   7) = (  -0.1804520  -0.0825342   2.7476248  )
         8           S   tau(   8) = (  -0.4383727   0.3695847   2.7481659  )
         9           S   tau(   9) = (   0.3160968  -0.0892904   2.7481891  )
        10           S   tau(  10) = (   0.0661348   0.3704510   2.7483439  )
        11           S   tau(  11) = (   0.5666411  -0.0634411   0.7427277  )
        12           S   tau(  12) = (   0.0660643   0.1735679   0.4663984  )
        13           S   tau(  13) = (  -0.1792758  -0.0871114   2.2412349  )
        14           S   tau(  14) = (  -0.4362766   0.3679021   2.2423494  )
        15           S   tau(  15) = (   0.3219585  -0.0881259   2.2400907  )
        16           S   tau(  16) = (   0.0667133   0.3702984   2.2435498  )
        17           S   tau(  17) = (   0.5685745   0.4665586   0.7350099  )
        18           S   tau(  18) = (   0.0663052   0.2001227   1.0229250  )

     number of k points=     5  Marzari-Vanderbilt smearing, width (Ry)=  0.0200
                       cart. coord. in units 2pi/alat
        k(    1) = (   0.0000000   0.0000000   0.0000000), wk =   0.2222222
        k(    2) = (   0.0000000   0.3646098   0.0452320), wk =   0.4444444
        k(    3) = (   0.3333333   0.1846799   0.0613932), wk =   0.4444444
        k(    4) = (   0.3333333   0.5492897   0.1066252), wk =   0.4444444
        k(    5) = (   0.3333333  -0.1799299   0.0161612), wk =   0.4444444

     Initial potential from superposition of free atoms

     starting charge  107.99054, renormalised to  108.00000

     negative rho (up, down):  1.276E-05 0.000E+00
     Starting wfcs are  102 randomized atomic wfcs

     Self-consistent Calculation

     iteration #  1     ecut=    45.00 Ry     beta= 0.70
     Davidson diagonalization with overlap
     ethr =  1.00E-02,  avg # of iterations =  2.2

     negative rho (up, down):  7.462E-08 0.000E+00

     total energy              =    -421.87843940 Ry
     Harris-Foulkes estimate   =    -423.16954932 Ry
     estimated scf accuracy    <       3.28352490 Ry

[...]

     iteration # 17     ecut=    45.00 Ry     beta= 0.70
     Davidson diagonalization with overlap
     c_bands:  1 eigenvalues not converged
     c_bands:  1 eigenvalues not converged
     ethr =  4.02E-07,  avg # of iterations = 13.8

[...]

     total energy              =    -422.52234712 Ry
     Harris-Foulkes estimate   =    -422.52235088 Ry
     estimated scf accuracy    <       0.00001736 Ry

     iteration # 31     ecut=    45.00 Ry     beta= 0.70
     Davidson diagonalization with overlap
     ethr =  1.61E-08,  avg # of iterations =  1.0

[...]

     End of self-consistent calculation

          k = 0.0000 0.0000 0.0000 ( 21155 PWs)   bands (ev):

   -12.4715 -11.3548 -11.2676 -10.8200 -10.6988 -10.6487 -10.6386 -10.5688
   -10.5556 -10.5142 -10.3980 -10.2981  -4.1464  -4.0984  -4.0566  -3.9683
    -3.3633  -3.2233  -3.1585  -3.0945  -2.5426  -2.4492  -2.4186  -2.2166
    -2.0801  -1.9636  -1.7886  -1.7828  -1.7221  -1.6329  -1.5281  -1.4414
    -1.2706  -1.2160  -1.1465  -0.6993  -0.5135  -0.4396  -0.3331  -0.2668
    -0.2185  -0.0316   0.0916   0.2976   0.3424   0.4612   0.5458   0.7428
     0.9675   1.0046   1.0899   1.3839   1.4303   1.5360   1.9039   2.8208
     2.9941   3.5069   3.5313   3.6247   3.6702   3.8472   4.0760   4.1547
     4.2551

[...]

          k = 0.3333-0.1799 0.0162 ( 21189 PWs)   bands (ev):

   -12.0872 -11.1925 -11.1574 -11.0844 -10.8056 -10.7391 -10.6999 -10.6640
   -10.6368 -10.5661 -10.4902 -10.3605  -3.6518  -3.5951  -3.5544  -3.5332
    -3.2529  -3.1669  -2.8712  -2.5303  -2.3987  -2.3195  -2.2340  -2.2019
    -2.1076  -2.0163  -1.9497  -1.7033  -1.6640  -1.6190  -1.5159  -1.4184
    -1.3073  -1.2936  -1.2645  -1.1379  -0.9000  -0.8067  -0.7578  -0.6714
    -0.6060  -0.5190  -0.4484  -0.1931  -0.1170   0.0326   0.1238   0.5630
     0.6696   1.1089   1.2071   1.2688   1.5333   1.7327   2.3786   3.2518
     3.3132   3.4383   3.5413   3.6488   3.6802   3.7919   3.8760   3.9322
     4.0619

     the Fermi energy is     1.7472 ev

!    total energy              =    -422.52234884 Ry
     Harris-Foulkes estimate   =    -422.52234918 Ry
     estimated scf accuracy    <       0.00000034 Ry

     The total energy is the sum of the following terms:

     one-electron contribution =    -899.18327022 Ry
     hartree contribution      =     492.31371522 Ry
     xc contribution           =    -166.78256992 Ry
     ewald contribution        =     151.12090307 Ry
     smearing contrib. (-TS)   =       0.00887301 Ry

     convergence has been achieved in  31 iterations

     negative rho (up, down):  6.353E-05 0.000E+00

     Forces acting on atoms (cartesian axes, Ry/au):

     atom    1 type  1   force =     0.01212836    0.01457951    0.01110051
     atom    2 type  1   force =     0.00471075   -0.00794509   -0.00906058
     atom    3 type  1   force =     0.03525785    0.00997447    0.02397607
     atom    4 type  1   force =     0.00702093   -0.02480267    0.02176004
     atom    5 type  1   force =    -0.02413357    0.01912165   -0.02007160
     atom    6 type  1   force =     0.01153796    0.00820817    0.00135160
     atom    7 type  2   force =    -0.00962831   -0.01272904   -0.01374266
     atom    8 type  2   force =     0.00143135    0.00222710    0.00412260
     atom    9 type  2   force =    -0.00265655    0.00553924   -0.00609623
     atom   10 type  2   force =    -0.00483761    0.00410346    0.00328849
     atom   11 type  2   force =     0.00639741   -0.05424424    0.00655424
     atom   12 type  2   force =     0.00946581    0.00543546    0.01657610
     atom   13 type  2   force =    -0.01221452    0.00385941   -0.00344151
     atom   14 type  2   force =     0.00438344    0.00399158   -0.01518435
     atom   15 type  2   force =    -0.01958922    0.00326293   -0.00693211
     atom   16 type  2   force =    -0.01424692    0.00121088   -0.01908119
     atom   17 type  2   force =    -0.00327630    0.01664456    0.00088763
     atom   18 type  2   force =    -0.00175082    0.00156261    0.00399293

     Total force =     0.105050     Total SCF correction =     0.000926

     General routines

     Parallel routines

   This run was terminated on:  23:38: 3  23Dec2021

   JOB DONE.