     Program PWSCF v.6.4 starts on  3Aug2021 at 15:49:50

     R & G space division:  proc/nbgrp/npool/nimage =      20
     Waiting for input...
     Reading input from standard input
Warning: card    &IONS ignored
Warning: card      ION_DYNAMICS = 'BFGS' ignored
Warning: card   / ignored
Warning: card    &CELL ignored
Warning: card      CELL_DYNAMICS = 'BFGS', ignored
Warning: card    / ignored

     Current dimensions of program PWSCF are:
     Max number of different atomic species (ntypx) = 10
     Max number of k-points (npk) =  40000
     Max angular momentum in pseudopotentials (lmaxx) =  3

     bravais-lattice index     =            0
     lattice parameter (alat)  =      12.6605  a.u.
     unit-cell volume          =    4803.4842 (a.u.)^3
     number of atoms/cell      =           12
     number of atomic types    =            2
     number of electrons       =        72.00
     number of Kohn-Sham states=           43
     kinetic-energy cutoff     =      45.0000  Ry
     charge density cutoff     =     360.0000  Ry
     convergence threshold     =      1.0E-06
     mixing beta               =       0.7000
     number of iterations used =            8  local-TF  mixing
     Exchange-correlation      = SLA PW GGX GGC ( 1  4  2  2 0 0)

     celldm(1)=  12.660525  celldm(2)=   0.000000  celldm(3)=   0.000000
     celldm(4)=   0.000000  celldm(5)=   0.000000  celldm(6)=   0.000000

     crystal axes: (cart. coord. in units of alat)
               a(1) = (   1.000000   0.000000   0.000000 )
               a(2) = (  -0.500000   0.866025   0.000000 )
               a(3) = (   0.000000   0.000000   2.733194 )

     reciprocal axes: (cart. coord. in units 2 pi/alat)
               b(1) = (  1.000000  0.577350  0.000000 )
               b(2) = (  0.000000  1.154700  0.000000 )
               b(3) = (  0.000000  0.000000  0.365872 )

     PseudoPot. # 1 for Mo read from file:
     ~/pseudo/Mo.pw91-n-van.UPF
     MD5 check sum: Not computed, couldn't open file
     Pseudo is Ultrasoft + core correction, Zval =  6.0
     Generated by new atomic code, or converted to UPF format
     Using radial grid of  965 points,  3 beta functions with:
                l(1) =   1
                l(2) =   2
                l(3) =   2
     Q(r) pseudized with  8 coefficients,  rinner =    1.000   1.000   1.000
                                                       1.200   1.200

     PseudoPot. # 2 for S  read from file:
     ~/pseudo/S.pw91-van_ak.UPF
     MD5 check sum: Not computed, couldn't open file
     Pseudo is Ultrasoft, Zval =  6.0
     Generated by new atomic code, or converted to UPF format
     Using radial grid of  811 points,  6 beta functions with:
                l(1) =   0
                l(2) =   0
                l(3) =   1
                l(4) =   1
                l(5) =   2
                l(6) =   2
     Q(r) pseudized with  8 coefficients,  rinner =    1.100   1.100   1.100
                                                       1.100   1.100

     atomic species   valence    mass     pseudopotential
        Mo             6.00    95.50000     Mo( 1.00)
        S              6.00    32.06500     S ( 1.00)

     No symmetry found

   Cartesian axes

     site n.     atom                  positions (alat units)
         1           Mo  tau(   1) = (  -0.0124005  -0.0012257   0.0082167  )
         2           Mo  tau(   2) = (  -0.2550054   0.4206491  -0.0066991  )
         3           Mo  tau(   3) = (   0.5048969  -0.0140991   0.0001590  )
         4           Mo  tau(   4) = (   0.2541846   0.4348378  -0.0142108  )
         5           S   tau(   5) = (  -0.0133585   0.2929803   0.2503359  )
         6           S   tau(   6) = (  -0.2466099   0.7360199   0.2428276  )
         7           S   tau(   7) = (   0.4957625   0.2882463   0.2595606  )
         8           S   tau(   8) = (   0.2423174   0.7179930   0.2330027  )
         9           S   tau(   9) = (   0.0027706   0.2897168   2.4733097  )
        10           S   tau(  10) = (  -0.2520973   0.7224972   2.5026953  )
        11           S   tau(  11) = (   0.4904258   0.2856332   2.4768996  )
        12           S   tau(  12) = (   0.2482302   0.7330765   2.4974242  )

     number of k points=     5  Marzari-Vanderbilt smearing, width (Ry)=  0.0200
                       cart. coord. in units 2pi/alat
        k(    1) = (   0.0000000   0.0000000   0.0000000), wk =   0.2222222
        k(    2) = (   0.0000000   0.3849002   0.0000000), wk =   0.4444444
        k(    3) = (   0.3333333   0.5773503   0.0000000), wk =   0.4444444
        k(    4) = (  -0.3333333   0.1924500   0.0000000), wk =   0.4444444
        k(    5) = (   0.3333333   0.1924501   0.0000000), wk =   0.4444444

     Initial potential from superposition of free atoms

     starting charge   71.99369, renormalised to   72.00000

     negative rho (up, down):  7.682E-04 0.000E+00
     Starting wfcs are   68 randomized atomic wfcs

     Self-consistent Calculation

     iteration #  1     ecut=    45.00 Ry     beta= 0.70
     Davidson diagonalization with overlap
     ethr =  1.00E-02,  avg # of iterations =  2.0

     negative rho (up, down):  4.577E-04 0.000E+00

     total energy              =    -281.05121124 Ry
     Harris-Foulkes estimate   =    -282.23940230 Ry
     estimated scf accuracy    <       3.20272380 Ry

[...]

     total energy              =    -281.68898654 Ry
     Harris-Foulkes estimate   =    -281.68898327 Ry
     estimated scf accuracy    <       0.00000370 Ry

     iteration # 14     ecut=    45.00 Ry     beta= 0.70
     Davidson diagonalization with overlap
     ethr =  5.14E-09,  avg # of iterations =  3.4

[...]

     End of self-consistent calculation

          k = 0.0000 0.0000 0.0000 ( 24523 PWs)   bands (ev):

   -15.1253 -14.1652 -13.9126 -13.6684 -13.6305 -13.4791 -13.3113 -13.2744
    -6.8229  -6.7451  -6.6806  -6.5890  -5.9749  -5.9297  -5.7514  -5.4195
    -5.2856  -5.1156  -4.6767  -4.5203  -4.2913  -4.0086  -3.9919  -3.6028
    -3.5465  -3.4292  -3.1937  -3.1245  -2.8408  -2.7929  -2.6787  -2.5752
    -2.3716  -2.2075  -2.0298  -1.6552  -0.1843  -0.1456  -0.0430   0.1964
     0.2885   0.3421   0.3868

[...]

          k =-0.3333 0.1925 0.0000 ( 24492 PWs)   bands (ev):

[...]

          k = 0.3333 0.1925 0.0000 ( 24492 PWs)   bands (ev):

   -14.8512 -14.1767 -14.0344 -13.7131 -13.6798 -13.6024 -13.3913 -13.2915
    -6.4793  -6.3749  -6.1880  -6.1025  -5.9712  -5.9139  -5.3923  -5.2973
    -5.1511  -5.0511  -4.7027  -4.6676  -4.4579  -4.2271  -4.0778  -3.8918
    -3.8046  -3.5978  -3.4674  -3.3649  -3.3146  -3.1886  -3.0133  -2.7250
    -2.5076  -2.2691  -2.0119  -1.9052  -0.2158  -0.1464  -0.0544   0.1250
     0.1845   0.3092   0.3782

     the Fermi energy is    -1.5851 ev

!    total energy              =    -281.68898892 Ry
     Harris-Foulkes estimate   =    -281.68898732 Ry
     estimated scf accuracy    <       0.00000032 Ry

     The total energy is the sum of the following terms:

     one-electron contribution =   -1376.26490683 Ry
     hartree contribution      =     708.13276251 Ry
     xc contribution           =    -110.36155096 Ry
     ewald contribution        =     496.79621799 Ry
     smearing contrib. (-TS)   =       0.00848837 Ry

     convergence has been achieved in  14 iterations

     negative rho (up, down):  1.061E-03 0.000E+00

     Forces acting on atoms (cartesian axes, Ry/au):

     atom    1 type  1   force =     0.04925723    0.03469625   -0.02028969
     atom    2 type  1   force =     0.00073606    0.03939594    0.02666516
     atom    3 type  1   force =    -0.04523539    0.08941664    0.00703504
     atom    4 type  1   force =    -0.03188644   -0.02300642    0.04834309
     atom    5 type  2   force =     0.01615528   -0.00655119   -0.08934868
     atom    6 type  2   force =    -0.01958592   -0.04402442   -0.05176646
     atom    7 type  2   force =     0.00438359   -0.00617723   -0.11223293
     atom    8 type  2   force =     0.01727960   -0.01949520   -0.01449809
     atom    9 type  2   force =    -0.01147044   -0.00720800    0.08908618
     atom   10 type  2   force =    -0.01238926   -0.01806544    0.03339814
     atom   11 type  2   force =     0.02092817   -0.01042285    0.07438263
     atom   12 type  2   force =     0.01182753   -0.02855809    0.00922561

     Total force =     0.252875     Total SCF correction =     0.001107

     General routines

     Parallel routines

   This run was terminated on:  15:50:14   3Aug2021

   JOB DONE.