     Program PWSCF v.6.4 starts on  3Dec2021 at 11: 3: 4

     R & G space division:  proc/nbgrp/npool/nimage =      40
     Waiting for input...
     Reading input from standard input
Warning: card    &IONS ignored
Warning: card      ION_DYNAMICS = 'BFGS' ignored
Warning: card   / ignored
Warning: card    &CELL ignored
Warning: card      CELL_DYNAMICS = 'BFGS', ignored
Warning: card    / ignored

     Current dimensions of program PWSCF are:
     Max number of different atomic species (ntypx) = 10
     Max number of k-points (npk) =  40000
     Max angular momentum in pseudopotentials (lmaxx) =  3

     bravais-lattice index     =            0
     lattice parameter (alat)  =      13.1844  a.u.
     unit-cell volume          =    3261.9469 (a.u.)^3
     number of atoms/cell      =           21
     number of atomic types    =            2
     number of electrons       =       126.00
     number of Kohn-Sham states=           76
     kinetic-energy cutoff     =      45.0000  Ry
     charge density cutoff     =     360.0000  Ry
     convergence threshold     =      1.0E-06
     mixing beta               =       0.7000
     number of iterations used =            8  local-TF  mixing
     Exchange-correlation      = SLA PW GGX GGC ( 1  4  2  2 0 0)

     celldm(1)=  13.184423  celldm(2)=   0.000000  celldm(3)=   0.000000
     celldm(4)=   0.000000  celldm(5)=   0.000000  celldm(6)=   0.000000

     crystal axes: (cart. coord. in units of alat)
               a(1) = (   1.000000   0.000000   0.000000 )
               a(2) = (   0.252406   1.164145   0.000000 )
               a(3) = (   0.241071   0.448224   1.222605 )

     reciprocal axes: (cart. coord. in units 2 pi/alat)
               b(1) = (  1.000000 -0.216817 -0.117690 )
               b(2) = (  0.000000  0.858999 -0.314921 )
               b(3) = (  0.000000  0.000000  0.817926 )

     PseudoPot. # 1 for Mo read from file:
     ~/pseudo/Mo.pw91-n-van.UPF
     MD5 check sum: Not computed, couldn't open file
     Pseudo is Ultrasoft + core correction, Zval =  6.0
     Generated by new atomic code, or converted to UPF format
     Using radial grid of  965 points,  3 beta functions with:
                l(1) =   1
                l(2) =   2
                l(3) =   2
     Q(r) pseudized with  8 coefficients,  rinner =    1.000   1.000   1.000
                                                       1.200   1.200

     PseudoPot. # 2 for S  read from file:
     ~/pseudo/S.pw91-van_ak.UPF
     MD5 check sum: Not computed, couldn't open file
     Pseudo is Ultrasoft, Zval =  6.0
     Generated by new atomic code, or converted to UPF format
     Using radial grid of  811 points,  6 beta functions with:
                l(1) =   0
                l(2) =   0
                l(3) =   1
                l(4) =   1
                l(5) =   2
                l(6) =   2
     Q(r) pseudized with  8 coefficients,  rinner =    1.100   1.100   1.100
                                                       1.100   1.100

     atomic species   valence    mass     pseudopotential
        Mo             6.00    95.50000     Mo( 1.00)
        S              6.00    32.06500     S ( 1.00)

     No symmetry found

   Cartesian axes

     site n.     atom                  positions (alat units)
         1           Mo  tau(   1) = (   0.3986031   0.4080261   0.2638460  )
         2           Mo  tau(   2) = (   0.9962589   1.3713442   0.7087148  )
         3           Mo  tau(   3) = (   1.0614050   0.9569542   0.7443994  )
         4           Mo  tau(   4) = (   1.0047640   0.2918365   0.3656250  )
         5           Mo  tau(   5) = (   0.8792657   0.9271960   1.1155152  )
         6           Mo  tau(   6) = (   0.8953710   0.5776090   0.8637650  )
         7           Mo  tau(   7) = (   1.1759384   0.6030246   0.5580503  )
         8           S   tau(   8) = (   1.1322994   1.1870769   1.0240229  )
         9           S   tau(   9) = (   1.0812961   0.3058069   0.7046611  )
        10           S   tau(  10) = (   0.7108801   0.2659455   0.1661264  )
        11           S   tau(  11) = (   0.3585961   0.8799420   0.5923030  )
        12           S   tau(  12) = (   0.2151540   0.1247129   0.1904718  )
        13           S   tau(  13) = (   1.0599516   1.1607600   0.4464818  )
        14           S   tau(  14) = (   0.4984327   0.4319574   0.5808255  )
        15           S   tau(  15) = (   1.1024265   0.5935507   0.2294911  )
        16           S   tau(  16) = (   1.0030692   1.4720653   1.0460409  )
        17           S   tau(  17) = (   0.8546652   0.7428735   0.5795799  )
        18           S   tau(  18) = (   0.5236984   0.6950172   0.1130054  )
        19           S   tau(  19) = (   0.7655744   1.1347493   0.8175831  )
        20           S   tau(  20) = (   0.6392178   0.7305590   1.0005861  )
        21           S   tau(  21) = (   1.1579783   0.7299194   0.9939257  )

     number of k points=     8  Marzari-Vanderbilt smearing, width (Ry)=  0.0200
                       cart. coord. in units 2pi/alat
        k(    1) = (   0.0000000   0.0000000   0.0000000), wk =   0.1666667
        k(    2) = (   0.0000000   0.0000000  -0.4089628), wk =   0.1666667
        k(    3) = (   0.0000000  -0.4294996   0.1574605), wk =   0.1666667
        k(    4) = (   0.0000000  -0.4294996  -0.2515022), wk =   0.1666667
        k(    5) = (   0.3333333  -0.0722722  -0.0392302), wk =   0.3333333
        k(    6) = (   0.3333333  -0.0722722  -0.4481929), wk =   0.3333333
        k(    7) = (   0.3333333  -0.5017719   0.1182304), wk =   0.3333333
        k(    8) = (   0.3333333  -0.5017719  -0.2907324), wk =   0.3333333

     Initial potential from superposition of free atoms

     starting charge  125.98896, renormalised to  126.00000
     Starting wfcs are  119 randomized atomic wfcs

     Self-consistent Calculation

     iteration #  1     ecut=    45.00 Ry     beta= 0.70
     Davidson diagonalization with overlap
     ethr =  1.00E-02,  avg # of iterations =  2.0

     total energy              =    -491.71861665 Ry
     Harris-Foulkes estimate   =    -493.24673802 Ry
     estimated scf accuracy    <       4.07171861 Ry

[...]

     total energy              =    -492.50344745 Ry
     Harris-Foulkes estimate   =    -492.50344787 Ry
     estimated scf accuracy    <       0.00000207 Ry

     iteration # 12     ecut=    45.00 Ry     beta= 0.70
     Davidson diagonalization with overlap
     ethr =  1.64E-09,  avg # of iterations =  2.5

     End of self-consistent calculation

          k = 0.0000 0.0000 0.0000 ( 16631 PWs)   bands (ev):

    -9.5594  -8.3891  -7.8915  -7.6825  -7.5429  -7.3383  -7.3108  -7.2792
    -6.9878  -6.8820  -6.8259  -6.5957  -6.4409  -6.1677  -0.5575  -0.4130
    -0.1091  -0.0487   0.0748   0.2338   0.4568   0.4933   0.6412   0.7697
     0.8123   0.9140   1.0284   1.1733   1.3340   1.4046   1.4938   1.5839
     1.6397   1.8610   1.9414   1.9919   2.0142   2.1267   2.2821   2.4107
     2.5205   2.5921   2.6515   2.7614   2.8699   2.9184   2.9935   3.2557
     3.3248   3.4881   3.7327   3.8389   3.9225   3.9991   4.1767   4.4725
     4.5741   4.8607   4.9760   5.0806   5.2180   5.3422   5.4525   5.5643
     5.7190   5.9838   6.1664   6.5523   6.6199   6.7241   6.9392   7.0982
     7.2441   7.3622   7.4692   7.6348

[...]

          k = 0.3333-0.5018-0.2907 ( 16625 PWs)   bands (ev):

    -9.5095  -8.2538  -7.9999  -7.7648  -7.5858  -7.4760  -7.3483  -7.2229
    -6.9477  -6.8979  -6.7331  -6.5996  -6.4574  -6.1347  -0.6826  -0.3101
    -0.0296   0.0589   0.1682   0.2571   0.3940   0.5160   0.5561   0.8569
     0.9208   1.0600   1.1326   1.1740   1.3420   1.4027   1.4506   1.6245
     1.6588   1.7867   1.9144   1.9331   2.0064   2.0572   2.1796   2.2128
     2.3221   2.4525   2.5910   2.7289   2.8718   2.9416   2.9631   3.2080
     3.3694   3.6172   3.6455   3.8374   4.0740   4.2155   4.3707   4.4965
     4.6006   4.8313   4.9306   5.0649   5.1097   5.3634   5.5918   5.6550
     5.7176   5.8547   6.0968   6.2636   6.5545   6.6860   6.8458   7.2025
     7.2918   7.3987   7.5070   7.5551

     the Fermi energy is     5.5781 ev

!    total energy              =    -492.50344734 Ry
     Harris-Foulkes estimate   =    -492.50344777 Ry
     estimated scf accuracy    <       0.00000054 Ry

     The total energy is the sum of the following terms:

     one-electron contribution =     -86.88851531 Ry
     hartree contribution      =     109.88209652 Ry
     xc contribution           =    -194.65118971 Ry
     ewald contribution        =    -320.84342469 Ry
     smearing contrib. (-TS)   =      -0.00241415 Ry

     convergence has been achieved in  12 iterations

     Forces acting on atoms (cartesian axes, Ry/au):

     atom    1 type  1   force =    -0.02254306    0.02865848    0.00901305
     atom    2 type  1   force =    -0.03655549   -0.03294598   -0.02193712
     atom    3 type  1   force =     0.00112470   -0.03268697    0.01477719
     atom    4 type  1   force =    -0.02623713   -0.00470200    0.00534372
     atom    5 type  1   force =     0.05553886    0.00144551   -0.05295600
     atom    6 type  1   force =     0.00642947   -0.02436472    0.01612652
     atom    7 type  1   force =     0.04006781    0.02440613   -0.02004626
     atom    8 type  2   force =     0.01010742   -0.00272280    0.01053525
     atom    9 type  2   force =     0.00193180   -0.02581468    0.01020840
     atom   10 type  2   force =    -0.00703542    0.01536301    0.00494065
     atom   11 type  2   force =     0.01789076    0.01975575   -0.00570891
     atom   12 type  2   force =     0.03292149   -0.02738810    0.00197199
     atom   13 type  2   force =    -0.00478388    0.01710834    0.00792981
     atom   14 type  2   force =     0.01542897   -0.01755134   -0.01419967
     atom   15 type  2   force =     0.00203899    0.00341181   -0.00049158
     atom   16 type  2   force =    -0.00261081    0.00979091    0.01228132
     atom   17 type  2   force =    -0.01911205    0.00795713   -0.02424220
     atom   18 type  2   force =    -0.00635376   -0.00242641    0.02108280
     atom   19 type  2   force =    -0.01956609   -0.00750636   -0.00959268
     atom   20 type  2   force =    -0.05237369    0.01737606    0.01545621
     atom   21 type  2   force =     0.01369111    0.03283622    0.01950751

     Total force =     0.167270     Total SCF correction =     0.001336

     General routines

     Parallel routines

   This run was terminated on:  11: 3:46   3Dec2021

   JOB DONE.