     Program PWSCF v.6.4 starts on 14Oct2021 at  9:57:13

     R & G space division:  proc/nbgrp/npool/nimage =      40
     Waiting for input...
     Reading input from standard input
Warning: card    &IONS ignored
Warning: card      ION_DYNAMICS = 'BFGS' ignored
Warning: card   / ignored
Warning: card    &CELL ignored
Warning: card      CELL_DYNAMICS = 'BFGS', ignored
Warning: card    / ignored

     Current dimensions of program PWSCF are:
     Max number of different atomic species (ntypx) = 10
     Max number of k-points (npk) =  40000
     Max angular momentum in pseudopotentials (lmaxx) =  3

     bravais-lattice index     =            0
     lattice parameter (alat)  =      12.5359  a.u.
     unit-cell volume          =    8407.5874 (a.u.)^3
     number of atoms/cell      =           36
     number of atomic types    =            2
     number of electrons       =       216.00
     number of Kohn-Sham states=          130
     kinetic-energy cutoff     =      45.0000  Ry
     charge density cutoff     =     360.0000  Ry
     convergence threshold     =      1.0E-06
     mixing beta               =       0.7000
     number of iterations used =            8  local-TF  mixing
     Exchange-correlation      = SLA PW GGX GGC ( 1  4  2  2 0 0)

     celldm(1)=  12.535914  celldm(2)=   0.000000  celldm(3)=   0.000000
     celldm(4)=   0.000000  celldm(5)=   0.000000  celldm(6)=   0.000000

     crystal axes: (cart. coord. in units of alat)
               a(1) = (   1.000000   0.000000   0.000000 )
               a(2) = (   0.499050   0.844479   0.000000 )
               a(3) = (  -1.845897   1.660424   5.053756 )

     reciprocal axes: (cart. coord. in units 2 pi/alat)
               b(1) = (  1.000000 -0.590956  0.559413 )
               b(2) = (  0.000000  1.184161 -0.389059 )
               b(3) = (  0.000000  0.000000  0.197873 )

     PseudoPot. # 1 for Mo read from file:
     ~/pseudo/Mo.pw91-n-van.UPF
     MD5 check sum: Not computed, couldn't open file
     Pseudo is Ultrasoft + core correction, Zval =  6.0
     Generated by new atomic code, or converted to UPF format
     Using radial grid of  965 points,  3 beta functions with:
                l(1) =   1
                l(2) =   2
                l(3) =   2
     Q(r) pseudized with  8 coefficients,  rinner =    1.000   1.000   1.000
                                                       1.200   1.200

     PseudoPot. # 2 for S  read from file:
     ~/pseudo/S.pw91-van_ak.UPF
     MD5 check sum: Not computed, couldn't open file
     Pseudo is Ultrasoft, Zval =  6.0
     Generated by new atomic code, or converted to UPF format
     Using radial grid of  811 points,  6 beta functions with:
                l(1) =   0
                l(2) =   0
                l(3) =   1
                l(4) =   1
                l(5) =   2
                l(6) =   2
     Q(r) pseudized with  8 coefficients,  rinner =    1.100   1.100   1.100
                                                       1.100   1.100

     atomic species   valence    mass     pseudopotential
        Mo             6.00    95.50000     Mo( 1.00)
        S              6.00    32.06500     S ( 1.00)

     No symmetry found

   Cartesian axes

     site n.     atom                  positions (alat units)
         1           Mo  tau(   1) = (   1.2209024   0.6790414  -0.0400366  )
         2           Mo  tau(   2) = (   0.4438287   0.2256376  -0.0570370  )
         3           Mo  tau(   3) = (   1.0407353   0.2847688  -0.0586892  )
         4           Mo  tau(   4) = (   0.8059953   0.6685509  -0.0635438  )
         5           Mo  tau(   5) = (   0.0288296   0.6420298   1.1939647  )
         6           Mo  tau(   6) = (   0.7813836   1.0648424   1.1969226  )
         7           Mo  tau(   7) = (   0.2784686   1.0754051   1.1862621  )
         8           Mo  tau(   8) = (   0.5281309   0.6492523   1.1934817  )
         9           Mo  tau(   9) = (  -1.4383206   1.3544267   3.9147349  )
        10           Mo  tau(  10) = (  -0.6954404   1.7796508   3.9175590  )
        11           Mo  tau(  11) = (  -1.1813519   1.7765857   3.9081233  )
        12           Mo  tau(  12) = (  -0.9412658   1.3587667   3.9175200  )
        13           S   tau(  13) = (  -1.0942285   1.7958899   4.7694184  )
        14           S   tau(  14) = (  -0.3405033   2.2171855   4.8009245  )
        15           S   tau(  15) = (  -0.8020848   2.2128711   4.7362633  )
        16           S   tau(  16) = (  -0.6228803   1.7685044   4.7471130  )
        17           S   tau(  17) = (   0.5370473   1.2084277   0.9533097  )
        18           S   tau(  18) = (  -0.2193571   0.7853928   0.9589292  )
        19           S   tau(  19) = (   0.2747541   0.7922908   0.9555099  )
        20           S   tau(  20) = (   0.0234679   1.2172986   0.9544436  )
        21           S   tau(  21) = (  -0.9351465   1.9240908   3.6716263  )
        22           S   tau(  22) = (  -0.6907630   1.5005634   3.6843585  )
        23           S   tau(  23) = (  -1.1879009   1.4958041   3.6742127  )
        24           S   tau(  24) = (  -0.4406016   1.9214027   3.6846740  )
        25           S   tau(  25) = (   1.0239995  -0.0266991   0.1463732  )
        26           S   tau(  26) = (   0.7579842   0.4095436   0.1547247  )
        27           S   tau(  27) = (   1.2640755   0.3991947   0.1924186  )
        28           S   tau(  28) = (   0.5000598  -0.0074350   0.2038766  )
        29           S   tau(  29) = (   0.5276596   1.2021654   1.4292468  )
        30           S   tau(  30) = (   0.7781464   0.7788910   1.4341889  )
        31           S   tau(  31) = (   0.2729085   0.7940816   1.4220735  )
        32           S   tau(  32) = (   1.0275535   1.2113426   1.4285704  )
        33           S   tau(  33) = (  -0.9451579   1.9192160   4.1563202  )
        34           S   tau(  34) = (  -0.6940531   1.4952863   4.1551767  )
        35           S   tau(  35) = (  -1.1942704   1.4977531   4.1517001  )
        36           S   tau(  36) = (  -0.4376499   1.9133935   4.1466159  )

     number of k points=     5  Marzari-Vanderbilt smearing, width (Ry)=  0.0200
                       cart. coord. in units 2pi/alat
        k(    1) = (   0.0000000   0.0000000   0.0000000), wk =   0.2222222
        k(    2) = (   0.0000000   0.3947205  -0.1296864), wk =   0.4444444
        k(    3) = (   0.3333333  -0.1969853   0.1864709), wk =   0.4444444
        k(    4) = (   0.3333333   0.1977352   0.0567845), wk =   0.4444444
        k(    5) = (   0.3333333  -0.5917058   0.3161573), wk =   0.4444444

     Initial potential from superposition of free atoms

     starting charge  215.98107, renormalised to  216.00000

     negative rho (up, down):  8.601E-04 0.000E+00
     Starting wfcs are  204 randomized atomic wfcs

     Self-consistent Calculation

     iteration #  1     ecut=    45.00 Ry     beta= 0.70
     Davidson diagonalization with overlap
     ethr =  1.00E-02,  avg # of iterations =  2.0

     negative rho (up, down):  8.234E-05 0.000E+00

     total energy              =    -843.76238403 Ry
     Harris-Foulkes estimate   =    -846.64625529 Ry
     estimated scf accuracy    <       7.97021855 Ry

[...]

     End of self-consistent calculation

          k = 0.0000 0.0000 0.0000 ( 42809 PWs)   bands (ev):

   -12.5090 -12.5056 -12.4198 -11.4867 -11.3244 -11.3163 -11.0640 -11.0269
   -10.9785 -10.9778 -10.9680 -10.9457 -10.8783 -10.8681 -10.6765 -10.6494
   -10.6274 -10.6227 -10.6104 -10.5412 -10.5236 -10.4878 -10.3186 -10.0848
    -4.3521  -4.3178  -4.2720  -4.1451  -4.1383  -4.1326  -4.1279  -4.1008
    -4.0953  -3.9987  -3.9820  -3.7496  -3.2092  -3.1876  -3.1710  -3.1637
    -3.1520  -3.1489  -3.0705  -2.9909  -2.7521  -2.7114  -2.6122  -2.5964
    -2.5827  -2.5678  -2.5394  -2.5337  -2.3339  -2.2495  -1.9134  -1.9042
    -1.8936  -1.7880  -1.7130  -1.7075  -1.6945  -1.6919  -1.4953  -1.4426
    -1.4389  -1.3945  -1.1950  -1.1879  -1.0688  -0.9170  -0.7464  -0.6599
    -0.5549  -0.4879  -0.4459  -0.4196  -0.3976  -0.3711  -0.3473  -0.2817
    -0.2742  -0.2666  -0.2523  -0.2175  -0.1608  -0.1186  -0.0178   0.0528
     0.0980   0.2695   0.2825   0.2860   0.3297   0.3445   0.4203   0.6663
     0.6848   0.6901   0.7115   0.7335   0.7814   0.7826   0.9376   1.1977
     1.2990   1.3609   1.4295   1.4620   1.9687   2.2406   2.9152   3.0551
     3.1035   3.1263   3.1383   3.1710   3.2059   3.3456   3.4362   3.6098
     3.6259   3.6437   3.6459   3.6847   3.6875   3.7139   3.7459   3.7643
     3.9406   3.9556

[...]

     the Fermi energy is     1.4413 ev

!    total energy              =    -845.24056735 Ry
     Harris-Foulkes estimate   =    -845.24056833 Ry
     estimated scf accuracy    <       0.00000077 Ry

     The total energy is the sum of the following terms:

     one-electron contribution =   -5483.26923452 Ry
     hartree contribution      =    2825.58815269 Ry
     xc contribution           =    -333.55744730 Ry
     ewald contribution        =    2145.97885943 Ry
     smearing contrib. (-TS)   =       0.01910235 Ry

     convergence has been achieved in  17 iterations

[...]

     Forces acting on atoms (cartesian axes, Ry/au):

     atom    1 type  1   force =     0.01961227    0.00000929   -0.01068359
     atom    2 type  1   force =     0.10724874    0.05606485   -0.00897477
     atom    3 type  1   force =    -0.04315906   -0.01772571   -0.03932581
     atom    4 type  1   force =    -0.01388133    0.08542746   -0.03992776
     atom    5 type  1   force =     0.00038493    0.01480831   -0.00704950
     atom    6 type  1   force =    -0.00587526    0.01058335   -0.01150541
     atom    7 type  1   force =    -0.00765070   -0.00558135    0.00768758
     atom    8 type  1   force =    -0.01177155    0.00748603   -0.00442687
     atom    9 type  1   force =    -0.01216000    0.01917527    0.00621436
     atom   10 type  1   force =     0.01823042    0.00581412    0.00519632
     atom   11 type  1   force =    -0.03276822    0.01484661    0.02137921
     atom   12 type  1   force =     0.00045491   -0.00862886    0.00166267
     atom   13 type  2   force =    -0.01589675   -0.00831970    0.04643384
     atom   14 type  2   force =     0.00798103   -0.03777690   -0.01462742
     atom   15 type  2   force =    -0.05324250   -0.01210854   -0.01417607
     atom   16 type  2   force =     0.02512077   -0.01530156   -0.03764351
     atom   17 type  2   force =    -0.00707515   -0.00453268    0.01442184
     atom   18 type  2   force =    -0.00065003   -0.00391615    0.00643131
     atom   19 type  2   force =     0.00476635   -0.01075565    0.00657716
     atom   20 type  2   force =     0.00427807   -0.01315492    0.01082084
     atom   21 type  2   force =    -0.00354877   -0.01094360    0.01619058
     atom   22 type  2   force =    -0.00061674   -0.01069477   -0.00347099
     atom   23 type  2   force =    -0.00036050   -0.00609624    0.01156353
     atom   24 type  2   force =     0.00056834   -0.00779931   -0.00616621
     atom   25 type  2   force =    -0.03256021    0.00668079    0.01448124
     atom   26 type  2   force =    -0.01596113   -0.06191116    0.02995947
     atom   27 type  2   force =    -0.00461327    0.02563199    0.06039441
     atom   28 type  2   force =     0.01934131   -0.02069261    0.01580729
     atom   29 type  2   force =     0.00313469    0.00658774   -0.00796335
     atom   30 type  2   force =     0.00411425    0.00730792   -0.01421158
     atom   31 type  2   force =     0.00988812   -0.00646161    0.00564108
     atom   32 type  2   force =     0.00583229   -0.00223120   -0.00659085
     atom   33 type  2   force =     0.00891069   -0.00139865   -0.02247082
     atom   34 type  2   force =     0.00854356    0.00145637   -0.01498255
     atom   35 type  2   force =     0.01109496   -0.00119384   -0.01323346
     atom   36 type  2   force =     0.00228547    0.00534489   -0.00343222

     Total force =     0.237774     Total SCF correction =     0.002190

     General routines

     Parallel routines

   This run was terminated on:   9:59:37  14Oct2021

   JOB DONE.

     Program PWSCF v.6.4 starts on 14Oct2021 at 10:46: 8

     R & G space division:  proc/nbgrp/npool/nimage =      40
     Waiting for input...
     Reading input from standard input
Warning: card    &IONS ignored
Warning: card      ION_DYNAMICS = 'BFGS' ignored
Warning: card   / ignored
Warning: card    &CELL ignored
Warning: card      CELL_DYNAMICS = 'BFGS', ignored
Warning: card    / ignored

     Current dimensions of program PWSCF are:
     Max number of different atomic species (ntypx) = 10
     Max number of k-points (npk) =  40000
     Max angular momentum in pseudopotentials (lmaxx) =  3

     bravais-lattice index     =            0
     lattice parameter (alat)  =      12.5359  a.u.
     unit-cell volume          =    8407.5874 (a.u.)^3
     number of atoms/cell      =           36
     number of atomic types    =            2
     number of electrons       =       216.00
     number of Kohn-Sham states=          130
     kinetic-energy cutoff     =      45.0000  Ry
     charge density cutoff     =     360.0000  Ry
     convergence threshold     =      1.0E-06
     mixing beta               =       0.7000
     number of iterations used =            8  local-TF  mixing
     Exchange-correlation      = SLA PW GGX GGC ( 1  4  2  2 0 0)

     celldm(1)=  12.535914  celldm(2)=   0.000000  celldm(3)=   0.000000
     celldm(4)=   0.000000  celldm(5)=   0.000000  celldm(6)=   0.000000

     crystal axes: (cart. coord. in units of alat)
               a(1) = (   1.000000   0.000000   0.000000 )
               a(2) = (   0.499050   0.844479   0.000000 )
               a(3) = (  -1.845897   1.660424   5.053756 )

     reciprocal axes: (cart. coord. in units 2 pi/alat)
               b(1) = (  1.000000 -0.590956  0.559413 )
               b(2) = (  0.000000  1.184161 -0.389059 )
               b(3) = (  0.000000  0.000000  0.197873 )

     PseudoPot. # 1 for Mo read from file:
     ~/pseudo/Mo.pw91-n-van.UPF
     MD5 check sum: Not computed, couldn't open file
     Pseudo is Ultrasoft + core correction, Zval =  6.0
     Generated by new atomic code, or converted to UPF format
     Using radial grid of  965 points,  3 beta functions with:
                l(1) =   1
                l(2) =   2
                l(3) =   2
     Q(r) pseudized with  8 coefficients,  rinner =    1.000   1.000   1.000
                                                       1.200   1.200

     PseudoPot. # 2 for S  read from file:
     ~/pseudo/S.pw91-van_ak.UPF
     MD5 check sum: Not computed, couldn't open file
     Pseudo is Ultrasoft, Zval =  6.0
     Generated by new atomic code, or converted to UPF format
     Using radial grid of  811 points,  6 beta functions with:
                l(1) =   0
                l(2) =   0
                l(3) =   1
                l(4) =   1
                l(5) =   2
                l(6) =   2
     Q(r) pseudized with  8 coefficients,  rinner =    1.100   1.100   1.100
                                                       1.100   1.100

     atomic species   valence    mass     pseudopotential
        Mo             6.00    95.50000     Mo( 1.00)
        S              6.00    32.06500     S ( 1.00)

     No symmetry found

   Cartesian axes

     site n.     atom                  positions (alat units)
         1           Mo  tau(   1) = (   1.2209024   0.6790414  -0.0400366  )
         2           Mo  tau(   2) = (   0.4438287   0.2256376  -0.0570370  )
         3           Mo  tau(   3) = (   1.0407353   0.2847688  -0.0586892  )
         4           Mo  tau(   4) = (   0.8059953   0.6685509  -0.0635438  )
         5           Mo  tau(   5) = (   0.0288296   0.6420298   1.1939647  )
         6           Mo  tau(   6) = (   0.7813836   1.0648424   1.1969226  )
         7           Mo  tau(   7) = (   0.2784686   1.0754051   1.1862621  )
         8           Mo  tau(   8) = (   0.5281309   0.6492523   1.1934817  )
         9           Mo  tau(   9) = (  -1.4383206   1.3544267   3.9147349  )
        10           Mo  tau(  10) = (  -0.6954404   1.7796508   3.9175590  )
        11           Mo  tau(  11) = (  -1.1813519   1.7765857   3.9081233  )
        12           Mo  tau(  12) = (  -0.9412658   1.3587667   3.9175200  )
        13           S   tau(  13) = (  -1.0942285   1.7958899   4.7694184  )
        14           S   tau(  14) = (  -0.3405033   2.2171855   4.8009245  )
        15           S   tau(  15) = (  -0.8020848   2.2128711   4.7362633  )
        16           S   tau(  16) = (  -0.6228803   1.7685044   4.7471130  )
        17           S   tau(  17) = (   0.5370473   1.2084277   0.9533097  )
        18           S   tau(  18) = (  -0.2193571   0.7853928   0.9589292  )
        19           S   tau(  19) = (   0.2747541   0.7922908   0.9555099  )
        20           S   tau(  20) = (   0.0234679   1.2172986   0.9544436  )
        21           S   tau(  21) = (  -0.9351465   1.9240908   3.6716263  )
        22           S   tau(  22) = (  -0.6907630   1.5005634   3.6843585  )
        23           S   tau(  23) = (  -1.1879009   1.4958041   3.6742127  )
        24           S   tau(  24) = (  -0.4406016   1.9214027   3.6846740  )
        25           S   tau(  25) = (   1.0239995  -0.0266991   0.1463732  )
        26           S   tau(  26) = (   0.7579842   0.4095436   0.1547247  )
        27           S   tau(  27) = (   1.2640755   0.3991947   0.1924186  )
        28           S   tau(  28) = (   0.5000598  -0.0074350   0.2038766  )
        29           S   tau(  29) = (   0.5276596   1.2021654   1.4292468  )
        30           S   tau(  30) = (   0.7781464   0.7788910   1.4341889  )
        31           S   tau(  31) = (   0.2729085   0.7940816   1.4220735  )
        32           S   tau(  32) = (   1.0275535   1.2113426   1.4285704  )
        33           S   tau(  33) = (  -0.9451579   1.9192160   4.1563202  )
        34           S   tau(  34) = (  -0.6940531   1.4952863   4.1551767  )
        35           S   tau(  35) = (  -1.1942704   1.4977531   4.1517001  )
        36           S   tau(  36) = (  -0.4376499   1.9133935   4.1466159  )

     number of k points=     5  Marzari-Vanderbilt smearing, width (Ry)=  0.0200
                       cart. coord. in units 2pi/alat
        k(    1) = (   0.0000000   0.0000000   0.0000000), wk =   0.2222222
        k(    2) = (   0.0000000   0.3947205  -0.1296864), wk =   0.4444444
        k(    3) = (   0.3333333  -0.1969853   0.1864709), wk =   0.4444444
        k(    4) = (   0.3333333   0.1977352   0.0567845), wk =   0.4444444
        k(    5) = (   0.3333333  -0.5917058   0.3161573), wk =   0.4444444

     Initial potential from superposition of free atoms

     starting charge  215.98107, renormalised to  216.00000

     negative rho (up, down):  8.601E-04 0.000E+00
     Starting wfcs are  204 randomized atomic wfcs

     Self-consistent Calculation

[...]

     total energy              =    -845.24056820 Ry
     Harris-Foulkes estimate   =    -845.24057099 Ry
     estimated scf accuracy    <       0.00000205 Ry

     iteration # 17     ecut=    45.00 Ry     beta= 0.70
     Davidson diagonalization with overlap
     ethr =  9.51E-10,  avg # of iterations =  2.0

[...]

     End of self-consistent calculation

[...]

          k = 0.3333-0.5917 0.3162 ( 42855 PWs)   bands (ev):

   -11.6551 -11.6438 -11.6390 -11.6030 -11.6030 -11.5912 -11.5888 -11.5067
   -11.4157 -11.1869 -10.9908 -10.9483 -10.9177 -10.8984 -10.8930 -10.8758
   -10.8581 -10.7211 -10.7141 -10.5846 -10.4543 -10.4472 -10.4219 -10.1599
    -3.7433  -3.7432  -3.6742  -3.5578  -3.4753  -3.3771  -3.3676  -3.3626
    -3.3616  -3.3466  -3.3441  -3.0994  -3.0043  -3.0027  -2.9876  -2.8062
    -2.6888  -2.6078  -2.5549  -2.5457  -2.5262  -2.4703  -2.4634  -2.4164
    -2.4145  -2.3825  -2.3667  -2.3253  -2.1953  -2.1922  -2.1675  -2.1648
    -2.1458  -2.1333  -2.1195  -2.1176  -2.0920  -1.9735  -1.8291  -1.7472
    -1.7365  -1.7136  -1.6991  -1.6546  -1.6205  -1.5821  -1.4483  -1.4150
    -1.3801  -1.3499  -1.0792  -0.8849  -0.7644  -0.7266  -0.7064  -0.7013
    -0.6623  -0.6597  -0.6456  -0.6129  -0.5658  -0.3961  -0.2425  -0.0612
     0.1832   0.1988   0.2521   0.2884   0.2919   0.3334   0.3538   0.4941
     0.5113   0.5287   0.5499   0.5572   0.6134   0.6232   0.7487   0.9590
     1.1429   1.2373   1.2489   1.2549   1.5717   2.0840   2.6406   2.6783
     2.7338   3.0298   3.1038   3.1317   3.1386   3.1883   3.1909   3.4169
     3.4464   3.4558   3.5200   3.5339   3.5430   3.6014   3.6280   3.6856
     3.7050   3.7145

     the Fermi energy is     1.4413 ev

!    total energy              =    -845.24056734 Ry
     Harris-Foulkes estimate   =    -845.24056838 Ry
     estimated scf accuracy    <       0.00000077 Ry

     The total energy is the sum of the following terms:

     one-electron contribution =   -5483.26915031 Ry
     hartree contribution      =    2825.58805220 Ry
     xc contribution           =    -333.55743102 Ry
     ewald contribution        =    2145.97885943 Ry
     smearing contrib. (-TS)   =       0.01910235 Ry

     convergence has been achieved in  17 iterations

     negative rho (up, down):  1.184E-03 0.000E+00

     Forces acting on atoms (cartesian axes, Ry/au):

     atom    1 type  1   force =     0.01961175    0.00000886   -0.01068347
     atom    2 type  1   force =     0.10724903    0.05606220   -0.00897637
     atom    3 type  1   force =    -0.04316149   -0.01772405   -0.03932519
     atom    4 type  1   force =    -0.01388088    0.08542719   -0.03992868
     atom    5 type  1   force =     0.00038591    0.01480903   -0.00704763
     atom    6 type  1   force =    -0.00587672    0.01058238   -0.01150786
     atom    7 type  1   force =    -0.00765034   -0.00558100    0.00768761
     atom    8 type  1   force =    -0.01177314    0.00748531   -0.00442614
     atom    9 type  1   force =    -0.01215845    0.01917663    0.00621327
     atom   10 type  1   force =     0.01823064    0.00581406    0.00519686
     atom   11 type  1   force =    -0.03276686    0.01484640    0.02137883
     atom   12 type  1   force =     0.00045456   -0.00862897    0.00166292
     atom   13 type  2   force =    -0.01589682   -0.00831919    0.04643548
     atom   14 type  2   force =     0.00798048   -0.03777705   -0.01462687
     atom   15 type  2   force =    -0.05324231   -0.01210892   -0.01417485
     atom   16 type  2   force =     0.02512156   -0.01530137   -0.03764180
     atom   17 type  2   force =    -0.00707426   -0.00453248    0.01441996
     atom   18 type  2   force =    -0.00065176   -0.00391699    0.00643103
     atom   19 type  2   force =     0.00476718   -0.01075635    0.00657602
     atom   20 type  2   force =     0.00427744   -0.01315346    0.01082042
     atom   21 type  2   force =    -0.00354909   -0.01094429    0.01618901
     atom   22 type  2   force =    -0.00061710   -0.01069433   -0.00347156
     atom   23 type  2   force =    -0.00036025   -0.00609612    0.01156223
     atom   24 type  2   force =     0.00056781   -0.00779921   -0.00616619
     atom   25 type  2   force =    -0.03256013    0.00668183    0.01448154
     atom   26 type  2   force =    -0.01596121   -0.06191161    0.02996015
     atom   27 type  2   force =    -0.00461310    0.02563189    0.06039458
     atom   28 type  2   force =     0.01934162   -0.02069229    0.01580820
     atom   29 type  2   force =     0.00313543    0.00658713   -0.00796218
     atom   30 type  2   force =     0.00411453    0.00730863   -0.01421158
     atom   31 type  2   force =     0.00988906   -0.00646089    0.00564170
     atom   32 type  2   force =     0.00583226   -0.00223214   -0.00659101
     atom   33 type  2   force =     0.00891062   -0.00139934   -0.02247047
     atom   34 type  2   force =     0.00854290    0.00145691   -0.01498187
     atom   35 type  2   force =     0.01109566   -0.00119345   -0.01323344
     atom   36 type  2   force =     0.00228548    0.00534504   -0.00343263

     Total force =     0.237773     Total SCF correction =     0.002205

     General routines

     Parallel routines

   This run was terminated on:  10:49:10  14Oct2021

   JOB DONE.