     Program PWSCF v.6.4 starts on 19Nov2021 at 18: 7: 5

     R & G space division:  proc/nbgrp/npool/nimage =      40
     Waiting for input...
     Reading input from standard input
Warning: card    &IONS ignored
Warning: card      ION_DYNAMICS = 'BFGS' ignored
Warning: card   / ignored
Warning: card    &CELL ignored
Warning: card      CELL_DYNAMICS = 'BFGS', ignored
Warning: card    / ignored

     Current dimensions of program PWSCF are:
     Max number of different atomic species (ntypx) = 10
     Max number of k-points (npk) =  40000
     Max angular momentum in pseudopotentials (lmaxx) =  3

     bravais-lattice index     =            0
     lattice parameter (alat)  =      11.7511  a.u.
     unit-cell volume          =    6718.6988 (a.u.)^3
     number of atoms/cell      =           36
     number of atomic types    =            2
     number of electrons       =       216.00
     number of Kohn-Sham states=          130
     kinetic-energy cutoff     =      45.0000  Ry
     charge density cutoff     =     360.0000  Ry
     convergence threshold     =      1.0E-06
     mixing beta               =       0.7000
     number of iterations used =            8  local-TF  mixing
     Exchange-correlation      = SLA PW GGX GGC ( 1  4  2  2 0 0)

     celldm(1)=  11.751120  celldm(2)=   0.000000  celldm(3)=   0.000000
     celldm(4)=   0.000000  celldm(5)=   0.000000  celldm(6)=   0.000000

     crystal axes: (cart. coord. in units of alat)
               a(1) = (   1.000000   0.000000   0.000000 )
               a(2) = (   0.031272   1.818785   0.000000 )
               a(3) = (  -0.182357  -0.681575   2.276491 )

     reciprocal axes: (cart. coord. in units 2 pi/alat)
               b(1) = (  1.000000 -0.017194  0.074957 )
               b(2) = (  0.000000  0.549817  0.164614 )
               b(3) = (  0.000000  0.000000  0.439273 )

     PseudoPot. # 1 for Mo read from file:
     ~/pseudo/Mo.pw91-n-van.UPF
     MD5 check sum: Not computed, couldn't open file
     Pseudo is Ultrasoft + core correction, Zval =  6.0
     Generated by new atomic code, or converted to UPF format
     Using radial grid of  965 points,  3 beta functions with:
                l(1) =   1
                l(2) =   2
                l(3) =   2
     Q(r) pseudized with  8 coefficients,  rinner =    1.000   1.000   1.000
                                                       1.200   1.200

     PseudoPot. # 2 for S  read from file:
     ~/pseudo/S.pw91-van_ak.UPF
     MD5 check sum: Not computed, couldn't open file
     Pseudo is Ultrasoft, Zval =  6.0
     Generated by new atomic code, or converted to UPF format
     Using radial grid of  811 points,  6 beta functions with:
                l(1) =   0
                l(2) =   0
                l(3) =   1
                l(4) =   1
                l(5) =   2
                l(6) =   2
     Q(r) pseudized with  8 coefficients,  rinner =    1.100   1.100   1.100
                                                       1.100   1.100

     atomic species   valence    mass     pseudopotential
        Mo             6.00    95.50000     Mo( 1.00)
        S              6.00    32.06500     S ( 1.00)

     No symmetry found

   Cartesian axes

     site n.     atom                  positions (alat units)
         1           Mo  tau(   1) = (   0.5663349   0.2405240   0.7767883  )
         2           Mo  tau(   2) = (   0.3399726   1.6045259   0.7749829  )
         3           Mo  tau(   3) = (   0.0664114   0.2401162   0.7765155  )
         4           Mo  tau(   4) = (   0.8083524  -0.2143831   0.7750511  )
         5           Mo  tau(   5) = (   0.0821807   1.1501876   0.7768502  )
         6           Mo  tau(   6) = (   0.5819175   1.1503473   0.7764146  )
         7           Mo  tau(   7) = (   0.8240125   0.6946703   0.7777315  )
         8           Mo  tau(   8) = (   0.3244072   0.6951237   0.7768641  )
         9           Mo  tau(   9) = (   0.2815252  -0.4522504   1.8300499  )
        10           Mo  tau(  10) = (  -0.2010558  -0.4405395   1.8209103  )
        11           Mo  tau(  11) = (   0.1150998   0.4396340   1.8273316  )
        12           Mo  tau(  12) = (   0.5797030   0.4524740   1.8273916  )
        13           S   tau(  13) = (   0.3157665   0.0856809   0.5197058  )
        14           S   tau(  14) = (   0.5737823   0.5397463   0.5203294  )
        15           S   tau(  15) = (   0.8150192   0.0856605   0.5196298  )
        16           S   tau(  16) = (   0.0726463   0.5398907   0.5206245  )
        17           S   tau(  17) = (   0.3348168   0.7353903   1.8071610  )
        18           S   tau(  18) = (   0.8460484   0.4315955   1.5681990  )
        19           S   tau(  19) = (   0.3154328   0.0840250   1.0333948  )
        20           S   tau(  20) = (   0.5720814   0.5390324   1.0334592  )
        21           S   tau(  21) = (   0.8150610   0.0840366   1.0329101  )
        22           S   tau(  22) = (   0.0740489   0.5386759   1.0330927  )
        23           S   tau(  23) = (   0.3721714   0.1398972   1.8388139  )
        24           S   tau(  24) = (   0.8461153   0.4683067   2.0905367  )
        25           S   tau(  25) = (   0.0888971   1.4480895   0.5187460  )
        26           S   tau(  26) = (   0.5887345   1.4484070   0.5184817  )
        27           S   tau(  27) = (   0.0888088   1.4502664   1.0316740  )
        28           S   tau(  28) = (   0.5885113   1.4498118   1.0305299  )
        29           S   tau(  29) = (   0.8303740   0.9950437   1.0333271  )
        30           S   tau(  30) = (   0.3314495   0.9942623   1.0336067  )
        31           S   tau(  31) = (   0.5800997   1.1107678   1.8717152  )
        32           S   tau(  32) = (   0.0371271  -0.4120641   2.1072260  )
        33           S   tau(  33) = (   0.8313169   0.9939607   0.5207357  )
        34           S   tau(  34) = (   0.3308252   0.9949545   0.5200545  )
        35           S   tau(  35) = (   0.4939136  -0.1681976   1.7621428  )
        36           S   tau(  36) = (   0.0787735   1.2589343   1.5706801  )

     number of k points=     8  Marzari-Vanderbilt smearing, width (Ry)=  0.0200
                       cart. coord. in units 2pi/alat
        k(    1) = (   0.0000000   0.0000000   0.0000000), wk =   0.1666667
        k(    2) = (   0.0000000   0.0000000  -0.2196363), wk =   0.1666667
        k(    3) = (   0.0000000  -0.2749087  -0.0823069), wk =   0.1666667
        k(    4) = (   0.0000000  -0.2749087  -0.3019432), wk =   0.1666667
        k(    5) = (   0.3333333  -0.0057313   0.0249855), wk =   0.3333333
        k(    6) = (   0.3333333  -0.0057313  -0.1946508), wk =   0.3333333
        k(    7) = (   0.3333333  -0.2806401  -0.0573214), wk =   0.3333333
        k(    8) = (   0.3333333  -0.2806401  -0.2769577), wk =   0.3333333

     Initial potential from superposition of free atoms

     starting charge  215.98107, renormalised to  216.00000
     Starting wfcs are  204 randomized atomic wfcs

     Self-consistent Calculation

     iteration #  1     ecut=    45.00 Ry     beta= 0.70
     Davidson diagonalization with overlap
     ethr =  1.00E-02,  avg # of iterations =  2.0

     total energy              =    -843.69910963 Ry
     Harris-Foulkes estimate   =    -846.19159304 Ry
     estimated scf accuracy    <       6.37870059 Ry

[...]

     iteration #  7     ecut=    45.00 Ry     beta= 0.70
     Davidson diagonalization with overlap
     c_bands:  1 eigenvalues not converged
     ethr =  4.30E-06,  avg # of iterations =  4.8

[...]

     iteration # 18     ecut=    45.00 Ry     beta= 0.70
     Davidson diagonalization with overlap
     c_bands:  1 eigenvalues not converged
     ethr =  2.48E-09,  avg # of iterations =  9.6

[...]

     total energy              =    -844.92769856 Ry
     Harris-Foulkes estimate   =    -844.92769504 Ry
     estimated scf accuracy    <       0.00000110 Ry

     iteration # 23     ecut=    45.00 Ry     beta= 0.70
     Davidson diagonalization with overlap
     ethr =  4.72E-10,  avg # of iterations =  4.9

     End of self-consistent calculation

          k = 0.0000 0.0000 0.0000 ( 34257 PWs)   bands (ev):

   -11.4149 -10.7752 -10.0291 -10.0163  -9.6203  -9.3516  -9.2884  -9.2754
    -9.0948  -9.0531  -8.9180  -8.9084  -8.8988  -8.8771  -8.8546  -8.7841
    -8.6934  -8.6441  -8.6355  -8.6181  -8.6115  -8.5995  -8.4469  -8.1615
    -2.8479  -2.4658  -2.4136  -2.3695  -2.2594  -1.8533  -1.8453  -1.6294
    -1.6268  -1.6232  -1.5998  -1.5528  -1.5201  -1.4334  -1.3470  -1.0859
    -0.9343  -0.7617  -0.7389  -0.7186  -0.6077  -0.5984  -0.5719  -0.3264
    -0.3114  -0.3018  -0.2870  -0.2484  -0.1119  -0.0550  -0.0494  -0.0148
     0.0116   0.0501   0.0735   0.1104   0.1405   0.1622   0.2223   0.4787
     0.5441   0.5486   0.5542   0.5727   0.6003   0.6336   0.7087   1.0541
     1.0785   1.2247   1.2292   1.2416   1.3534   1.3962   1.4513   1.5199
     1.6043   1.6401   1.6451   1.7321   1.8485   1.8670   1.8820   1.8831
     2.0042   2.0981   2.1373   2.1904   2.3562   2.3728   2.3773   2.4098
     2.4462   2.6585   2.6789   2.6882   2.7589   2.7614   2.9014   3.0986
     3.2589   3.3608   3.4357   3.5492   3.5547   3.9743   4.4958   4.9523
     5.0454   5.1707   5.2409   5.3126   5.3362   5.3736   5.4008   5.4057
     5.4073   5.4590   5.5472   5.6575   5.7215   5.7644   5.7657   5.8597
     5.9137   5.9335

[...]

          k = 0.3333-0.2806-0.2770 ( 34248 PWs)   bands (ev):

   -11.4069 -10.2890 -10.2696  -9.5748  -9.5425  -9.3798  -9.3588  -9.2838
    -9.2026  -9.1762  -9.0122  -8.9777  -8.9569  -8.8882  -8.8681  -8.8615
    -8.8312  -8.8177  -8.6644  -8.6192  -8.6056  -8.5970  -8.5182  -8.2071
    -2.7546  -1.8598  -1.8078  -1.7775  -1.7567  -1.7450  -1.7429  -1.7381
    -1.7315  -1.7268  -1.6840  -1.2566  -1.2352  -1.2077  -1.0114  -0.7247
    -0.6865  -0.5985  -0.5522  -0.5064  -0.4965  -0.4873  -0.4676  -0.4541
    -0.3942  -0.2530  -0.1819  -0.1369  -0.1104  -0.0542  -0.0339   0.0022
     0.0742   0.1100   0.1557   0.1669   0.1838   0.2287   0.3175   0.3229
     0.3888   0.4242   0.4357   0.4572   0.4668   0.4909   0.5980   0.7662
     0.7999   0.9584   0.9898   1.0330   1.0700   1.1145   1.1282   1.2014
     1.2546   1.3284   1.3491   1.3956   1.4514   1.5319   1.6297   1.6727
     1.7373   1.7526   1.7887   1.8351   1.8798   2.2155   2.2425   2.3061
     2.3383   2.3976   2.6946   2.7809   2.7959   2.8366   3.0251   3.0502
     3.1242   3.5023   3.6971   3.8346   4.1871   4.3300   4.8039   4.9883
     5.0896   5.1869   5.2215   5.2413   5.2632   5.3239   5.3252   5.3354
     5.3569   5.3680   5.4013   5.4654   5.6097   5.6276   5.6387   5.6516
     5.6986   5.7263

     the Fermi energy is     3.8204 ev

!    total energy              =    -844.92769597 Ry
     Harris-Foulkes estimate   =    -844.92769688 Ry
     estimated scf accuracy    <       0.00000095 Ry

     The total energy is the sum of the following terms:

     one-electron contribution =    -680.89318242 Ry
     hartree contribution      =     439.88634178 Ry
     xc contribution           =    -333.61759873 Ry
     ewald contribution        =    -270.30886950 Ry
     smearing contrib. (-TS)   =       0.00561290 Ry

     convergence has been achieved in  23 iterations

     Forces acting on atoms (cartesian axes, Ry/au):

     atom    1 type  1   force =     0.00308741   -0.00727845   -0.00007863
     atom    2 type  1   force =     0.00140567   -0.00487656   -0.00076958
     atom    3 type  1   force =     0.00347812   -0.00689394    0.00076126
     atom    4 type  1   force =     0.00504649   -0.00504888   -0.00181113
     atom    5 type  1   force =     0.00310056   -0.00814861    0.00058294
     atom    6 type  1   force =     0.00333100   -0.00963485   -0.00182386
     atom    7 type  1   force =     0.00419084   -0.00501730   -0.00049989
     atom    8 type  1   force =     0.00218422   -0.00538251   -0.00328558
     atom    9 type  1   force =    -0.00713094   -0.03980989    0.01648353
     atom   10 type  1   force =    -0.02583053    0.01090799    0.00272006
     atom   11 type  1   force =    -0.04808759   -0.02378483    0.00838815
     atom   12 type  1   force =     0.05565201   -0.00359732    0.00745395
     atom   13 type  2   force =    -0.00256525    0.00307727    0.00388527
     atom   14 type  2   force =    -0.00292189    0.00364521    0.00473303
     atom   15 type  2   force =    -0.00094002    0.00292420    0.00407757
     atom   16 type  2   force =    -0.00045283    0.00312396    0.00415514
     atom   17 type  2   force =    -0.00727862   -0.04329655   -0.00322267
     atom   18 type  2   force =     0.00149191   -0.00397289   -0.02554977
     atom   19 type  2   force =    -0.00192171    0.00370658   -0.00676874
     atom   20 type  2   force =     0.00022691    0.00386083   -0.00374330
     atom   21 type  2   force =    -0.00078621    0.00356750   -0.00581411
     atom   22 type  2   force =    -0.00275837    0.00464508   -0.00439162
     atom   23 type  2   force =    -0.04594207    0.13803134    0.02309518
     atom   24 type  2   force =     0.00331341   -0.00310607    0.00964247
     atom   25 type  2   force =    -0.00210935    0.00450167    0.00507176
     atom   26 type  2   force =    -0.00143155    0.00387361    0.00444045
     atom   27 type  2   force =    -0.00163738    0.00278883   -0.00503407
     atom   28 type  2   force =    -0.00109705    0.00251628    0.00134514
     atom   29 type  2   force =    -0.00029622    0.00237541   -0.00398375
     atom   30 type  2   force =    -0.00267404    0.00419750   -0.00532424
     atom   31 type  2   force =     0.01921334    0.01605105    0.01353910
     atom   32 type  2   force =    -0.00892789    0.01622796    0.00071399
     atom   33 type  2   force =    -0.00217523    0.00271233    0.00457690
     atom   34 type  2   force =    -0.00125529    0.00139348    0.00507245
     atom   35 type  2   force =     0.08001109   -0.08030872   -0.02310164
     atom   36 type  2   force =    -0.01751294    0.01602928   -0.02553574

     Total force =     0.223716     Total SCF correction =     0.002415

     General routines

     Parallel routines

   This run was terminated on:  18:11:56  19Nov2021

   JOB DONE.