     Program PWSCF v.6.4 starts on  8Sep2021 at 11:31: 9

     R & G space division:  proc/nbgrp/npool/nimage =      40
     Waiting for input...
     Reading input from standard input
Warning: card    &IONS ignored
Warning: card      ION_DYNAMICS = 'BFGS' ignored
Warning: card   / ignored
Warning: card    &CELL ignored
Warning: card      CELL_DYNAMICS = 'BFGS', ignored
Warning: card    / ignored

     Current dimensions of program PWSCF are:
     Max number of different atomic species (ntypx) = 10
     Max number of k-points (npk) =  40000
     Max angular momentum in pseudopotentials (lmaxx) =  3

     bravais-lattice index     =            0
     lattice parameter (alat)  =      12.5909  a.u.
     unit-cell volume          =    5094.5612 (a.u.)^3
     number of atoms/cell      =           36
     number of atomic types    =            2
     number of electrons       =       216.00
     number of Kohn-Sham states=          130
     kinetic-energy cutoff     =      45.0000  Ry
     charge density cutoff     =     360.0000  Ry
     convergence threshold     =      1.0E-06
     mixing beta               =       0.7000
     number of iterations used =            8  local-TF  mixing
     Exchange-correlation      = SLA PW GGX GGC ( 1  4  2  2 0 0)

     celldm(1)=  12.590854  celldm(2)=   0.000000  celldm(3)=   0.000000
     celldm(4)=   0.000000  celldm(5)=   0.000000  celldm(6)=   0.000000

     crystal axes: (cart. coord. in units of alat)
               a(1) = (   0.999131  -0.025671   0.032848 )
               a(2) = (  -0.516597   0.860513   0.011636 )
               a(3) = (  -0.322364  -0.125333   3.000064 )

     reciprocal axes: (cart. coord. in units 2 pi/alat)
               b(1) = (  1.012026  0.605743  0.134051 )
               b(2) = (  0.028561  1.178537  0.052304 )
               b(3) = ( -0.011192 -0.011203  0.331656 )

     PseudoPot. # 1 for Mo read from file:
     ~/pseudo/Mo.pw91-n-van.UPF
     MD5 check sum: Not computed, couldn't open file
     Pseudo is Ultrasoft + core correction, Zval =  6.0
     Generated by new atomic code, or converted to UPF format
     Using radial grid of  965 points,  3 beta functions with:
                l(1) =   1
                l(2) =   2
                l(3) =   2
     Q(r) pseudized with  8 coefficients,  rinner =    1.000   1.000   1.000
                                                       1.200   1.200

     PseudoPot. # 2 for S  read from file:
     ~/pseudo/S.pw91-van_ak.UPF
     MD5 check sum: Not computed, couldn't open file
     Pseudo is Ultrasoft, Zval =  6.0
     Generated by new atomic code, or converted to UPF format
     Using radial grid of  811 points,  6 beta functions with:
                l(1) =   0
                l(2) =   0
                l(3) =   1
                l(4) =   1
                l(5) =   2
                l(6) =   2
     Q(r) pseudized with  8 coefficients,  rinner =    1.100   1.100   1.100
                                                       1.100   1.100

     atomic species   valence    mass     pseudopotential
        Mo             6.00    95.50000     Mo( 1.00)
        S              6.00    32.06500     S ( 1.00)

     No symmetry found

   Cartesian axes

     site n.     atom                  positions (alat units)
         1           Mo  tau(   1) = (   0.1782832   0.1715453   1.0093961  )
         2           Mo  tau(   2) = (  -0.0796911   0.5950148   1.0242884  )
         3           Mo  tau(   3) = (   0.6742788   0.1553447   1.0269713  )
         4           Mo  tau(   4) = (   0.4193412   0.5972360   1.0370494  )
         5           Mo  tau(   5) = (  -0.2452837   0.1132396   1.9893165  )
         6           Mo  tau(   6) = (  -0.4616421   0.4777392   2.0020199  )
         7           Mo  tau(   7) = (   0.3296411   0.0946508   2.0074583  )
         8           Mo  tau(   8) = (   0.0242245   0.5214660   2.0370251  )
         9           Mo  tau(   9) = (  -0.3491731  -0.1677568   2.9552786  )
        10           Mo  tau(  10) = (  -0.6858408   0.2976805   3.1059503  )
        11           Mo  tau(  11) = (   0.0712664  -0.1448396   3.1173103  )
        12           Mo  tau(  12) = (  -0.1073284   0.2492872   2.9758896  )
        13           S   tau(  13) = (  -0.0762463   0.2511635   0.1613243  )
        14           S   tau(  14) = (  -0.4097210   0.7169968   0.3056513  )
        15           S   tau(  15) = (   0.3486697   0.2756175   0.3162931  )
        16           S   tau(  16) = (   0.1641344   0.6685297   0.1820662  )
        17           S   tau(  17) = (  -0.0595871   0.0538550   0.7644216  )
        18           S   tau(  18) = (  -0.3269114   0.4775895   0.7774383  )
        19           S   tau(  19) = (   0.4366007   0.0181503   0.7790297  )
        20           S   tau(  20) = (   0.1837042   0.4695892   0.7941524  )
        21           S   tau(  21) = (  -0.0797424   0.0389078   1.2307887  )
        22           S   tau(  22) = (  -0.3405898   0.4505265   1.2382239  )
        23           S   tau(  23) = (   0.4156244   0.0128168   1.2471618  )
        24           S   tau(  24) = (   0.1693926   0.4418421   1.2581488  )
        25           S   tau(  25) = (   0.0499040  -0.0518506   1.8019800  )
        26           S   tau(  26) = (  -0.1976435   0.3892624   1.7652990  )
        27           S   tau(  27) = (   0.5528960  -0.0722809   1.7719940  )
        28           S   tau(  28) = (   0.2928838   0.3697098   1.7834505  )
        29           S   tau(  29) = (   0.0380598   0.2096659   2.2194954  )
        30           S   tau(  30) = (  -0.2292815   0.6493668   2.2463830  )
        31           S   tau(  31) = (   0.5358640   0.1936460   2.2859138  )
        32           S   tau(  32) = (   0.2857309   0.6382029   2.2520478  )
        33           S   tau(  33) = (  -0.2773921   0.0799314   2.7074896  )
        34           S   tau(  34) = (  -0.5675791   0.5244015   2.8451920  )
        35           S   tau(  35) = (   0.1906113   0.0799053   2.8558788  )
        36           S   tau(  36) = (  -0.0366207   0.4978857   2.7292826  )

     number of k points=     5  Marzari-Vanderbilt smearing, width (Ry)=  0.0200
                       cart. coord. in units 2pi/alat
        k(    1) = (   0.0000000   0.0000000   0.0000000), wk =   0.2222222
        k(    2) = (   0.0095202   0.3928456   0.0174348), wk =   0.4444444
        k(    3) = (   0.3373422   0.2019144   0.0446836), wk =   0.4444444
        k(    4) = (   0.3468624   0.5947600   0.0621184), wk =   0.4444444
        k(    5) = (   0.3278219  -0.1909312   0.0272488), wk =   0.4444444

     Initial potential from superposition of free atoms

     starting charge  215.98107, renormalised to  216.00000
     Starting wfcs are  204 randomized atomic wfcs

     Self-consistent Calculation

     iteration #  1     ecut=    45.00 Ry     beta= 0.70
     Davidson diagonalization with overlap
     ethr =  1.00E-02,  avg # of iterations =  2.0

     total energy              =    -843.51082105 Ry
     Harris-Foulkes estimate   =    -846.42319103 Ry
     estimated scf accuracy    <       7.92557549 Ry

[...]

     iteration # 11     ecut=    45.00 Ry     beta= 0.70
     Davidson diagonalization with overlap
     c_bands:  1 eigenvalues not converged
     ethr =  3.87E-07,  avg # of iterations =  4.8

[...]

     total energy              =    -844.96646948 Ry
     Harris-Foulkes estimate   =    -844.96646980 Ry
     estimated scf accuracy    <       0.00000185 Ry

     iteration # 19     ecut=    45.00 Ry     beta= 0.70
     Davidson diagonalization with overlap
     ethr =  8.55E-10,  avg # of iterations =  3.0

     End of self-consistent calculation

          k = 0.0000 0.0000 0.0000 ( 25955 PWs)   bands (ev):

    -8.0139  -7.8573  -7.3809  -6.7628  -6.6506  -6.5038  -6.4748  -6.4397
    -6.3833  -6.3543  -6.2910  -6.2625  -6.2020  -6.0557  -6.0526  -6.0288
    -5.9084  -5.8621  -5.7439  -5.6399  -5.5878  -5.4338  -5.2119  -4.9114
     0.2149   0.3714   0.4678   0.5184   0.5571   0.5668   0.6023   0.6428
     0.7443   0.7608   1.0939   1.1215   1.2773   1.4609   1.4982   1.5216
     1.6000   1.8761   1.9429   1.9937   2.0412   2.0927   2.1367   2.1807
     2.1887   2.2504   2.2683   2.3963   2.5809   2.6121   2.6433   2.6655
     2.7097   2.8448   2.9471   2.9743   3.0193   3.0805   3.1265   3.1425
     3.4149   3.4471   3.4805   3.5161   3.5283   3.6342   3.8827   3.9018
     3.9550   3.9835   4.1179   4.1575   4.2021   4.2319   4.2432   4.3362
     4.4571   4.4973   4.5311   4.6530   4.6979   4.7933   4.8490   4.9031
     4.9377   5.0456   5.1602   5.1854   5.2490   5.2681   5.3836   5.4444
     5.4743   5.5249   5.6851   5.7115   5.7844   5.8169   6.0281   6.1088
     6.2226   6.2455   6.3678   6.4657   6.6738   6.9068   7.1905   7.2595
     7.3304   7.3574   7.6373   7.7028   7.7553   7.9372   7.9693   8.0556
     8.1183   8.2038   8.3321   8.3358   8.3616   8.3806   8.4619   8.5176
     8.5646   8.6429

[...]

          k = 0.3278-0.1909 0.0272 ( 25920 PWs)   bands (ev):

    -7.7608  -7.5543  -7.0641  -6.9719  -6.8559  -6.5540  -6.5488  -6.4700
    -6.4194  -6.3578  -6.3264  -6.2608  -6.2327  -6.1888  -6.1456  -5.9704
    -5.9358  -5.9128  -5.8132  -5.7200  -5.6981  -5.5528  -5.2174  -4.9703
     0.4855   0.6419   0.6667   0.7131   0.8421   0.9193   0.9706   0.9920
     1.0421   1.1684   1.2462   1.3163   1.3238   1.3393   1.5129   1.6284
     1.8524   1.8626   1.9816   2.0061   2.0208   2.0721   2.1361   2.1613
     2.1842   2.2423   2.3104   2.4293   2.5392   2.5776   2.6546   2.6882
     2.7582   2.7698   2.8133   2.9052   3.0582   3.1409   3.1910   3.3640
     3.3789   3.4251   3.4801   3.5386   3.6281   3.6854   3.6960   3.7407
     3.7758   3.8252   3.8691   3.9884   4.0184   4.0399   4.0578   4.1069
     4.1371   4.1826   4.4145   4.4500   4.4930   4.5416   4.6054   4.6240
     4.6474   4.7273   4.9472   4.9597   5.0251   5.1268   5.2633   5.2814
     5.3342   5.3777   5.6662   5.7438   5.7993   5.8446   5.8714   6.0053
     6.0644   6.1189   6.2784   6.5653   6.7197   7.0309   7.0509   7.1453
     7.2537   7.3957   7.6612   7.7573   7.8509   7.9164   7.9471   7.9933
     8.0807   8.1556   8.2224   8.2943   8.3838   8.4016   8.4517   8.4891
     8.5634   8.7534

     the Fermi energy is     6.6400 ev

!    total energy              =    -844.96646946 Ry
     Harris-Foulkes estimate   =    -844.96646964 Ry
     estimated scf accuracy    <       0.00000022 Ry

     The total energy is the sum of the following terms:

     one-electron contribution =     -63.14815318 Ry
     hartree contribution      =     153.55270797 Ry
     xc contribution           =    -333.74262872 Ry
     ewald contribution        =    -601.63267791 Ry
     smearing contrib. (-TS)   =       0.00428237 Ry

     convergence has been achieved in  19 iterations

     Forces acting on atoms (cartesian axes, Ry/au):

     atom    1 type  1   force =     0.01789646    0.00736461    0.00228970
     atom    2 type  1   force =    -0.00449552    0.00296634   -0.01070710
     atom    3 type  1   force =    -0.00436455    0.00076123   -0.00842408
     atom    4 type  1   force =     0.00514129   -0.01814787    0.00672609
     atom    5 type  1   force =     0.00860851   -0.00655840    0.01460583
     atom    6 type  1   force =    -0.00351640    0.01318066   -0.02061804
     atom    7 type  1   force =    -0.00185484   -0.00309791    0.00875205
     atom    8 type  1   force =    -0.00299707   -0.01169887    0.00090749
     atom    9 type  1   force =     0.00307658   -0.01557801   -0.00090401
     atom   10 type  1   force =    -0.00352225    0.00649153   -0.01022478
     atom   11 type  1   force =    -0.00336220    0.00545175   -0.00857925
     atom   12 type  1   force =     0.00124578   -0.01501092    0.00385686
     atom   13 type  2   force =     0.00941519    0.00235915    0.00235074
     atom   14 type  2   force =     0.00160077    0.00057607    0.00265687
     atom   15 type  2   force =     0.00065903   -0.00044148    0.00169352
     atom   16 type  2   force =     0.00912599    0.00122529    0.00271329
     atom   17 type  2   force =    -0.01306768   -0.00937186   -0.00001784
     atom   18 type  2   force =     0.00912372   -0.00620323   -0.00246058
     atom   19 type  2   force =    -0.00182699    0.01429799    0.01565937
     atom   20 type  2   force =    -0.00978130   -0.00862550   -0.00691318
     atom   21 type  2   force =    -0.00098878   -0.00862043    0.00664969
     atom   22 type  2   force =    -0.00140115    0.01550203    0.00378305
     atom   23 type  2   force =     0.00610378    0.00090199    0.00115578
     atom   24 type  2   force =    -0.00668458    0.01096759   -0.00613524
     atom   25 type  2   force =    -0.00294415    0.00014398    0.00024147
     atom   26 type  2   force =    -0.00624062   -0.00253847   -0.00242473
     atom   27 type  2   force =    -0.00021562    0.00657027   -0.01032852
     atom   28 type  2   force =     0.00204465    0.00358677    0.00129534
     atom   29 type  2   force =     0.00131790   -0.00269414    0.00566857
     atom   30 type  2   force =     0.00492962   -0.00011456   -0.00376024
     atom   31 type  2   force =     0.00025130    0.00350619    0.01224942
     atom   32 type  2   force =     0.00196858   -0.00042818   -0.00342845
     atom   33 type  2   force =     0.00053711    0.00372760   -0.00375246
     atom   34 type  2   force =    -0.00854865    0.00150229    0.00552762
     atom   35 type  2   force =    -0.00769494    0.00309862    0.00436799
     atom   36 type  2   force =     0.00046103    0.00494790   -0.00447224

     Total force =     0.074801     Total SCF correction =     0.001058

     General routines

     Parallel routines

   This run was terminated on:  11:33: 8   8Sep2021

   JOB DONE.