     Program PWSCF v.6.4 starts on 10Nov2021 at 18:16:47

     R & G space division:  proc/nbgrp/npool/nimage =      40
     Waiting for input...
     Reading input from standard input
Warning: card    &IONS ignored
Warning: card      ION_DYNAMICS = 'BFGS' ignored
Warning: card   / ignored
Warning: card    &CELL ignored
Warning: card      CELL_DYNAMICS = 'BFGS', ignored
Warning: card    / ignored

     Current dimensions of program PWSCF are:
     Max number of different atomic species (ntypx) = 10
     Max number of k-points (npk) =  40000
     Max angular momentum in pseudopotentials (lmaxx) =  3

     bravais-lattice index     =            0
     lattice parameter (alat)  =       6.1778  a.u.
     unit-cell volume          =    1173.2519 (a.u.)^3
     number of atoms/cell      =            6
     number of atomic types    =            2
     number of electrons       =        36.00
     number of Kohn-Sham states=           22
     kinetic-energy cutoff     =      45.0000  Ry
     charge density cutoff     =     360.0000  Ry
     convergence threshold     =      1.0E-06
     mixing beta               =       0.7000
     number of iterations used =            8  local-TF  mixing
     Exchange-correlation      = SLA PW GGX GGC ( 1  4  2  2 0 0)

     celldm(1)=   6.177839  celldm(2)=   0.000000  celldm(3)=   0.000000
     celldm(4)=   0.000000  celldm(5)=   0.000000  celldm(6)=   0.000000

     crystal axes: (cart. coord. in units of alat)
               a(1) = (   1.000000   0.000000   0.000000 )
               a(2) = (  -0.515387   0.849850   0.000000 )
               a(3) = (   0.108143  -0.255724   5.855164 )

     reciprocal axes: (cart. coord. in units 2 pi/alat)
               b(1) = (  1.000000  0.606444  0.008017 )
               b(2) = (  0.000000  1.176678  0.051391 )
               b(3) = (  0.000000  0.000000  0.170789 )

     PseudoPot. # 1 for Mo read from file:
     ~/pseudo/Mo.pw91-n-van.UPF
     MD5 check sum: Not computed, couldn't open file
     Pseudo is Ultrasoft + core correction, Zval =  6.0
     Generated by new atomic code, or converted to UPF format
     Using radial grid of  965 points,  3 beta functions with:
                l(1) =   1
                l(2) =   2
                l(3) =   2
     Q(r) pseudized with  8 coefficients,  rinner =    1.000   1.000   1.000
                                                       1.200   1.200

     PseudoPot. # 2 for S  read from file:
     ~/pseudo/S.pw91-van_ak.UPF
     MD5 check sum: Not computed, couldn't open file
     Pseudo is Ultrasoft, Zval =  6.0
     Generated by new atomic code, or converted to UPF format
     Using radial grid of  811 points,  6 beta functions with:
                l(1) =   0
                l(2) =   0
                l(3) =   1
                l(4) =   1
                l(5) =   2
                l(6) =   2
     Q(r) pseudized with  8 coefficients,  rinner =    1.100   1.100   1.100
                                                       1.100   1.100

     atomic species   valence    mass     pseudopotential
        Mo             6.00    95.50000     Mo( 1.00)
        S              6.00    32.06500     S ( 1.00)

     No symmetry found

   Cartesian axes

     site n.     atom                  positions (alat units)
         1           Mo  tau(   1) = (   0.4077073   0.1695175   4.7110964  )
         2           Mo  tau(   2) = (   0.1850771   0.4242758   1.1442050  )
         3           S   tau(   3) = (  -0.0985948   0.4516978   4.2306928  )
         4           S   tau(   4) = (   0.6826642   0.1456242   0.6645605  )
         5           S   tau(   5) = (  -0.0920222   0.4485886   5.1908335  )
         6           S   tau(   6) = (   0.6932048   0.1413550   1.6245182  )

     number of k points=    20  Marzari-Vanderbilt smearing, width (Ry)=  0.0200
                       cart. coord. in units 2pi/alat
        k(    1) = (   0.0000000   0.0000000   0.0000000), wk =   0.0555556
        k(    2) = (   0.0000000   0.1961130   0.0085652), wk =   0.1111111
        k(    3) = (   0.0000000   0.3922260   0.0171305), wk =   0.1111111
        k(    4) = (   0.0000000  -0.5883390  -0.0256957), wk =   0.0555556
        k(    5) = (   0.1666667   0.1010741   0.0013361), wk =   0.1111111
        k(    6) = (   0.1666667   0.2971871   0.0099014), wk =   0.1111111
        k(    7) = (   0.1666667   0.4933001   0.0184666), wk =   0.1111111
        k(    8) = (   0.1666667  -0.4872649  -0.0243596), wk =   0.1111111
        k(    9) = (   0.1666667  -0.2911519  -0.0157944), wk =   0.1111111
        k(   10) = (   0.1666667  -0.0950389  -0.0072291), wk =   0.1111111
        k(   11) = (   0.3333333   0.2021481   0.0026723), wk =   0.1111111
        k(   12) = (   0.3333333   0.3982611   0.0112375), wk =   0.1111111
        k(   13) = (   0.3333333   0.5943742   0.0198027), wk =   0.1111111
        k(   14) = (   0.3333333  -0.3861909  -0.0230235), wk =   0.1111111
        k(   15) = (   0.3333333  -0.1900779  -0.0144582), wk =   0.1111111
        k(   16) = (   0.3333333   0.0060351  -0.0058930), wk =   0.1111111
        k(   17) = (  -0.5000000  -0.3032222  -0.0040084), wk =   0.0555556
        k(   18) = (  -0.5000000  -0.1071092   0.0045569), wk =   0.1111111
        k(   19) = (  -0.5000000   0.0890038   0.0131221), wk =   0.1111111
        k(   20) = (  -0.5000000  -0.8915612  -0.0297041), wk =   0.0555556

     Initial potential from superposition of free atoms

     starting charge   35.99685, renormalised to   36.00000

     negative rho (up, down):  6.683E-06 0.000E+00
     Starting wfcs are   34 randomized atomic wfcs

     Self-consistent Calculation

     iteration #  1     ecut=    45.00 Ry     beta= 0.70
     Davidson diagonalization with overlap
     ethr =  1.00E-02,  avg # of iterations =  2.0

     negative rho (up, down):  2.667E-08 0.000E+00

     total energy              =    -140.69374548 Ry
     Harris-Foulkes estimate   =    -141.14552228 Ry
     estimated scf accuracy    <       1.15658697 Ry

[...]

     total energy              =    -140.92127595 Ry
     Harris-Foulkes estimate   =    -140.92127922 Ry
     estimated scf accuracy    <       0.00001642 Ry

     iteration # 12     ecut=    45.00 Ry     beta= 0.70
     Davidson diagonalization with overlap
     ethr =  4.56E-08,  avg # of iterations =  3.1

[...]

     End of self-consistent calculation

          k = 0.0000 0.0000 0.0000 (  6049 PWs)   bands (ev):

   -11.1841 -11.1754  -9.9742  -9.9588  -2.6943  -2.6173   0.0045   0.0076
     0.2576   0.2600   1.0087   1.1323   1.1632   1.2991   1.3352   1.3455
     2.7346   2.9079   5.3619   5.3679   5.4603   5.4691

[...]

          k = 0.3333 0.0060-0.0059 (  5988 PWs)   bands (ev):

[...]

          k =-0.5000-0.3032-0.0040 (  5952 PWs)   bands (ev):

[...]

          k =-0.5000-0.8916-0.0297 (  5960 PWs)   bands (ev):

    -9.5617  -9.5565  -9.2724  -9.2664  -2.8262  -2.8251  -1.8197  -1.8001
    -1.2223  -1.2038  -0.1847  -0.1822   0.8693   0.9695   1.8989   1.9044
     2.0351   2.0741   4.7039   4.7061   5.1871   5.1907

     the Fermi energy is     2.8740 ev

!    total energy              =    -140.92127838 Ry
     Harris-Foulkes estimate   =    -140.92127871 Ry
     estimated scf accuracy    <       0.00000047 Ry

     The total energy is the sum of the following terms:

     one-electron contribution =    -263.12766179 Ry
     hartree contribution      =     147.40794269 Ry
     xc contribution           =     -55.65382786 Ry
     ewald contribution        =      30.44892360 Ry
     smearing contrib. (-TS)   =       0.00334497 Ry

     convergence has been achieved in  12 iterations

     negative rho (up, down):  2.075E-05 0.000E+00

     Forces acting on atoms (cartesian axes, Ry/au):

     atom    1 type  1   force =     0.00078689   -0.00133162   -0.00071073
     atom    2 type  1   force =    -0.00105928    0.00099702    0.00053532
     atom    3 type  2   force =     0.00387461   -0.00101012   -0.00065902
     atom    4 type  2   force =     0.00653191   -0.00274330   -0.00151002
     atom    5 type  2   force =    -0.00413374    0.00229069    0.00125482
     atom    6 type  2   force =    -0.00600039    0.00179733    0.00108962

     Total force =     0.011772     Total SCF correction =     0.001856
     SCF correction compared to forces is large: reduce conv_thr to get better values

     General routines

     Parallel routines

   This run was terminated on:  18:17: 1  10Nov2021

   JOB DONE.