     Program PWSCF v.6.4 starts on 14Oct2021 at 11: 1: 9

     R & G space division:  proc/nbgrp/npool/nimage =      40
     Waiting for input...
     Reading input from standard input
Warning: card    &IONS ignored
Warning: card      ION_DYNAMICS = 'BFGS' ignored
Warning: card   / ignored
Warning: card    &CELL ignored
Warning: card      CELL_DYNAMICS = 'BFGS', ignored
Warning: card    / ignored

     Current dimensions of program PWSCF are:
     Max number of different atomic species (ntypx) = 10
     Max number of k-points (npk) =  40000
     Max angular momentum in pseudopotentials (lmaxx) =  3

     bravais-lattice index     =            0
     lattice parameter (alat)  =       6.1396  a.u.
     unit-cell volume          =    1947.7574 (a.u.)^3
     number of atoms/cell      =           12
     number of atomic types    =            2
     number of electrons       =        72.00
     number of Kohn-Sham states=           43
     kinetic-energy cutoff     =      45.0000  Ry
     charge density cutoff     =     360.0000  Ry
     convergence threshold     =      1.0E-06
     mixing beta               =       0.7000
     number of iterations used =            8  local-TF  mixing
     Exchange-correlation      = SLA PW GGX GGC ( 1  4  2  2 0 0)

     celldm(1)=   6.139644  celldm(2)=   0.000000  celldm(3)=   0.000000
     celldm(4)=   0.000000  celldm(5)=   0.000000  celldm(6)=   0.000000

     crystal axes: (cart. coord. in units of alat)
               a(1) = (   1.000000   0.000000   0.000000 )
               a(2) = (  -0.007865   1.835071   0.000000 )
               a(3) = (  -0.264972  -0.599931   4.586193 )

     reciprocal axes: (cart. coord. in units 2 pi/alat)
               b(1) = (  1.000000  0.004286  0.058337 )
               b(2) = (  0.000000  0.544938  0.071285 )
               b(3) = (  0.000000  0.000000  0.218046 )

     PseudoPot. # 1 for Mo read from file:
     ~/pseudo/Mo.pw91-n-van.UPF
     MD5 check sum: Not computed, couldn't open file
     Pseudo is Ultrasoft + core correction, Zval =  6.0
     Generated by new atomic code, or converted to UPF format
     Using radial grid of  965 points,  3 beta functions with:
                l(1) =   1
                l(2) =   2
                l(3) =   2
     Q(r) pseudized with  8 coefficients,  rinner =    1.000   1.000   1.000
                                                       1.200   1.200

     PseudoPot. # 2 for S  read from file:
     ~/pseudo/S.pw91-van_ak.UPF
     MD5 check sum: Not computed, couldn't open file
     Pseudo is Ultrasoft, Zval =  6.0
     Generated by new atomic code, or converted to UPF format
     Using radial grid of  811 points,  6 beta functions with:
                l(1) =   0
                l(2) =   0
                l(3) =   1
                l(4) =   1
                l(5) =   2
                l(6) =   2
     Q(r) pseudized with  8 coefficients,  rinner =    1.100   1.100   1.100
                                                       1.100   1.100

     atomic species   valence    mass     pseudopotential
        Mo             6.00    95.50000     Mo( 1.00)
        S              6.00    32.06500     S ( 1.00)

     No symmetry found

   Cartesian axes

     site n.     atom                  positions (alat units)
         1           Mo  tau(   1) = (   0.4791686   1.1753846   2.5606532  )
         2           Mo  tau(   2) = (  -0.0174293   0.4839494   2.6119656  )
         3           Mo  tau(   3) = (   0.0724327   0.9402835   0.6876891  )
         4           Mo  tau(   4) = (   0.5882260  -0.2015936   0.6645076  )
         5           S   tau(   5) = (   0.5700376   1.1136315   1.1875891  )
         6           S   tau(   6) = (  -0.0195633   0.9819425   2.0670380  )
         7           S   tau(   7) = (   0.4792809   0.0583332   2.1927436  )
         8           S   tau(   8) = (   0.4847111   0.6904324   3.1061970  )
         9           S   tau(   9) = (   0.3063481  -0.0916305   4.8917319  )
        10           S   tau(  10) = (  -0.0176042   1.6056072   2.9494204  )
        11           S   tau(  11) = (  -0.1807124  -0.9851833   4.7499667  )
        12           S   tau(  12) = (   0.0889109   0.2225656   1.0741845  )

     number of k points=     8  Marzari-Vanderbilt smearing, width (Ry)=  0.0200
                       cart. coord. in units 2pi/alat
        k(    1) = (   0.0000000   0.0000000   0.0000000), wk =   0.1333333
        k(    2) = (   0.0000000   0.1816460   0.0237615), wk =   0.2666667
        k(    3) = (   0.2000000   0.0008571   0.0116673), wk =   0.2666667
        k(    4) = (   0.2000000   0.1825031   0.0354289), wk =   0.2666667
        k(    5) = (   0.2000000  -0.1807889  -0.0120942), wk =   0.2666667
        k(    6) = (   0.4000000   0.0017143   0.0233347), wk =   0.2666667
        k(    7) = (   0.4000000   0.1833603   0.0470962), wk =   0.2666667
        k(    8) = (   0.4000000  -0.1799317  -0.0004268), wk =   0.2666667

     Initial potential from superposition of free atoms

     starting charge   71.99369, renormalised to   72.00000
     Starting wfcs are   68 randomized atomic wfcs

     Self-consistent Calculation

     iteration #  1     ecut=    45.00 Ry     beta= 0.70
     Davidson diagonalization with overlap
     ethr =  1.00E-02,  avg # of iterations =  2.1

     total energy              =    -281.16031959 Ry
     Harris-Foulkes estimate   =    -282.08628638 Ry
     estimated scf accuracy    <       2.40409440 Ry

[...]

     total energy              =    -281.63811007 Ry
     Harris-Foulkes estimate   =    -281.63811050 Ry
     estimated scf accuracy    <       0.00000189 Ry

     iteration # 12     ecut=    45.00 Ry     beta= 0.70
     Davidson diagonalization with overlap
     ethr =  2.63E-09,  avg # of iterations =  3.2

     End of self-consistent calculation

          k = 0.0000 0.0000 0.0000 (  9937 PWs)   bands (ev):

    -9.3586  -9.2276  -8.4772  -8.2905  -7.7240  -7.6133  -7.3745  -7.3053
    -1.1829  -1.0972  -0.8211  -0.3210  -0.0250   0.3332   0.4024   0.4972
     1.0304   1.0800   1.1452   1.1901   1.7138   1.7945   2.1450   2.5159
     2.8284   3.0795   3.1597   3.3058   3.4323   3.5304   4.2291   4.4710
     4.5543   4.5697   4.6744   4.7965   4.8783   4.9301   5.3196   5.4363
     6.3486   6.4619   6.8250

[...]

          k = 0.4000-0.1799-0.0004 (  9908 PWs)   bands (ev):

    -8.1591  -8.0222  -7.9665  -7.9424  -7.4624  -7.4603  -7.0341  -7.0047
    -1.0512  -0.9923  -0.6679  -0.5677  -0.1701  -0.0258   0.3607   0.6479
     0.6974   0.9021   0.9505   1.0691   1.2452   1.3112   1.6136   1.7125
     1.9634   2.0126   2.2690   2.3222   2.5365   2.6614   3.1437   3.3186
     3.5255   3.6187   3.9197   4.0273   5.9580   5.9790   6.2310   6.2467
     7.0337   7.2144   7.3050

     the Fermi energy is     4.7617 ev

!    total energy              =    -281.63811031 Ry
     Harris-Foulkes estimate   =    -281.63811072 Ry
     estimated scf accuracy    <       0.00000047 Ry

     The total energy is the sum of the following terms:

     one-electron contribution =    -203.80414060 Ry
     hartree contribution      =     138.31067960 Ry
     xc contribution           =    -111.38288853 Ry
     ewald contribution        =    -104.76352892 Ry
     smearing contrib. (-TS)   =       0.00176815 Ry

     convergence has been achieved in  12 iterations

     Forces acting on atoms (cartesian axes, Ry/au):

     atom    1 type  1   force =     0.00257881    0.06221275   -0.01359649
     atom    2 type  1   force =     0.00227530   -0.05757216   -0.02295154
     atom    3 type  1   force =    -0.00215923   -0.06127918    0.01899054
     atom    4 type  1   force =    -0.00645048    0.05757957    0.01320239
     atom    5 type  2   force =     0.00291747    0.00319328    0.04239416
     atom    6 type  2   force =     0.00089138   -0.00251906   -0.03911656
     atom    7 type  2   force =     0.00237406    0.00328895   -0.00363373
     atom    8 type  2   force =    -0.00296316   -0.01159098    0.05629965
     atom    9 type  2   force =     0.00553407   -0.00279225   -0.02895411
     atom   10 type  2   force =    -0.00256800    0.00446833    0.03296127
     atom   11 type  2   force =     0.00306425    0.00772258   -0.05892102
     atom   12 type  2   force =    -0.00549447   -0.00271182    0.00332544

     Total force =     0.166838     Total SCF correction =     0.001393

     General routines

     Parallel routines

   This run was terminated on:  11: 1:26  14Oct2021

   JOB DONE.