     Program PWSCF v.6.4 starts on 24Dec2021 at 22:57: 2

     R & G space division:  proc/nbgrp/npool/nimage =      40
     Waiting for input...
     Reading input from standard input
Warning: card    &IONS ignored
Warning: card      ION_DYNAMICS = 'BFGS' ignored
Warning: card   / ignored
Warning: card    &CELL ignored
Warning: card      CELL_DYNAMICS = 'BFGS', ignored
Warning: card    / ignored

     Current dimensions of program PWSCF are:
     Max number of different atomic species (ntypx) = 10
     Max number of k-points (npk) =  40000
     Max angular momentum in pseudopotentials (lmaxx) =  3

     bravais-lattice index     =            0
     lattice parameter (alat)  =      18.5672  a.u.
     unit-cell volume          =    6649.4534 (a.u.)^3
     number of atoms/cell      =           48
     number of atomic types    =            2
     number of electrons       =       288.00
     number of Kohn-Sham states=          173
     kinetic-energy cutoff     =      45.0000  Ry
     charge density cutoff     =     360.0000  Ry
     convergence threshold     =      1.0E-06
     mixing beta               =       0.7000
     number of iterations used =            8  local-TF  mixing
     Exchange-correlation      = SLA PW GGX GGC ( 1  4  2  2 0 0)

     celldm(1)=  18.567241  celldm(2)=   0.000000  celldm(3)=   0.000000
     celldm(4)=   0.000000  celldm(5)=   0.000000  celldm(6)=   0.000000

     crystal axes: (cart. coord. in units of alat)
               a(1) = (   1.000000   0.000000   0.000000 )
               a(2) = (   0.040273   1.034514   0.000000 )
               a(3) = (  -0.037583   0.012491   1.004171 )

     reciprocal axes: (cart. coord. in units 2 pi/alat)
               b(1) = (  1.000000 -0.038929  0.037911 )
               b(2) = (  0.000000  0.966638 -0.012024 )
               b(3) = (  0.000000  0.000000  0.995847 )

     PseudoPot. # 1 for Mo read from file:
     ~/pseudo/Mo.pw91-n-van.UPF
     MD5 check sum: Not computed, couldn't open file
     Pseudo is Ultrasoft + core correction, Zval =  6.0
     Generated by new atomic code, or converted to UPF format
     Using radial grid of  965 points,  3 beta functions with:
                l(1) =   1
                l(2) =   2
                l(3) =   2
     Q(r) pseudized with  8 coefficients,  rinner =    1.000   1.000   1.000
                                                       1.200   1.200

     PseudoPot. # 2 for S  read from file:
     ~/pseudo/S.pw91-van_ak.UPF
     MD5 check sum: Not computed, couldn't open file
     Pseudo is Ultrasoft, Zval =  6.0
     Generated by new atomic code, or converted to UPF format
     Using radial grid of  811 points,  6 beta functions with:
                l(1) =   0
                l(2) =   0
                l(3) =   1
                l(4) =   1
                l(5) =   2
                l(6) =   2
     Q(r) pseudized with  8 coefficients,  rinner =    1.100   1.100   1.100
                                                       1.100   1.100

     atomic species   valence    mass     pseudopotential
        Mo             6.00    95.50000     Mo( 1.00)
        S              6.00    32.06500     S ( 1.00)

     No symmetry found

   Cartesian axes

     site n.     atom                  positions (alat units)
         1           Mo  tau(   1) = (   0.1474417   0.6632355   0.3499626  )
         2           Mo  tau(   2) = (   0.3760872   0.8419533   0.3622064  )
         3           Mo  tau(   3) = (   0.1686552   0.8657677   0.1436764  )
         4           Mo  tau(   4) = (   0.3565292   0.6539138   0.1330702  )
         5           Mo  tau(   5) = (   0.6280690   0.7020279   0.8595809  )
         6           Mo  tau(   6) = (   0.8469010   0.8920036   0.8544765  )
         7           Mo  tau(   7) = (   0.6273177   0.8775417   0.6349949  )
         8           Mo  tau(   8) = (   0.8576160   0.6928313   0.6404154  )
         9           Mo  tau(   9) = (   0.0361364   0.2542237  -0.0027642  )
        10           Mo  tau(  10) = (   0.3767032   0.3983849   0.8946760  )
        11           Mo  tau(  11) = (   0.1081753   0.3870575   0.6157921  )
        12           Mo  tau(  12) = (   0.3386322   0.2076403   0.6672954  )
        13           Mo  tau(  13) = (   0.8762988   0.1857111   0.6077836  )
        14           Mo  tau(  14) = (   0.8918670   0.3928256   0.4090120  )
        15           Mo  tau(  15) = (   0.6113723   0.3727139   0.1027496  )
        16           Mo  tau(  16) = (   0.8145184   0.1333922   0.1228646  )
        17           S   tau(  17) = (   0.1400030   0.8991808   0.3846772  )
        18           S   tau(  18) = (   0.1101010   0.1430145   0.6306427  )
        19           S   tau(  19) = (   0.3867107   0.6037679   0.3691466  )
        20           S   tau(  20) = (   0.3704839   0.6535810   0.8929526  )
        21           S   tau(  21) = (   0.1071854   0.9109078   0.8875331  )
        22           S   tau(  22) = (   0.3678351   0.8760597   0.6110337  )
        23           S   tau(  23) = (   0.1020754   0.6453403   0.6093095  )
        24           S   tau(  24) = (   0.3578433   0.4352844   0.6476752  )
        25           S   tau(  25) = (   0.6090536   0.9366247   0.8605423  )
        26           S   tau(  26) = (   0.5903975   0.1413535   0.1406782  )
        27           S   tau(  27) = (   0.8689047   0.6494955   0.8778568  )
        28           S   tau(  28) = (   0.8950604   0.6478754   0.3819282  )
        29           S   tau(  29) = (   0.6251961   0.8561074   0.3733447  )
        30           S   tau(  30) = (   0.9091490   0.9191704   0.1046351  )
        31           S   tau(  31) = (   0.6261363   0.6380490   0.1103420  )
        32           S   tau(  32) = (   0.8799600   0.3771532   0.1204945  )
        33           S   tau(  33) = (   0.1199124   0.4126672   0.8631178  )
        34           S   tau(  34) = (   0.1209561   0.6310079   0.1069841  )
        35           S   tau(  35) = (   0.3300558   0.1680978   0.9036302  )
        36           S   tau(  36) = (   0.4942187   0.0877624   0.5348725  )
        37           S   tau(  37) = (   0.1328643   0.4008579   0.3669673  )
        38           S   tau(  38) = (   0.3677639   0.3922105   0.1322551  )
        39           S   tau(  39) = (   0.1481805   0.1078959   0.1522301  )
        40           S   tau(  40) = (   0.4086817   0.9009049   0.1238864  )
        41           S   tau(  41) = (   0.6585747   0.4089371   0.3539906  )
        42           S   tau(  42) = (   0.6271124   0.6373642   0.6218957  )
        43           S   tau(  43) = (   0.8857855   0.1471128   0.3601225  )
        44           S   tau(  44) = (   0.8508985   0.1354722   0.8857847  )
        45           S   tau(  45) = (   0.6149190   0.4292295   0.8782230  )
        46           S   tau(  46) = (   0.8701632   0.4200122   0.6400633  )
        47           S   tau(  47) = (   0.6272355   0.1957542   0.6761148  )
        48           S   tau(  48) = (   0.8614851   0.9392626   0.6184958  )

     number of k points=     8  Marzari-Vanderbilt smearing, width (Ry)=  0.0200
                       cart. coord. in units 2pi/alat
        k(    1) = (   0.0000000   0.0000000   0.0000000), wk =   0.2500000
        k(    2) = (   0.0000000   0.0000000  -0.4979233), wk =   0.2500000
        k(    3) = (   0.0000000  -0.4833189   0.0060119), wk =   0.2500000
        k(    4) = (   0.0000000  -0.4833189  -0.4919113), wk =   0.2500000
        k(    5) = (  -0.5000000   0.0194645  -0.0189554), wk =   0.2500000
        k(    6) = (  -0.5000000   0.0194645  -0.5168786), wk =   0.2500000
        k(    7) = (  -0.5000000  -0.4638544  -0.0129434), wk =   0.2500000
        k(    8) = (  -0.5000000  -0.4638544  -0.5108667), wk =   0.2500000

     Initial potential from superposition of free atoms

     starting charge  287.97477, renormalised to  288.00000
     Starting wfcs are  272 randomized atomic wfcs

     Self-consistent Calculation

     iteration #  1     ecut=    45.00 Ry     beta= 0.70
     Davidson diagonalization with overlap
     ethr =  1.00E-02,  avg # of iterations =  2.0

     total energy              =   -1123.61148847 Ry
     Harris-Foulkes estimate   =   -1127.79301687 Ry
     estimated scf accuracy    <      12.11828698 Ry

[...]

     total energy              =   -1125.76515642 Ry
     Harris-Foulkes estimate   =   -1125.76515676 Ry
     estimated scf accuracy    <       0.00000328 Ry

     iteration # 15     ecut=    45.00 Ry     beta= 0.70
     Davidson diagonalization with overlap
     ethr =  1.14E-09,  avg # of iterations =  2.0

     End of self-consistent calculation

          k = 0.0000 0.0000 0.0000 ( 33877 PWs)   bands (ev):

    -8.0786  -7.4538  -6.9665  -6.8062  -6.7527  -6.6464  -6.5685  -6.4354
    -6.3627  -6.3592  -6.3329  -6.1928  -6.1828  -6.0886  -6.0221  -5.9867
    -5.9554  -5.9377  -5.7963  -5.7403  -5.6504  -5.5845  -5.4694  -5.3329
    -5.2366  -5.1664  -5.0915  -4.9961  -4.8652  -4.6288  -4.4649  -4.4310
     0.3673   0.6563   0.8634   0.8784   1.0655   1.1121   1.2232   1.3220
     1.3813   1.4450   1.4843   1.5976   1.6415   1.7086   1.7316   1.7939
     1.8457   1.9057   1.9236   2.0325   2.0950   2.1648   2.1985   2.2284
     2.2821   2.3498   2.3696   2.3860   2.4780   2.5211   2.5560   2.6026
     2.6525   2.6815   2.7080   2.7502   2.7791   2.8118   2.8539   2.9215
     2.9390   2.9866   3.0054   3.0667   3.0848   3.1083   3.1657   3.1784
     3.2210   3.2958   3.3329   3.3724   3.4395   3.4759   3.4966   3.5620
     3.6179   3.6401   3.6796   3.7222   3.7594   3.7850   3.8563   3.9068
     3.9176   4.0419   4.1100   4.1726   4.1838   4.3110   4.3522   4.4182
     4.4463   4.4813   4.5653   4.6332   4.6425   4.7601   4.8242   4.9057
     4.9537   5.0028   5.0644   5.1074   5.1453   5.1982   5.2553   5.3559
     5.3807   5.4592   5.5137   5.5326   5.5472   5.6473   5.6783   5.7422
     5.7862   5.8984   5.9865   6.0638   6.0953   6.1434   6.2599   6.3087
     6.3178   6.4377   6.5534   6.5977   6.6300   6.6541   6.7474   6.7961
     6.8990   6.9414   6.9926   7.0109   7.1451   7.1656   7.2556   7.3388
     7.4169   7.4736   7.5315   7.6237   7.6730   7.7771   7.8816   7.9212
     8.0127   8.0852   8.1472   8.2375   8.2716   8.3292   8.4498   8.4927
     8.6127   8.6463   8.7335   8.7998   8.8243

[...]

          k = 0.0000-0.4833-0.4919 ( 33868 PWs)   bands (ev):

[...]

          k =-0.5000 0.0195-0.0190 ( 33892 PWs)   bands (ev):

[...]

          k =-0.5000-0.4639-0.5109 ( 33910 PWs)   bands (ev):

    -8.0418  -7.3718  -6.9796  -6.8936  -6.7548  -6.6974  -6.6763  -6.4931
    -6.3936  -6.3283  -6.3050  -6.2044  -6.1244  -6.0500  -6.0321  -6.0108
    -5.9670  -5.9455  -5.7906  -5.7183  -5.6411  -5.5159  -5.4652  -5.3865
    -5.2090  -5.1734  -5.0743  -4.9640  -4.8268  -4.6686  -4.4781  -4.3875
     0.7805   0.8514   1.0398   1.1085   1.2071   1.2930   1.3147   1.3265
     1.3860   1.4753   1.5002   1.5542   1.5885   1.6206   1.7082   1.7598
     1.8013   1.8633   1.8822   1.9264   1.9463   1.9645   2.0306   2.0593
     2.1211   2.1677   2.2241   2.2611   2.3321   2.3623   2.3786   2.4483
     2.5372   2.5664   2.5964   2.6369   2.6818   2.8069   2.8144   2.9061
     2.9201   2.9728   3.0008   3.0508   3.1049   3.1403   3.1496   3.2063
     3.2419   3.2866   3.3245   3.3497   3.3644   3.4004   3.4661   3.5229
     3.5680   3.6489   3.7085   3.7570   3.7820   3.8218   3.9237   4.0027
     4.0706   4.1187   4.2008   4.2688   4.2895   4.3550   4.4539   4.5031
     4.5228   4.6087   4.6659   4.7262   4.7507   4.7991   4.8441   4.8700
     4.9320   5.0246   5.0347   5.0883   5.1406   5.1998   5.3126   5.3631
     5.4221   5.4834   5.4990   5.5837   5.6440   5.6810   5.7322   5.7909
     5.8408   5.9359   5.9985   6.0125   6.0906   6.2351   6.2963   6.3363
     6.3698   6.4030   6.4465   6.4901   6.5722   6.6340   6.7039   6.8301
     6.9296   6.9821   7.0140   7.0561   7.1427   7.1810   7.2273   7.3078
     7.3671   7.4394   7.5022   7.7217   7.8245   7.9006   7.9479   7.9904
     8.1349   8.1812   8.2040   8.3375   8.3693   8.4091   8.5015   8.5478
     8.5794   8.7434   8.7828   8.8865   8.9239

     the Fermi energy is     6.8442 ev

!    total energy              =   -1125.76515617 Ry
     Harris-Foulkes estimate   =   -1125.76515680 Ry
     estimated scf accuracy    <       0.00000079 Ry

     The total energy is the sum of the following terms:

     one-electron contribution =      12.17091178 Ry
     hartree contribution      =     160.08810089 Ry
     xc contribution           =    -444.60810763 Ry
     ewald contribution        =    -853.41649035 Ry
     smearing contrib. (-TS)   =       0.00042915 Ry

     convergence has been achieved in  15 iterations

     Forces acting on atoms (cartesian axes, Ry/au):

     atom    1 type  1   force =    -0.01384376   -0.02954818   -0.01096850
     atom    2 type  1   force =     0.05799929   -0.01730785    0.03857892
     atom    3 type  1   force =    -0.01932459    0.02234041   -0.05099301
     atom    4 type  1   force =     0.06024168    0.01195991   -0.01916617
     atom    5 type  1   force =     0.02941675   -0.07555327    0.00481415
     atom    6 type  1   force =     0.05276280   -0.04236737    0.02120810
     atom    7 type  1   force =    -0.04103236   -0.04216621   -0.09823694
     atom    8 type  1   force =     0.00897515    0.02726365    0.00513104
     atom    9 type  1   force =     0.07350633   -0.03957606    0.06448863
     atom   10 type  1   force =     0.00002746    0.01805555   -0.01325515
     atom   11 type  1   force =     0.00715265    0.03558850   -0.03354606
     atom   12 type  1   force =    -0.01740379   -0.04389889    0.07060199
     atom   13 type  1   force =    -0.02268202   -0.03185872   -0.02024254
     atom   14 type  1   force =    -0.01167039   -0.00519620   -0.07283567
     atom   15 type  1   force =     0.05749534    0.04847829    0.03824937
     atom   16 type  1   force =     0.03719038   -0.03772755    0.02026819
     atom   17 type  2   force =    -0.01752898    0.02334661    0.00347027
     atom   18 type  2   force =     0.02781658   -0.02753406   -0.01302068
     atom   19 type  2   force =    -0.00074924    0.02624520    0.02387204
     atom   20 type  2   force =    -0.00957218    0.02584882   -0.00572522
     atom   21 type  2   force =    -0.03362847   -0.00493982    0.02928625
     atom   22 type  2   force =     0.02576853    0.00301322   -0.02798246
     atom   23 type  2   force =     0.01546437    0.00132994    0.00023280
     atom   24 type  2   force =    -0.00548464    0.02770330   -0.02100075
     atom   25 type  2   force =    -0.04460739    0.05362387    0.07585128
     atom   26 type  2   force =    -0.04730824   -0.03173486    0.00274507
     atom   27 type  2   force =    -0.00281774    0.03266799    0.02836285
     atom   28 type  2   force =    -0.00607964   -0.00012522    0.01291585
     atom   29 type  2   force =    -0.02971524    0.01395374    0.01454377
     atom   30 type  2   force =     0.00115325    0.01898433    0.00208577
     atom   31 type  2   force =    -0.01212930   -0.00361029   -0.00966901
     atom   32 type  2   force =    -0.02287694    0.01814410    0.03594940
     atom   33 type  2   force =    -0.01258773    0.02118238    0.00150382
     atom   34 type  2   force =    -0.02601542    0.00582211    0.00633821
     atom   35 type  2   force =     0.00982951   -0.03073868   -0.03177447
     atom   36 type  2   force =     0.03992413   -0.01667204    0.00577523
     atom   37 type  2   force =    -0.00608817   -0.00856811    0.02177305
     atom   38 type  2   force =     0.00397633    0.00427221    0.00639800
     atom   39 type  2   force =    -0.04532996    0.03325527   -0.05156254
     atom   40 type  2   force =    -0.01331770   -0.02696605    0.00960850
     atom   41 type  2   force =    -0.00996047   -0.00590820   -0.01013449
     atom   42 type  2   force =    -0.04610648    0.01457482   -0.00591105
     atom   43 type  2   force =    -0.00803642    0.01680773    0.03173833
     atom   44 type  2   force =    -0.00743729   -0.02238844   -0.04048478
     atom   45 type  2   force =     0.00119006   -0.00754010   -0.02389123
     atom   46 type  2   force =    -0.01498587    0.03449836    0.03964907
     atom   47 type  2   force =     0.00750036   -0.00304898   -0.02765579
     atom   48 type  2   force =     0.03092944    0.01601484   -0.02738344

     Total force =     0.365383     Total SCF correction =     0.001734

     General routines

     Parallel routines

   This run was terminated on:  23: 1: 2  24Dec2021

   JOB DONE.