     Program PWSCF v.6.4 starts on 14Oct2021 at 11: 1:27

     R & G space division:  proc/nbgrp/npool/nimage =      40
     Waiting for input...
     Reading input from standard input
Warning: card    &IONS ignored
Warning: card      ION_DYNAMICS = 'BFGS' ignored
Warning: card   / ignored
Warning: card    &CELL ignored
Warning: card      CELL_DYNAMICS = 'BFGS', ignored
Warning: card    / ignored

     Current dimensions of program PWSCF are:
     Max number of different atomic species (ntypx) = 10
     Max number of k-points (npk) =  40000
     Max angular momentum in pseudopotentials (lmaxx) =  3

     bravais-lattice index     =            0
     lattice parameter (alat)  =      12.1916  a.u.
     unit-cell volume          =    7380.7402 (a.u.)^3
     number of atoms/cell      =           36
     number of atomic types    =            2
     number of electrons       =       216.00
     number of Kohn-Sham states=          130
     kinetic-energy cutoff     =      45.0000  Ry
     charge density cutoff     =     360.0000  Ry
     convergence threshold     =      1.0E-06
     mixing beta               =       0.7000
     number of iterations used =            8  local-TF  mixing
     Exchange-correlation      = SLA PW GGX GGC ( 1  4  2  2 0 0)

     celldm(1)=  12.191625  celldm(2)=   0.000000  celldm(3)=   0.000000
     celldm(4)=   0.000000  celldm(5)=   0.000000  celldm(6)=   0.000000

     crystal axes: (cart. coord. in units of alat)
               a(1) = (   1.000000   0.000000   0.000000 )
               a(2) = (   0.499210   0.865064   0.000000 )
               a(3) = (   0.335190   0.288618   4.708332 )

     reciprocal axes: (cart. coord. in units 2 pi/alat)
               b(1) = (  1.000000 -0.577080 -0.035816 )
               b(2) = (  0.000000  1.155985 -0.070861 )
               b(3) = (  0.000000  0.000000  0.212389 )

     PseudoPot. # 1 for Mo read from file:
     ~/pseudo/Mo.pw91-n-van.UPF
     MD5 check sum: Not computed, couldn't open file
     Pseudo is Ultrasoft + core correction, Zval =  6.0
     Generated by new atomic code, or converted to UPF format
     Using radial grid of  965 points,  3 beta functions with:
                l(1) =   1
                l(2) =   2
                l(3) =   2
     Q(r) pseudized with  8 coefficients,  rinner =    1.000   1.000   1.000
                                                       1.200   1.200

     PseudoPot. # 2 for S  read from file:
     ~/pseudo/S.pw91-van_ak.UPF
     MD5 check sum: Not computed, couldn't open file
     Pseudo is Ultrasoft, Zval =  6.0
     Generated by new atomic code, or converted to UPF format
     Using radial grid of  811 points,  6 beta functions with:
                l(1) =   0
                l(2) =   0
                l(3) =   1
                l(4) =   1
                l(5) =   2
                l(6) =   2
     Q(r) pseudized with  8 coefficients,  rinner =    1.100   1.100   1.100
                                                       1.100   1.100

     atomic species   valence    mass     pseudopotential
        Mo             6.00    95.50000     Mo( 1.00)
        S              6.00    32.06500     S ( 1.00)

     No symmetry found

   Cartesian axes

     site n.     atom                  positions (alat units)
         1           Mo  tau(   1) = (   1.1080676   0.5835694   0.9508035  )
         2           Mo  tau(   2) = (   0.3594162   0.1517899   0.9498605  )
         3           Mo  tau(   3) = (   0.6086202   0.5831988   0.9503301  )
         4           Mo  tau(   4) = (   0.8589510   0.1507581   0.9499022  )
         5           Mo  tau(   5) = (   1.1163957   0.5244093   3.7093735  )
         6           Mo  tau(   6) = (   0.8665557   0.9550190   3.7097885  )
         7           Mo  tau(   7) = (   0.6162899   0.5245166   3.7091411  )
         8           Mo  tau(   8) = (   1.3656277   0.9565745   3.7088477  )
         9           Mo  tau(   9) = (   0.8574547   0.4758017   0.0454112  )
        10           Mo  tau(  10) = (   0.1071164   0.0431994   0.0455361  )
        11           Mo  tau(  11) = (   0.3570491   0.4749951   0.0464924  )
        12           Mo  tau(  12) = (   0.6073712   0.0428090   0.0459986  )
        13           S   tau(  13) = (   0.8559019   0.7637996   0.2896062  )
        14           S   tau(  14) = (   1.1059972   0.3307008   0.2902268  )
        15           S   tau(  15) = (   1.3563658   0.7636408   0.2906153  )
        16           S   tau(  16) = (   0.6078398   0.3311362   0.2906550  )
        17           S   tau(  17) = (   0.8588765   0.4396664   0.7050455  )
        18           S   tau(  18) = (   0.6093556   0.8719077   0.7046096  )
        19           S   tau(  19) = (   0.3586772   0.4406674   0.7041408  )
        20           S   tau(  20) = (   1.1081536   0.8719109   0.7047264  )
        21           S   tau(  21) = (   0.8578540   0.4392823   1.1916856  )
        22           S   tau(  22) = (   0.6086140   0.8722835   1.1910028  )
        23           S   tau(  23) = (   0.3584404   0.4393983   1.1921102  )
        24           S   tau(  24) = (   1.1072889   0.8720726   1.1912984  )
        25           S   tau(  25) = (   0.3668161   0.3786551   3.4675390  )
        26           S   tau(  26) = (   1.1163442   0.8115449   3.4658483  )
        27           S   tau(  27) = (   0.8666833   0.3799146   3.4664373  )
        28           S   tau(  28) = (   0.6163977   0.8122971   3.4661202  )
        29           S   tau(  29) = (   1.3661705   0.3795566   3.9545565  )
        30           S   tau(  30) = (   1.1161822   0.8121697   3.9558162  )
        31           S   tau(  31) = (   0.8659455   0.3801125   3.9545685  )
        32           S   tau(  32) = (   0.6149934   0.8127296   3.9553437  )
        33           S   tau(  33) = (   1.1919320   1.0526907   4.5108335  )
        34           S   tau(  34) = (   1.4426234   0.6201524   4.5110271  )
        35           S   tau(  35) = (   1.6916642   1.0521340   4.5113385  )
        36           S   tau(  36) = (   0.9425692   0.6198012   4.5112144  )

     number of k points=     5  Marzari-Vanderbilt smearing, width (Ry)=  0.0200
                       cart. coord. in units 2pi/alat
        k(    1) = (   0.0000000   0.0000000   0.0000000), wk =   0.2222222
        k(    2) = (   0.0000000   0.3853282  -0.0236204), wk =   0.4444444
        k(    3) = (   0.3333333  -0.1923599  -0.0119387), wk =   0.4444444
        k(    4) = (   0.3333333   0.1929683  -0.0355591), wk =   0.4444444
        k(    5) = (   0.3333333  -0.5776880   0.0116817), wk =   0.4444444

     Initial potential from superposition of free atoms

     starting charge  215.98107, renormalised to  216.00000

     negative rho (up, down):  8.222E-04 0.000E+00
     Starting wfcs are  204 randomized atomic wfcs

     Self-consistent Calculation

     iteration #  1     ecut=    45.00 Ry     beta= 0.70
     Davidson diagonalization with overlap
     ethr =  1.00E-02,  avg # of iterations =  2.0

     negative rho (up, down):  6.242E-05 0.000E+00

     total energy              =    -844.20885548 Ry
     Harris-Foulkes estimate   =    -846.81445546 Ry
     estimated scf accuracy    <       6.65865317 Ry

[...]

     total energy              =    -845.50930485 Ry
     Harris-Foulkes estimate   =    -845.50930557 Ry
     estimated scf accuracy    <       0.00000157 Ry

     iteration # 24     ecut=    45.00 Ry     beta= 0.70
     Davidson diagonalization with overlap
     ethr =  7.28E-10,  avg # of iterations =  3.4

[...]

     End of self-consistent calculation

          k = 0.0000 0.0000 0.0000 ( 37485 PWs)   bands (ev):

   -11.8582 -11.6404 -11.5494 -10.6659 -10.4362 -10.2449 -10.0913 -10.0419
   -10.0404  -9.9332  -9.9233  -9.9220  -9.9084  -9.9043  -9.8868  -9.7474
    -9.7414  -9.7361  -9.6505  -9.6428  -9.6372  -9.6174  -9.6094  -9.5617
    -3.6106  -3.4496  -3.4365  -3.4338  -3.2889  -3.2816  -3.2669  -3.2658
    -3.2624  -3.2310  -3.1329  -2.7644  -2.5700  -2.5177  -2.5154  -2.3229
    -2.3188  -2.3133  -2.3096  -2.3076  -2.2386  -1.8742  -1.8009  -1.7730
    -1.6427  -1.6401  -1.6113  -1.5224  -1.5171  -1.4337  -0.8727  -0.8645
    -0.8518  -0.7748  -0.7716  -0.7592  -0.7405  -0.7286  -0.7197  -0.3417
    -0.3246  -0.2688  -0.2539  -0.2419  -0.2301  -0.0416   0.1768   0.2859
     0.3442   0.5014   0.5187   0.5506   0.6598   0.6919   0.7003   0.7676
     0.7843   0.8463   0.8502   0.8587   0.8808   0.8925   1.2068   1.2246
     1.2337   1.3609   1.3709   1.3888   1.4447   1.4528   1.4598   1.4940
     1.6066   1.6215   1.6370   1.6951   1.6987   1.7274   1.7455   1.7537
     1.8185   2.1611   2.4915   3.0664   4.2773   4.2807   4.2830   4.3254
     4.3334   4.3433   4.3923   4.3986   4.3996   4.7691   4.7752   4.7869
     4.8212   4.8529   4.8546   4.8619   4.9340   4.9356   4.9396   4.9576
     5.0116   5.0346

[...]

          k = 0.3333-0.5777 0.0117 ( 37721 PWs)   bands (ev):

   -10.8758 -10.8730 -10.8627 -10.6756 -10.6740 -10.6692 -10.6076 -10.5989
   -10.5958 -10.1405 -10.1383 -10.1345  -9.9811  -9.9752  -9.9696  -9.8543
    -9.8419  -9.8393  -9.7897  -9.6897  -9.6757  -9.5719  -9.4853  -9.4638
    -2.9896  -2.9056  -2.8882  -2.8584  -2.8503  -2.8476  -2.4686  -2.4672
    -2.4635  -2.2986  -2.2909  -2.2889  -2.2849  -2.1241  -2.1031  -1.7723
    -1.6742  -1.6297  -1.6243  -1.6146  -1.6014  -1.5554  -1.5155  -1.5041
    -1.4171  -1.4062  -1.3932  -1.3121  -1.2666  -1.2612  -1.2347  -1.1993
    -1.1908  -1.1882  -1.1864  -1.1264  -1.1140  -1.1102  -1.1075  -0.8762
    -0.8715  -0.8652  -0.7484  -0.7363  -0.7280  -0.5541  -0.5152  -0.5105
    -0.5076  -0.4979  -0.4576   0.1030   0.2345   0.2898   0.2951   0.2974
     0.3839   0.3973   0.4111   0.4184   0.4210   0.4255   0.4370   1.1119
     1.1309   1.1401   1.2782   1.2937   1.3163   1.3456   1.4420   1.4573
     1.4914   1.4957   1.5041   1.5439   1.5534   1.5574   1.6179   1.6225
     1.6293   2.2348   2.2870   2.3589   3.8373   3.8873   3.9361   3.9742
     3.9777   3.9872   4.1935   4.2038   4.2097   4.3499   4.3563   4.3636
     4.5794   4.5864   4.5884   4.6149   4.6184   4.6228   4.7471   4.7537
     4.7657   4.8801

     the Fermi energy is     3.3146 ev

!    total energy              =    -845.50930511 Ry
     Harris-Foulkes estimate   =    -845.50930500 Ry
     estimated scf accuracy    <       0.00000050 Ry

     The total energy is the sum of the following terms:

     one-electron contribution =   -6753.78647849 Ry
     hartree contribution      =    3468.60849138 Ry
     xc contribution           =    -334.29599739 Ry
     ewald contribution        =    2773.96432029 Ry
     smearing contrib. (-TS)   =       0.00035910 Ry

     convergence has been achieved in  24 iterations

     negative rho (up, down):  1.145E-03 0.000E+00

     Forces acting on atoms (cartesian axes, Ry/au):

     atom    1 type  1   force =     0.00219027   -0.00027426   -0.01556363
     atom    2 type  1   force =    -0.00288305   -0.00010204   -0.01404771
     atom    3 type  1   force =    -0.00120522    0.00354081   -0.01430799
     atom    4 type  1   force =     0.00081486    0.00086912   -0.01285179
     atom    5 type  1   force =     0.00005439   -0.00457979    0.01125125
     atom    6 type  1   force =    -0.00359653    0.00451950    0.01035311
     atom    7 type  1   force =    -0.00002146   -0.00276957    0.01195980
     atom    8 type  1   force =     0.00144878   -0.00029137    0.01218348
     atom    9 type  1   force =    -0.00328086   -0.00252788    0.00236168
     atom   10 type  1   force =    -0.00078490   -0.00305327    0.00171129
     atom   11 type  1   force =     0.00069372    0.00008367    0.00085118
     atom   12 type  1   force =    -0.00000115    0.00007212    0.00141113
     atom   13 type  2   force =     0.00169708   -0.00096671   -0.00811829
     atom   14 type  2   force =     0.00286304   -0.00018809   -0.00901628
     atom   15 type  2   force =     0.00100372   -0.00186510   -0.01071158
     atom   16 type  2   force =    -0.00080334   -0.00128873   -0.01082743
     atom   17 type  2   force =    -0.00078272    0.00060216    0.01361452
     atom   18 type  2   force =    -0.00219135    0.00185049    0.01485614
     atom   19 type  2   force =    -0.00087876    0.00040267    0.01660429
     atom   20 type  2   force =     0.00035195    0.00151385    0.01412015
     atom   21 type  2   force =     0.00135064   -0.00120537    0.01346589
     atom   22 type  2   force =    -0.00028310   -0.00022541    0.01356884
     atom   23 type  2   force =     0.00004071    0.00108749    0.01148062
     atom   24 type  2   force =     0.00272298    0.00077355    0.01445635
     atom   25 type  2   force =    -0.00055812    0.00088466   -0.00830380
     atom   26 type  2   force =    -0.00018649    0.00135792   -0.00536979
     atom   27 type  2   force =    -0.00070751    0.00077685   -0.00685204
     atom   28 type  2   force =    -0.00067271    0.00065583   -0.00581296
     atom   29 type  2   force =     0.00106762   -0.00012813   -0.00487097
     atom   30 type  2   force =     0.00135660   -0.00037451   -0.00704564
     atom   31 type  2   force =     0.00090127    0.00005558   -0.00510387
     atom   32 type  2   force =     0.00156622   -0.00086753   -0.00663601
     atom   33 type  2   force =    -0.00041783    0.00094625   -0.00487805
     atom   34 type  2   force =    -0.00003830    0.00018456   -0.00521524
     atom   35 type  2   force =    -0.00000437   -0.00007653   -0.00421876
     atom   36 type  2   force =    -0.00082606    0.00060720   -0.00449791

     Total force =     0.062467     Total SCF correction =     0.001834

     General routines

     Parallel routines

   This run was terminated on:  11: 5: 1  14Oct2021

   JOB DONE.