     Program PWSCF v.6.4 starts on  2Sep2021 at 21: 8: 3

     R & G space division:  proc/nbgrp/npool/nimage =      40
     Waiting for input...
     Reading input from standard input
Warning: card    &IONS ignored
Warning: card      ION_DYNAMICS = 'BFGS' ignored
Warning: card   / ignored
Warning: card    &CELL ignored
Warning: card      CELL_DYNAMICS = 'BFGS', ignored
Warning: card    / ignored

     Current dimensions of program PWSCF are:
     Max number of different atomic species (ntypx) = 10
     Max number of k-points (npk) =  40000
     Max angular momentum in pseudopotentials (lmaxx) =  3

     bravais-lattice index     =            0
     lattice parameter (alat)  =      12.2857  a.u.
     unit-cell volume          =    3381.4935 (a.u.)^3
     number of atoms/cell      =           24
     number of atomic types    =            2
     number of electrons       =       144.00
     number of Kohn-Sham states=           86
     kinetic-energy cutoff     =      45.0000  Ry
     charge density cutoff     =     360.0000  Ry
     convergence threshold     =      1.0E-06
     mixing beta               =       0.7000
     number of iterations used =            8  local-TF  mixing
     Exchange-correlation      = SLA PW GGX GGC ( 1  4  2  2 0 0)

     celldm(1)=  12.285729  celldm(2)=   0.000000  celldm(3)=   0.000000
     celldm(4)=   0.000000  celldm(5)=   0.000000  celldm(6)=   0.000000

     crystal axes: (cart. coord. in units of alat)
               a(1) = (   1.000000   0.000000   0.000000 )
               a(2) = (   0.503506   0.861692   0.000000 )
               a(3) = (   0.349423  -0.261997   2.116186 )

     reciprocal axes: (cart. coord. in units 2 pi/alat)
               b(1) = (  1.000000 -0.584322 -0.237462 )
               b(2) = (  0.000000  1.160508  0.143678 )
               b(3) = (  0.000000  0.000000  0.472548 )

     PseudoPot. # 1 for Mo read from file:
     ~/pseudo/Mo.pw91-n-van.UPF
     MD5 check sum: Not computed, couldn't open file
     Pseudo is Ultrasoft + core correction, Zval =  6.0
     Generated by new atomic code, or converted to UPF format
     Using radial grid of  965 points,  3 beta functions with:
                l(1) =   1
                l(2) =   2
                l(3) =   2
     Q(r) pseudized with  8 coefficients,  rinner =    1.000   1.000   1.000
                                                       1.200   1.200

     PseudoPot. # 2 for S  read from file:
     ~/pseudo/S.pw91-van_ak.UPF
     MD5 check sum: Not computed, couldn't open file
     Pseudo is Ultrasoft, Zval =  6.0
     Generated by new atomic code, or converted to UPF format
     Using radial grid of  811 points,  6 beta functions with:
                l(1) =   0
                l(2) =   0
                l(3) =   1
                l(4) =   1
                l(5) =   2
                l(6) =   2
     Q(r) pseudized with  8 coefficients,  rinner =    1.100   1.100   1.100
                                                       1.100   1.100

     atomic species   valence    mass     pseudopotential
        Mo             6.00    95.50000     Mo( 1.00)
        S              6.00    32.06500     S ( 1.00)

     No symmetry found

   Cartesian axes

     site n.     atom                  positions (alat units)
         1           Mo  tau(   1) = (   1.2874473  -0.2199212   1.5713392  )
         2           Mo  tau(   2) = (   1.5199738   0.2260813   1.5669303  )
         3           Mo  tau(   3) = (   1.0380386   0.2161262   1.5711412  )
         4           Mo  tau(   4) = (   0.7797738  -0.1972756   1.5778454  )
         5           Mo  tau(   5) = (   0.5621044   0.7976170   0.5449438  )
         6           Mo  tau(   6) = (   0.3239014   0.3862231   0.5368292  )
         7           Mo  tau(   7) = (   0.8194491   0.3777324   0.5570486  )
         8           Mo  tau(   8) = (   1.0698975   0.8075037   0.5146689  )
         9           S   tau(   9) = (   1.0396157   0.4971320   1.8144173  )
        10           S   tau(  10) = (   0.7694010   0.0951963   1.8157598  )
        11           S   tau(  11) = (   1.2797398   0.0627843   1.8169353  )
        12           S   tau(  12) = (   1.5307955   0.5077943   1.8130889  )
        13           S   tau(  13) = (   0.2971552   0.0943478   0.2980655  )
        14           S   tau(  14) = (   0.5844403   0.5137470   0.2974011  )
        15           S   tau(  15) = (   1.0633082   0.5063261   0.2930015  )
        16           S   tau(  16) = (   0.8281328   0.1004003   0.2955648  )
        17           S   tau(  17) = (   0.3226051   0.0891942   0.7643165  )
        18           S   tau(  18) = (   0.5650206   0.5189272   0.8009416  )
        19           S   tau(  19) = (   1.0786637   0.5374938   0.7794945  )
        20           S   tau(  20) = (   0.8012427   0.0779933   0.7809817  )
        21           S   tau(  21) = (   1.0491014   0.5083679   1.3272259  )
        22           S   tau(  22) = (   0.7809449   0.0932085   1.3321105  )
        23           S   tau(  23) = (   1.2822642   0.0659812   1.3257576  )
        24           S   tau(  24) = (   1.5294210   0.5227031   1.3283502  )

     number of k points=    10  Marzari-Vanderbilt smearing, width (Ry)=  0.0200
                       cart. coord. in units 2pi/alat
        k(    1) = (   0.0000000   0.0000000   0.0000000), wk =   0.1111111
        k(    2) = (   0.0000000   0.0000000  -0.2362742), wk =   0.1111111
        k(    3) = (   0.0000000   0.3868358   0.0478928), wk =   0.2222222
        k(    4) = (   0.0000000   0.3868358  -0.1883814), wk =   0.2222222
        k(    5) = (   0.3333333  -0.1947740  -0.0791541), wk =   0.2222222
        k(    6) = (   0.3333333  -0.1947740  -0.3154283), wk =   0.2222222
        k(    7) = (   0.3333333   0.1920618  -0.0312613), wk =   0.2222222
        k(    8) = (   0.3333333   0.1920618  -0.2675355), wk =   0.2222222
        k(    9) = (   0.3333333  -0.5816099  -0.1270469), wk =   0.2222222
        k(   10) = (   0.3333333  -0.5816099  -0.3633211), wk =   0.2222222

     Initial potential from superposition of free atoms

     starting charge  143.98738, renormalised to  144.00000
     Starting wfcs are  136 randomized atomic wfcs

     Self-consistent Calculation

     iteration #  1     ecut=    45.00 Ry     beta= 0.70
     Davidson diagonalization with overlap
     ethr =  1.00E-02,  avg # of iterations =  2.0

     total energy              =    -562.71031155 Ry
     Harris-Foulkes estimate   =    -564.53916812 Ry
     estimated scf accuracy    <       4.70209718 Ry

[...]

     total energy              =    -563.63016414 Ry
     Harris-Foulkes estimate   =    -563.63016471 Ry
     estimated scf accuracy    <       0.00000200 Ry

     iteration # 15     ecut=    45.00 Ry     beta= 0.70
     Davidson diagonalization with overlap
     ethr =  1.39E-09,  avg # of iterations =  2.7

     End of self-consistent calculation

          k = 0.0000 0.0000 0.0000 ( 17203 PWs)   bands (ev):

    -7.7941  -7.6956  -6.6655  -6.5187  -6.1620  -6.0789  -6.0631  -6.0399
    -6.0295  -6.0163  -5.8379  -5.7820  -5.7766  -5.7385  -5.7163  -5.6987
     0.5573   0.5912   0.6327   0.6453   0.6531   0.6679   0.6933   0.9752
     1.4719   1.5182   1.5388   1.5927   1.6066   1.6402   2.1716   2.1818
     2.2148   2.3011   2.3237   2.3548   3.0623   3.0885   3.0948   3.1325
     3.1473   3.1900   3.5798   3.5908   3.6425   3.6831   3.9105   4.0296
     4.1699   4.2974   4.4746   4.5517   4.6244   4.6830   4.7018   4.7213
     4.7555   5.0521   5.1027   5.1206   5.1344   5.1820   5.2637   5.3165
     5.4374   5.5159   5.5658   5.6579   5.6686   5.7028   5.9179   6.5318
     8.0119   8.0512   8.0588   8.1166   8.1693   8.1871   8.5188   8.5206
     8.5685   8.6041   8.6200   8.6298   8.7965   8.8076

[...]

          k = 0.3333-0.5816-0.3633 ( 17260 PWs)   bands (ev):

    -6.9043  -6.8911  -6.8102  -6.7889  -6.7513  -6.7400  -6.1747  -6.1346
    -6.0963  -6.0833  -6.0543  -6.0262  -5.8443  -5.7860  -5.6116  -5.5472
     1.0212   1.0493   1.3335   1.3567   1.3951   1.4763   1.5170   1.5368
     1.7252   1.7689   2.1394   2.1714   2.2126   2.3246   2.3702   2.4247
     2.4607   2.5061   2.5417   2.6106   2.6569   2.6703   2.7180   2.7604
     2.7764   2.8235   2.9783   3.0740   3.1560   3.2223   3.2565   3.3260
     3.4047   3.5371   3.8911   4.1313   4.2367   4.2637   4.2873   4.3014
     4.3269   4.3962   4.8960   4.9836   5.0492   5.1699   5.2117   5.2647
     5.3657   5.4062   5.4529   5.4823   5.5158   5.5350   6.1342   6.2121
     7.5495   7.6527   7.8222   7.8525   7.8992   7.9411   8.0498   8.1008
     8.3382   8.3786   8.4244   8.4491   8.4863   8.4958

     the Fermi energy is     6.3824 ev

!    total energy              =    -563.63016438 Ry
     Harris-Foulkes estimate   =    -563.63016445 Ry
     estimated scf accuracy    <       0.00000008 Ry

     The total energy is the sum of the following terms:

     one-electron contribution =     -58.71571835 Ry
     hartree contribution      =     110.84540821 Ry
     xc contribution           =    -222.47761282 Ry
     ewald contribution        =    -393.29386869 Ry
     smearing contrib. (-TS)   =       0.01162727 Ry

     convergence has been achieved in  15 iterations

     Forces acting on atoms (cartesian axes, Ry/au):

     atom    1 type  1   force =    -0.01420018    0.01344039   -0.00421913
     atom    2 type  1   force =     0.02414943   -0.00225983    0.01155948
     atom    3 type  1   force =    -0.01322357    0.01153895    0.00207349
     atom    4 type  1   force =     0.00298416   -0.01753876   -0.01472840
     atom    5 type  1   force =     0.02330944    0.03210415   -0.00988504
     atom    6 type  1   force =    -0.01546859   -0.03129804    0.00385961
     atom    7 type  1   force =     0.00624322   -0.00585610   -0.03185206
     atom    8 type  1   force =    -0.01182922    0.00738488    0.04412258
     atom    9 type  2   force =     0.00307171    0.01808384   -0.00123466
     atom   10 type  2   force =     0.01474040   -0.01477537   -0.01248815
     atom   11 type  2   force =     0.00631675    0.01375547   -0.01840860
     atom   12 type  2   force =    -0.00003755    0.00958698   -0.00376270
     atom   13 type  2   force =     0.02333651   -0.00634984   -0.00894446
     atom   14 type  2   force =    -0.01959945    0.00931269    0.02099677
     atom   15 type  2   force =     0.00833189    0.02135903    0.00877948
     atom   16 type  2   force =    -0.01718717   -0.01614046    0.01089851
     atom   17 type  2   force =    -0.00754930   -0.00241256    0.00896762
     atom   18 type  2   force =     0.00829517   -0.00104574   -0.03403765
     atom   19 type  2   force =    -0.01136909   -0.01509323   -0.01583949
     atom   20 type  2   force =     0.01496268    0.00925648   -0.01118689
     atom   21 type  2   force =    -0.01300148   -0.00514236    0.02217713
     atom   22 type  2   force =    -0.00889829   -0.01660126    0.00383744
     atom   23 type  2   force =    -0.00208475    0.00566746    0.01075373
     atom   24 type  2   force =    -0.00129272   -0.01697677    0.01856140

     Total force =     0.129683     Total SCF correction =     0.000819

     General routines

     Parallel routines

   This run was terminated on:  21: 9:14   2Sep2021

   JOB DONE.