     Program PWSCF v.6.4 starts on  8Sep2021 at 11:58:53

     R & G space division:  proc/nbgrp/npool/nimage =      40
     Waiting for input...
     Reading input from standard input
Warning: card    &IONS ignored
Warning: card      ION_DYNAMICS = 'BFGS' ignored
Warning: card   / ignored
Warning: card    &CELL ignored
Warning: card      CELL_DYNAMICS = 'BFGS', ignored
Warning: card    / ignored

     Current dimensions of program PWSCF are:
     Max number of different atomic species (ntypx) = 10
     Max number of k-points (npk) =  40000
     Max angular momentum in pseudopotentials (lmaxx) =  3

     bravais-lattice index     =            0
     lattice parameter (alat)  =      12.4553  a.u.
     unit-cell volume          =    3307.6057 (a.u.)^3
     number of atoms/cell      =           24
     number of atomic types    =            2
     number of electrons       =       144.00
     number of Kohn-Sham states=           86
     kinetic-energy cutoff     =      45.0000  Ry
     charge density cutoff     =     360.0000  Ry
     convergence threshold     =      1.0E-06
     mixing beta               =       0.7000
     number of iterations used =            8  local-TF  mixing
     Exchange-correlation      = SLA PW GGX GGC ( 1  4  2  2 0 0)

     celldm(1)=  12.455288  celldm(2)=   0.000000  celldm(3)=   0.000000
     celldm(4)=   0.000000  celldm(5)=   0.000000  celldm(6)=   0.000000

     crystal axes: (cart. coord. in units of alat)
               a(1) = (   0.999657   0.013526  -0.022405 )
               a(2) = (  -0.241585   0.420478   0.013335 )
               a(3) = (  -0.401974  -0.695629   4.037164 )

     reciprocal axes: (cart. coord. in units 2 pi/alat)
               b(1) = (  0.997089  0.566632  0.196913 )
               b(2) = ( -0.022794  2.352366  0.403058 )
               b(3) = (  0.005609 -0.004625  0.247460 )

     PseudoPot. # 1 for Mo read from file:
     ~/pseudo/Mo.pw91-n-van.UPF
     MD5 check sum: Not computed, couldn't open file
     Pseudo is Ultrasoft + core correction, Zval =  6.0
     Generated by new atomic code, or converted to UPF format
     Using radial grid of  965 points,  3 beta functions with:
                l(1) =   1
                l(2) =   2
                l(3) =   2
     Q(r) pseudized with  8 coefficients,  rinner =    1.000   1.000   1.000
                                                       1.200   1.200

     PseudoPot. # 2 for S  read from file:
     ~/pseudo/S.pw91-van_ak.UPF
     MD5 check sum: Not computed, couldn't open file
     Pseudo is Ultrasoft, Zval =  6.0
     Generated by new atomic code, or converted to UPF format
     Using radial grid of  811 points,  6 beta functions with:
                l(1) =   0
                l(2) =   0
                l(3) =   1
                l(4) =   1
                l(5) =   2
                l(6) =   2
     Q(r) pseudized with  8 coefficients,  rinner =    1.100   1.100   1.100
                                                       1.100   1.100

     atomic species   valence    mass     pseudopotential
        Mo             6.00    95.50000     Mo( 1.00)
        S              6.00    32.06500     S ( 1.00)

     No symmetry found

   Cartesian axes

     site n.     atom                  positions (alat units)
         1           Mo  tau(   1) = (  -0.1113736  -0.1981328   1.4824927  )
         2           Mo  tau(   2) = (  -0.3433190  -0.6228331   3.5058328  )
         3           Mo  tau(   3) = (   0.4676193  -0.1507365   1.4885354  )
         4           Mo  tau(   4) = (   0.0765881  -0.6657647   3.6595089  )
         5           Mo  tau(   5) = (  -0.0555696  -0.0795828   0.5147799  )
         6           Mo  tau(   6) = (  -0.3053456  -0.4234384   2.5035248  )
         7           Mo  tau(   7) = (   0.4399719  -0.0742404   0.5021063  )
         8           Mo  tau(   8) = (   0.1946469  -0.4178608   2.4915734  )
         9           S   tau(   9) = (   0.1865064  -0.3211901   1.6937183  )
        10           S   tau(  10) = (  -0.2011737  -0.5543386   3.8635347  )
        11           S   tau(  11) = (   0.6776097  -0.3170412   1.7372365  )
        12           S   tau(  12) = (   0.3741603  -0.4967259   3.6882310  )
        13           S   tau(  13) = (  -0.0560543   0.2071086   0.2788307  )
        14           S   tau(  14) = (  -0.3077669  -0.1370054   2.2725059  )
        15           S   tau(  15) = (   0.4492697   0.2094743   0.2708761  )
        16           S   tau(  16) = (   0.1930257  -0.1304056   2.2598962  )
        17           S   tau(  17) = (  -0.0486598   0.1968772   0.7554085  )
        18           S   tau(  18) = (  -0.2894435  -0.1432415   2.7459119  )
        19           S   tau(  19) = (   0.4519066   0.2066341   0.7478111  )
        20           S   tau(  20) = (   0.2102863  -0.1379305   2.7320442  )
        21           S   tau(  21) = (   0.1711019  -0.0294522   1.2756271  )
        22           S   tau(  22) = (  -0.0506482  -0.4499498   3.3907409  )
        23           S   tau(  23) = (   0.6796148  -0.0221602   1.2109624  )
        24           S   tau(  24) = (   0.4731703  -0.4222619   3.2250180  )

     number of k points=    10  Marzari-Vanderbilt smearing, width (Ry)=  0.0200
                       cart. coord. in units 2pi/alat
        k(    1) = (   0.0000000   0.0000000   0.0000000), wk =   0.1111111
        k(    2) = (  -0.0037991   0.3920610   0.0671763), wk =   0.2222222
        k(    3) = (  -0.0075981   0.7841220   0.1343527), wk =   0.2222222
        k(    4) = (   0.0113972  -1.1761831  -0.2015290), wk =   0.1111111
        k(    5) = (   0.3323631   0.1888773   0.0656376), wk =   0.2222222
        k(    6) = (   0.3285640   0.5809384   0.1328139), wk =   0.2222222
        k(    7) = (   0.3247650   0.9729994   0.1999903), wk =   0.2222222
        k(    8) = (   0.3437603  -0.9873057  -0.1358914), wk =   0.2222222
        k(    9) = (   0.3399612  -0.5952447  -0.0687151), wk =   0.2222222
        k(   10) = (   0.3361622  -0.2031837  -0.0015387), wk =   0.2222222

     Initial potential from superposition of free atoms

     starting charge  143.98738, renormalised to  144.00000
     Starting wfcs are  136 randomized atomic wfcs

     Self-consistent Calculation

     iteration #  1     ecut=    45.00 Ry     beta= 0.70
     Davidson diagonalization with overlap
     ethr =  1.00E-02,  avg # of iterations =  2.0

     total energy              =    -562.46460458 Ry
     Harris-Foulkes estimate   =    -564.33683884 Ry
     estimated scf accuracy    <       5.25129183 Ry

[...]

     iteration # 10     ecut=    45.00 Ry     beta= 0.70
     Davidson diagonalization with overlap
     c_bands:  1 eigenvalues not converged
     ethr =  8.35E-07,  avg # of iterations =  4.5

[...]

     total energy              =    -563.41189535 Ry
     Harris-Foulkes estimate   =    -563.41189573 Ry
     estimated scf accuracy    <       0.00000167 Ry

     iteration # 20     ecut=    45.00 Ry     beta= 0.70
     Davidson diagonalization with overlap
     ethr =  1.16E-09,  avg # of iterations =  3.1

     End of self-consistent calculation

          k = 0.0000 0.0000 0.0000 ( 16951 PWs)   bands (ev):

    -7.8939  -7.6279  -7.2943  -7.1108  -6.6141  -6.4726  -6.2225  -6.1858
    -6.0953  -6.0482  -5.7841  -5.7589  -5.4650  -5.4440  -5.3936  -5.2976
     0.6465   0.7360   0.8292   0.9668   1.0641   1.1507   1.3547   1.6185
     1.6333   1.7921   2.0906   2.1451   2.3196   2.3573   2.4820   2.6475
     3.1659   3.2644   3.3889   3.4449   3.5866   3.7219   3.7275   3.7454
     3.7499   3.7581   3.8352   3.9428   4.0936   4.1340   4.1969   4.3062
     4.5046   4.5750   4.6373   4.7966   4.8213   4.8764   4.9797   5.1547
     5.2062   5.3011   5.4143   5.4997   5.5284   5.6350   5.7542   5.8444
     5.8732   5.9939   6.0432   6.3098   6.5887   6.6823   6.7709   6.9349
     7.3027   7.4592   7.6107   7.6701   8.0739   8.1545   8.5147   8.5264
     8.6859   8.7297   8.7692   8.7994   8.8713   8.9423

          k =-0.0038 0.3921 0.0672 ( 16908 PWs)   bands (ev):

[...]

          k =-0.0076 0.7841 0.1344 ( 16836 PWs)   bands (ev):

[...]

          k = 0.3362-0.2032-0.0015 ( 16911 PWs)   bands (ev):

    -7.5490  -7.2788  -6.9428  -6.7415  -6.5185  -6.3102  -6.1365  -6.0913
    -6.0397  -5.8889  -5.7478  -5.7365  -5.4117  -5.3795  -5.3156  -5.2846
     0.9689   1.0921   1.1695   1.4054   1.4652   1.5250   1.5848   1.6399
     1.8471   1.9623   1.9970   2.0447   2.1079   2.4394   2.6407   2.7218
     2.8232   2.9330   2.9965   3.2092   3.2960   3.3113   3.3583   3.4790
     3.5874   3.6389   3.6909   3.8712   3.9209   3.9409   4.0152   4.0596
     4.1328   4.2540   4.3054   4.3526   4.3814   4.4653   4.5025   4.6586
     4.6898   4.8074   4.9721   5.2254   5.3955   5.4800   5.6625   5.7443
     5.8107   5.9319   6.0900   6.1358   6.2052   6.2484   6.4147   6.5417
     7.1466   7.2898   7.7796   7.9537   8.0538   8.1724   8.4481   8.4992
     8.5397   8.5742   8.6619   8.6980   8.8778   8.9704

     the Fermi energy is     6.8809 ev

!    total energy              =    -563.41189497 Ry
     Harris-Foulkes estimate   =    -563.41189552 Ry
     estimated scf accuracy    <       0.00000065 Ry

     The total energy is the sum of the following terms:

     one-electron contribution =     -38.25203550 Ry
     hartree contribution      =     102.07449765 Ry
     xc contribution           =    -222.58554659 Ry
     ewald contribution        =    -404.65213702 Ry
     smearing contrib. (-TS)   =       0.00332649 Ry

     convergence has been achieved in  20 iterations

     Forces acting on atoms (cartesian axes, Ry/au):

     atom    1 type  1   force =     0.00877315   -0.00358018   -0.00099899
     atom    2 type  1   force =    -0.00839932    0.00436733   -0.00006968
     atom    3 type  1   force =    -0.00543739   -0.00279764   -0.00305655
     atom    4 type  1   force =     0.00410861   -0.00118203   -0.00084862
     atom    5 type  1   force =    -0.01625624   -0.00894439   -0.01103772
     atom    6 type  1   force =    -0.00131849   -0.00155325    0.00216326
     atom    7 type  1   force =     0.01479296   -0.00694146    0.00376550
     atom    8 type  1   force =    -0.00169554    0.00120224   -0.00271117
     atom    9 type  2   force =    -0.00185061    0.00351973   -0.01500041
     atom   10 type  2   force =     0.00107841    0.00556365   -0.00839201
     atom   11 type  2   force =     0.00376760    0.00184199   -0.00242134
     atom   12 type  2   force =    -0.00349233   -0.00609833    0.00425552
     atom   13 type  2   force =    -0.00049305    0.00111752    0.01224825
     atom   14 type  2   force =     0.00900848    0.00423204   -0.00206346
     atom   15 type  2   force =    -0.01081998    0.01285659    0.00719128
     atom   16 type  2   force =     0.00834760    0.00171256   -0.00079615
     atom   17 type  2   force =     0.01124150    0.00558758    0.00691090
     atom   18 type  2   force =    -0.00747561   -0.00235672   -0.00064108
     atom   19 type  2   force =     0.00268140   -0.00449433   -0.01729297
     atom   20 type  2   force =    -0.00706811   -0.00294395    0.00177974
     atom   21 type  2   force =     0.00041381   -0.00360897    0.01872591
     atom   22 type  2   force =     0.00648268    0.00287043   -0.00598792
     atom   23 type  2   force =    -0.00602598    0.00493087    0.00674078
     atom   24 type  2   force =    -0.00036356   -0.00530128    0.00753693

     Total force =     0.058369     Total SCF correction =     0.001996

     General routines

     Parallel routines

   This run was terminated on:  12: 0:22   8Sep2021

   JOB DONE.