     Program PWSCF v.6.4 starts on 24Dec2021 at  0:36:50

     R & G space division:  proc/nbgrp/npool/nimage =      40
     Waiting for input...
     Reading input from standard input
Warning: card    &IONS ignored
Warning: card      ION_DYNAMICS = 'BFGS' ignored
Warning: card   / ignored
Warning: card    &CELL ignored
Warning: card      CELL_DYNAMICS = 'BFGS', ignored
Warning: card    / ignored

     Current dimensions of program PWSCF are:
     Max number of different atomic species (ntypx) = 10
     Max number of k-points (npk) =  40000
     Max angular momentum in pseudopotentials (lmaxx) =  3

     bravais-lattice index     =            0
     lattice parameter (alat)  =      17.5338  a.u.
     unit-cell volume          =   21666.6466 (a.u.)^3
     number of atoms/cell      =           27
     number of atomic types    =            2
     number of electrons       =       162.00
     number of Kohn-Sham states=           97
     kinetic-energy cutoff     =      45.0000  Ry
     charge density cutoff     =     360.0000  Ry
     convergence threshold     =      1.0E-06
     mixing beta               =       0.7000
     number of iterations used =            8  local-TF  mixing
     Exchange-correlation      = SLA PW GGX GGC ( 1  4  2  2 0 0)

     celldm(1)=  17.533830  celldm(2)=   0.000000  celldm(3)=   0.000000
     celldm(4)=   0.000000  celldm(5)=   0.000000  celldm(6)=   0.000000

     crystal axes: (cart. coord. in units of alat)
               a(1) = (   1.000000   0.000000   0.000000 )
               a(2) = (  -0.464527   1.171427   0.000000 )
               a(3) = (  -0.485802  -0.175527   3.431199 )

     reciprocal axes: (cart. coord. in units 2 pi/alat)
               b(1) = (  1.000000  0.396548  0.161870 )
               b(2) = (  0.000000  0.853659  0.043670 )
               b(3) = (  0.000000  0.000000  0.291443 )

     PseudoPot. # 1 for Mo read from file:
     ~/pseudo/Mo.pw91-n-van.UPF
     MD5 check sum: Not computed, couldn't open file
     Pseudo is Ultrasoft + core correction, Zval =  6.0
     Generated by new atomic code, or converted to UPF format
     Using radial grid of  965 points,  3 beta functions with:
                l(1) =   1
                l(2) =   2
                l(3) =   2
     Q(r) pseudized with  8 coefficients,  rinner =    1.000   1.000   1.000
                                                       1.200   1.200

     PseudoPot. # 2 for S  read from file:
     ~/pseudo/S.pw91-van_ak.UPF
     MD5 check sum: Not computed, couldn't open file
     Pseudo is Ultrasoft, Zval =  6.0
     Generated by new atomic code, or converted to UPF format
     Using radial grid of  811 points,  6 beta functions with:
                l(1) =   0
                l(2) =   0
                l(3) =   1
                l(4) =   1
                l(5) =   2
                l(6) =   2
     Q(r) pseudized with  8 coefficients,  rinner =    1.100   1.100   1.100
                                                       1.100   1.100

     atomic species   valence    mass     pseudopotential
        Mo             6.00    95.50000     Mo( 1.00)
        S              6.00    32.06500     S ( 1.00)

     No symmetry found

   Cartesian axes

     site n.     atom                  positions (alat units)
         1           Mo  tau(   1) = (   0.5242052   0.0097818   1.7532416  )
         2           Mo  tau(   2) = (  -0.2346234   0.2674835   1.7953707  )
         3           Mo  tau(   3) = (   0.2726068   0.1972204   1.8068404  )
         4           Mo  tau(   4) = (  -0.5003842   0.9798020   2.0129102  )
         5           Mo  tau(   5) = (  -0.2292421   1.0575647   1.8526040  )
         6           Mo  tau(   6) = (   0.0045252   0.0939496   1.9276093  )
         7           Mo  tau(   7) = (  -0.0016533   0.8421800   1.7666235  )
         8           Mo  tau(   8) = (  -0.2387216   0.6735867   1.8356200  )
         9           Mo  tau(   9) = (  -0.0074618   0.4677515   1.7787367  )
        10           S   tau(  10) = (   0.0239675   1.0225616   1.9528701  )
        11           S   tau(  11) = (   0.1712398   0.9730534   1.6323747  )
        12           S   tau(  12) = (   0.3172747   0.8208749   2.0620310  )
        13           S   tau(  13) = (  -0.4936584   1.0573873   1.7802184  )
        14           S   tau(  14) = (   0.2535426   0.4433637   1.7288710  )
        15           S   tau(  15) = (  -0.4769498   0.6099023   1.9040636  )
        16           S   tau(  16) = (  -0.0838632   0.3300641   1.9999724  )
        17           S   tau(  17) = (  -0.0091450   0.6615530   1.9514690  )
        18           S   tau(  18) = (   0.5234256   0.2265370   1.8995619  )
        19           S   tau(  19) = (  -0.3013426   0.1201053   1.5950855  )
        20           S   tau(  20) = (   0.0176716   0.2132871   1.6883211  )
        21           S   tau(  21) = (  -0.2304842   0.8558604   1.6664809  )
        22           S   tau(  22) = (  -0.0774779   0.0024187   2.1590460  )
        23           S   tau(  23) = (   0.2340418   0.0900965   2.0355589  )
        24           S   tau(  24) = (   0.0413475   0.6483983   1.5839495  )
        25           S   tau(  25) = (   0.3066609   0.0226829   1.6287097  )
        26           S   tau(  26) = (  -0.2830316   0.8581897   2.0330233  )
        27           S   tau(  27) = (  -0.2401611   0.4813015   1.6606236  )

     number of k points=     4  Marzari-Vanderbilt smearing, width (Ry)=  0.0200
                       cart. coord. in units 2pi/alat
        k(    1) = (   0.0000000   0.0000000   0.0000000), wk =   0.5000000
        k(    2) = (   0.0000000  -0.4268297  -0.0218350), wk =   0.5000000
        k(    3) = (  -0.5000000  -0.1982740  -0.0809348), wk =   0.5000000
        k(    4) = (  -0.5000000  -0.6251037  -0.1027698), wk =   0.5000000

     Initial potential from superposition of free atoms

     starting charge  161.98581, renormalised to  162.00000

     negative rho (up, down):  3.739E-03 0.000E+00
     Starting wfcs are  153 randomized atomic wfcs

     Self-consistent Calculation

     iteration #  1     ecut=    45.00 Ry     beta= 0.70
     Davidson diagonalization with overlap
     ethr =  1.00E-02,  avg # of iterations =  2.0

     negative rho (up, down):  2.211E-03 0.000E+00

     total energy              =    -631.77933028 Ry
     Harris-Foulkes estimate   =    -634.30273078 Ry
     estimated scf accuracy    <       7.07183311 Ry

[...]

     total energy              =    -633.15436689 Ry
     Harris-Foulkes estimate   =    -633.15436793 Ry
     estimated scf accuracy    <       0.00000121 Ry

     iteration # 19     ecut=    45.00 Ry     beta= 0.70
     Davidson diagonalization with overlap
     ethr =  7.47E-10,  avg # of iterations =  4.8

[...]

     End of self-consistent calculation

          k = 0.0000 0.0000 0.0000 (110459 PWs)   bands (ev):

   -17.3530 -16.8122 -16.7694 -16.6397 -16.6168 -16.5346 -16.4113 -16.3397
   -16.1941 -16.0992 -16.0150 -15.7921 -15.7030 -15.5631 -15.3404 -15.2279
   -14.9904 -14.8098  -9.2409  -9.0861  -8.9875  -8.8188  -8.5911  -8.4309
    -8.3442  -8.2479  -8.2065  -8.1571  -8.0775  -8.0343  -7.8763  -7.8506
    -7.7395  -7.7028  -7.6715  -7.6455  -7.5487  -7.5007  -7.4117  -7.3797
    -7.2365  -7.1208  -7.0953  -7.0040  -6.9650  -6.9038  -6.7978  -6.6975
    -6.6405  -6.6069  -6.4542  -6.4273  -6.3762  -6.3550  -6.2280  -6.1410
    -6.0095  -5.9603  -5.9326  -5.8177  -5.6830  -5.5250  -5.4694  -5.3742
    -5.3171  -5.2069  -5.1049  -5.0452  -4.9855  -4.7976  -4.7035  -4.6478
    -4.4893  -4.3616  -4.1971  -3.9652  -3.9142  -3.7426  -3.7048  -3.5512
    -3.4971  -3.4083  -3.3041  -3.1391  -3.0515  -2.9982  -2.8867  -2.6669
    -2.5849  -2.4660  -2.2881  -2.2000  -2.0837  -1.9807  -1.8544  -1.8433
    -1.6780

          k = 0.0000-0.4268-0.0218 (110480 PWs)   bands (ev):

[...]

          k =-0.5000-0.1983-0.0809 (110478 PWs)   bands (ev):

[...]

          k =-0.5000-0.6251-0.1028 (110434 PWs)   bands (ev):

   -17.2123 -17.0955 -16.6954 -16.6248 -16.5582 -16.4963 -16.4137 -16.3065
   -16.2478 -16.1760 -15.9867 -15.8104 -15.6874 -15.5565 -15.3413 -15.2178
   -14.9919 -14.8018  -9.0130  -8.9153  -8.8236  -8.7891  -8.7031  -8.6368
    -8.4851  -8.2670  -8.2386  -8.1872  -8.0976  -8.0066  -7.9454  -7.9192
    -7.7858  -7.7215  -7.6907  -7.5891  -7.4753  -7.4483  -7.3333  -7.2910
    -7.1923  -7.1470  -7.1439  -7.0127  -6.9590  -6.9174  -6.8477  -6.7966
    -6.7050  -6.5816  -6.5545  -6.4150  -6.3611  -6.3510  -6.2545  -6.2358
    -6.1838  -5.9930  -5.8938  -5.8342  -5.6816  -5.4845  -5.3998  -5.3259
    -5.2942  -5.1594  -5.0946  -4.9574  -4.9209  -4.8093  -4.7068  -4.6764
    -4.4786  -4.3799  -4.1542  -4.0247  -3.8752  -3.8608  -3.6984  -3.6387
    -3.4955  -3.4002  -3.3225  -3.1619  -3.1537  -2.8884  -2.6844  -2.5642
    -2.4600  -2.3841  -2.2762  -2.1442  -2.0679  -2.0096  -1.8547  -1.7864
    -1.6419

     the Fermi energy is    -3.4358 ev

!    total energy              =    -633.15436520 Ry
     Harris-Foulkes estimate   =    -633.15436709 Ry
     estimated scf accuracy    <       0.00000041 Ry

     The total energy is the sum of the following terms:

     one-electron contribution =   -6470.86118554 Ry
     hartree contribution      =    3267.82271334 Ry
     xc contribution           =    -249.37433861 Ry
     ewald contribution        =    2819.26061796 Ry
     smearing contrib. (-TS)   =      -0.00217235 Ry

     convergence has been achieved in  19 iterations

     negative rho (up, down):  5.101E-03 0.000E+00

     Forces acting on atoms (cartesian axes, Ry/au):

     atom    1 type  1   force =     0.00013242   -0.02342385   -0.01644366
     atom    2 type  1   force =    -0.06400523   -0.00987178   -0.02045486
     atom    3 type  1   force =    -0.01238258    0.04546380   -0.00745172
     atom    4 type  1   force =    -0.05541075   -0.06655818    0.05591741
     atom    5 type  1   force =     0.03018380   -0.01997663    0.00204823
     atom    6 type  1   force =     0.00692957   -0.01152194    0.02080540
     atom    7 type  1   force =     0.03147109    0.00774254   -0.04713374
     atom    8 type  1   force =    -0.10290544   -0.06731122    0.05118364
     atom    9 type  1   force =     0.00409504    0.00861540   -0.03739378
     atom   10 type  2   force =    -0.00931573    0.01186038    0.01264594
     atom   11 type  2   force =    -0.01363785    0.01287504    0.00396890
     atom   12 type  2   force =     0.05109629    0.03809728   -0.02575038
     atom   13 type  2   force =     0.00835966    0.00871302   -0.03779895
     atom   14 type  2   force =     0.00686606   -0.01225757    0.02288217
     atom   15 type  2   force =     0.04846031    0.01195524   -0.01672405
     atom   16 type  2   force =     0.00403755   -0.00825634    0.01053335
     atom   17 type  2   force =     0.00624001    0.00464799    0.02439588
     atom   18 type  2   force =     0.02022726    0.00736716    0.00253006
     atom   19 type  2   force =     0.01235897    0.00453468    0.02826490
     atom   20 type  2   force =     0.01617168    0.00853725    0.00010564
     atom   21 type  2   force =    -0.00715382    0.02408188   -0.02606630
     atom   22 type  2   force =     0.00160986   -0.00667343   -0.00929832
     atom   23 type  2   force =     0.00591310   -0.00294588   -0.01609103
     atom   24 type  2   force =     0.01263330    0.01039683    0.02689377
     atom   25 type  2   force =    -0.01580371   -0.01642123   -0.00828278
     atom   26 type  2   force =     0.00177579    0.03223262    0.02455349
     atom   27 type  2   force =     0.01205335    0.00809694   -0.01783922

     Total force =     0.247867     Total SCF correction =     0.001083

     General routines

     Parallel routines

   This run was terminated on:   0:45:31  24Dec2021

   JOB DONE.