     Program PWSCF v.6.4 starts on 18Oct2021 at 17:14:25

     R & G space division:  proc/nbgrp/npool/nimage =      40
     Waiting for input...
     Reading input from standard input
Warning: card    &IONS ignored
Warning: card      ION_DYNAMICS = 'BFGS' ignored
Warning: card   / ignored
Warning: card    &CELL ignored
Warning: card      CELL_DYNAMICS = 'BFGS', ignored
Warning: card    / ignored

     Current dimensions of program PWSCF are:
     Max number of different atomic species (ntypx) = 10
     Max number of k-points (npk) =  40000
     Max angular momentum in pseudopotentials (lmaxx) =  3

     bravais-lattice index     =            0
     lattice parameter (alat)  =      12.0818  a.u.
     unit-cell volume          =    8472.4552 (a.u.)^3
     number of atoms/cell      =           36
     number of atomic types    =            2
     number of electrons       =       216.00
     number of Kohn-Sham states=          130
     kinetic-energy cutoff     =      45.0000  Ry
     charge density cutoff     =     360.0000  Ry
     convergence threshold     =      1.0E-06
     mixing beta               =       0.7000
     number of iterations used =            8  local-TF  mixing
     Exchange-correlation      = SLA PW GGX GGC ( 1  4  2  2 0 0)

     celldm(1)=  12.081796  celldm(2)=   0.000000  celldm(3)=   0.000000
     celldm(4)=   0.000000  celldm(5)=   0.000000  celldm(6)=   0.000000

     crystal axes: (cart. coord. in units of alat)
               a(1) = (   0.999456  -0.031575   0.009482 )
               a(2) = (   0.529476   0.849741   0.011179 )
               a(3) = (  -0.019327  -0.378786   5.544631 )

     reciprocal axes: (cart. coord. in units 2 pi/alat)
               b(1) = (  0.981600 -0.611134 -0.038329 )
               b(2) = (  0.035695  1.153549  0.078930 )
               b(3) = ( -0.001751 -0.001281  0.180261 )

     PseudoPot. # 1 for Mo read from file:
     ~/pseudo/Mo.pw91-n-van.UPF
     MD5 check sum: Not computed, couldn't open file
     Pseudo is Ultrasoft + core correction, Zval =  6.0
     Generated by new atomic code, or converted to UPF format
     Using radial grid of  965 points,  3 beta functions with:
                l(1) =   1
                l(2) =   2
                l(3) =   2
     Q(r) pseudized with  8 coefficients,  rinner =    1.000   1.000   1.000
                                                       1.200   1.200

     PseudoPot. # 2 for S  read from file:
     ~/pseudo/S.pw91-van_ak.UPF
     MD5 check sum: Not computed, couldn't open file
     Pseudo is Ultrasoft, Zval =  6.0
     Generated by new atomic code, or converted to UPF format
     Using radial grid of  811 points,  6 beta functions with:
                l(1) =   0
                l(2) =   0
                l(3) =   1
                l(4) =   1
                l(5) =   2
                l(6) =   2
     Q(r) pseudized with  8 coefficients,  rinner =    1.100   1.100   1.100
                                                       1.100   1.100

     atomic species   valence    mass     pseudopotential
        Mo             6.00    95.50000     Mo( 1.00)
        S              6.00    32.06500     S ( 1.00)

     No symmetry found

   Cartesian axes

     site n.     atom                  positions (alat units)
         1           Mo  tau(   1) = (   0.2583601  -0.0051732   0.1613383  )
         2           Mo  tau(   2) = (   0.3645952  -0.0659350   5.3359358  )
         3           Mo  tau(   3) = (   1.0524643   0.3542565   0.1595281  )
         4           Mo  tau(   4) = (   1.1414181   0.3462357   5.3888256  )
         5           Mo  tau(   5) = (   0.5421517   0.2910816   1.2943796  )
         6           Mo  tau(   6) = (   0.8035019   0.7177441   1.2985136  )
         7           Mo  tau(   7) = (   1.2948845   0.7108974   1.3050912  )
         8           Mo  tau(   8) = (   1.0262921   0.2809594   1.2987248  )
         9           Mo  tau(   9) = (   0.2664664   0.0984320   4.2876468  )
        10           Mo  tau(  10) = (   0.5825478   0.5506815   4.2858062  )
        11           Mo  tau(  11) = (   1.0302009   0.5082498   4.2980719  )
        12           Mo  tau(  12) = (   0.8165065   0.1105475   4.2864169  )
        13           S   tau(  13) = (   0.7811244   0.4312449   5.3307792  )
        14           S   tau(  14) = (   1.2711590   0.3885002   5.0756730  )
        15           S   tau(  15) = (   1.0039668  -0.0011131   5.3314714  )
        16           S   tau(  16) = (   0.5341754   0.0216750   5.0543557  )
        17           S   tau(  17) = (   1.0468784   0.5691853   1.0483097  )
        18           S   tau(  18) = (   0.7815729   0.1442082   1.0408388  )
        19           S   tau(  19) = (   0.2818159   0.1614564   1.0412652  )
        20           S   tau(  20) = (   0.5461637   0.5854288   1.0471517  )
        21           S   tau(  21) = (   0.8028581   0.3852732   4.0254983  )
        22           S   tau(  22) = (   0.5377529  -0.0392832   4.0456392  )
        23           S   tau(  23) = (   1.0368510  -0.0547087   4.0252138  )
        24           S   tau(  24) = (   1.3016460   0.3697009   4.0559980  )
        25           S   tau(  25) = (   0.6992622   0.7763746   0.4934415  )
        26           S   tau(  26) = (   0.8726879   0.0039158   0.1054915  )
        27           S   tau(  27) = (   0.9106894   0.3836923   0.4796562  )
        28           S   tau(  28) = (   0.4129145   0.3270427   0.1786224  )
        29           S   tau(  29) = (   0.7872836   0.4313602   1.5512292  )
        30           S   tau(  30) = (   0.5220976   0.0057590   1.5455631  )
        31           S   tau(  31) = (   1.0227607  -0.0106045   1.5469869  )
        32           S   tau(  32) = (   1.2870130   0.4142705   1.5508052  )
        33           S   tau(  33) = (   0.5445496   0.2479743   4.5260300  )
        34           S   tau(  34) = (   0.2788678  -0.1781422   4.5480213  )
        35           S   tau(  35) = (   0.7802378  -0.1935124   4.5252389  )
        36           S   tau(  36) = (   1.0446220   0.2314751   4.5583365  )

     number of k points=     5  Marzari-Vanderbilt smearing, width (Ry)=  0.0200
                       cart. coord. in units 2pi/alat
        k(    1) = (   0.0000000   0.0000000   0.0000000), wk =   0.2222222
        k(    2) = (   0.0118982   0.3845163   0.0263100), wk =   0.4444444
        k(    3) = (   0.3272001  -0.2037113  -0.0127762), wk =   0.4444444
        k(    4) = (   0.3390983   0.1808050   0.0135338), wk =   0.4444444
        k(    5) = (   0.3153019  -0.5882277  -0.0390862), wk =   0.4444444

     Initial potential from superposition of free atoms

     starting charge  215.98107, renormalised to  216.00000

     negative rho (up, down):  9.272E-04 0.000E+00
     Starting wfcs are  204 randomized atomic wfcs

     Self-consistent Calculation

     iteration #  1     ecut=    45.00 Ry     beta= 0.70
     Davidson diagonalization with overlap
     ethr =  1.00E-02,  avg # of iterations =  2.0

     negative rho (up, down):  2.349E-04 0.000E+00

     total energy              =    -842.67915882 Ry
     Harris-Foulkes estimate   =    -845.84978079 Ry
     estimated scf accuracy    <      10.37346233 Ry

[...]

     iteration #  7     ecut=    45.00 Ry     beta= 0.70
     Davidson diagonalization with overlap
     c_bands:  1 eigenvalues not converged
     ethr =  1.29E-05,  avg # of iterations =  5.8

[...]

     iteration #  8     ecut=    45.00 Ry     beta= 0.70
     Davidson diagonalization with overlap
     c_bands:  1 eigenvalues not converged
     ethr =  1.94E-06,  avg # of iterations = 12.0

[...]

     total energy              =    -844.41180053 Ry
     Harris-Foulkes estimate   =    -844.41179776 Ry
     estimated scf accuracy    <       0.00000139 Ry

     iteration # 20     ecut=    45.00 Ry     beta= 0.70
     Davidson diagonalization with overlap
     ethr =  6.44E-10,  avg # of iterations =  3.2

[...]

     End of self-consistent calculation

          k = 0.0000 0.0000 0.0000 ( 43123 PWs)   bands (ev):

   -12.8046 -12.5390 -11.9182 -11.7675 -11.5766 -11.3410 -11.2673 -11.2608
   -11.2369 -11.0177 -11.0087 -10.9053 -10.9007 -10.7854 -10.6019 -10.5934
   -10.5763 -10.5744 -10.4936 -10.3779 -10.3058 -10.2859  -9.8250  -9.6017
    -4.8095  -4.8034  -4.8013  -4.5414  -4.5367  -4.5270  -4.2984  -3.9957
    -3.7265  -3.1998  -3.1899  -3.1807  -3.1789  -3.0546  -3.0102  -2.9959
    -2.9883  -2.8402  -2.8146  -2.8112  -2.8089  -2.7570  -2.7156  -2.5201
    -2.5156  -2.3780  -2.3269  -2.2217  -1.9662  -1.9348  -1.9313  -1.8595
    -1.8040  -1.7735  -1.7622  -1.7525  -1.7320  -1.6408  -1.5259  -1.5146
    -1.5009  -1.4734  -1.3779  -1.1580  -1.0705  -1.0344  -0.9815  -0.8206
    -0.8115  -0.8055  -0.7797  -0.6952  -0.6684  -0.6395  -0.5799  -0.4189
    -0.3351  -0.1773  -0.1375  -0.1237  -0.1078  -0.0845   0.0081   0.0228
     0.0758   0.1358   0.1800   0.4888   0.4985   0.5180   0.6065   0.6356
     0.7364   0.7833   0.9476   1.0479   1.0623   1.0968   1.0986   1.3026
     1.4144   1.4769   1.5348   1.7548   1.8374   1.9095   1.9260   1.9432
     2.1028   2.3928   2.6654   2.7653   2.9216   2.9606   2.9638   2.9928
     3.2264   3.3078   3.3175   3.3357   3.5932   3.5951   3.6465   3.6658
     3.6715   3.6893

[...]

          k = 0.3153-0.5882-0.0391 ( 43257 PWs)   bands (ev):

   -11.7482 -11.7262 -11.6829 -11.5781 -11.5558 -11.4637 -11.4005 -11.3963
   -11.3580 -11.3497 -11.2967 -11.2158 -11.1806 -11.1504 -10.8922 -10.7573
   -10.7348 -10.7289 -10.5303 -10.4667 -10.4405 -10.3838  -9.9983  -9.7423
    -3.5272  -3.5203  -3.4331  -3.4169  -3.4008  -3.3907  -3.3762  -3.3443
    -3.2570  -3.2294  -3.2092  -3.1731  -3.0965  -3.0292  -2.9662  -2.9384
    -2.9108  -2.8853  -2.8434  -2.8037  -2.7509  -2.6831  -2.6499  -2.6056
    -2.5877  -2.5789  -2.5640  -2.3830  -2.3394  -2.2455  -2.2098  -2.1775
    -1.9600  -1.8898  -1.8637  -1.7593  -1.7541  -1.7236  -1.6578  -1.5867
    -1.5491  -1.5270  -1.5100  -1.4816  -1.4768  -1.4193  -1.3028  -1.2977
    -1.2237  -1.1962  -1.1627  -1.1066  -1.0887  -1.0267  -0.8696  -0.7982
    -0.7685  -0.7470  -0.5058  -0.4847  -0.3495  -0.1492  -0.1198  -0.1016
    -0.0782  -0.0282   0.0874   0.1742   0.2170   0.3704   0.4008   0.6232
     0.7969   1.0084   1.1152   1.1735   1.1840   1.2138   1.2454   1.2609
     1.3537   1.4691   1.6145   1.8863   1.9432   1.9554   1.9938   2.0708
     2.1479   2.2888   2.3174   2.4505   2.4622   2.6650   2.7032   2.8222
     2.8974   2.9181   3.0443   3.0691   3.1357   3.2279   3.3001   3.4528
     3.5571   3.5819

     the Fermi energy is     1.7569 ev

!    total energy              =    -844.41180007 Ry
     Harris-Foulkes estimate   =    -844.41180063 Ry
     estimated scf accuracy    <       0.00000036 Ry

     The total energy is the sum of the following terms:

     one-electron contribution =   -5896.06537099 Ry
     hartree contribution      =    3032.10260692 Ry
     xc contribution           =    -333.22531060 Ry
     ewald contribution        =    2352.76663832 Ry
     smearing contrib. (-TS)   =       0.00963628 Ry

     convergence has been achieved in  20 iterations

     negative rho (up, down):  1.282E-03 0.000E+00

     Forces acting on atoms (cartesian axes, Ry/au):

     atom    1 type  1   force =    -0.02171273    0.00037834   -0.00334006
     atom    2 type  1   force =    -0.01574661   -0.01209939    0.03401019
     atom    3 type  1   force =    -0.02973081   -0.02427846    0.02186575
     atom    4 type  1   force =     0.01845609    0.01119821   -0.02190526
     atom    5 type  1   force =     0.01526073   -0.00789911   -0.00019638
     atom    6 type  1   force =     0.00865167   -0.00537776   -0.00094939
     atom    7 type  1   force =    -0.00791869    0.01205711    0.00185286
     atom    8 type  1   force =    -0.01584247    0.00028192    0.00239618
     atom    9 type  1   force =    -0.01411142   -0.00753447    0.00256264
     atom   10 type  1   force =     0.01161167    0.00646400   -0.00361457
     atom   11 type  1   force =    -0.01231967   -0.00785811    0.00323538
     atom   12 type  1   force =     0.01238985    0.00648706   -0.00477234
     atom   13 type  2   force =    -0.00421540   -0.00767817   -0.01971726
     atom   14 type  2   force =    -0.00286614    0.00104104    0.03617396
     atom   15 type  2   force =    -0.00497249    0.00304956   -0.02845018
     atom   16 type  2   force =    -0.00085638   -0.00321261   -0.00089991
     atom   17 type  2   force =     0.00331858    0.00038924   -0.00909890
     atom   18 type  2   force =     0.00282715    0.00055349   -0.01813654
     atom   19 type  2   force =     0.00068852    0.00191515    0.00020513
     atom   20 type  2   force =    -0.00084642    0.00017182   -0.00020523
     atom   21 type  2   force =    -0.00599713   -0.00232722   -0.01629981
     atom   22 type  2   force =     0.00238008    0.00174974    0.01485362
     atom   23 type  2   force =    -0.00520092   -0.00276999   -0.01639166
     atom   24 type  2   force =     0.00353681    0.00175690    0.01537990
     atom   25 type  2   force =     0.01485211   -0.01417068    0.01418072
     atom   26 type  2   force =     0.01639796    0.02407119   -0.00492862
     atom   27 type  2   force =     0.01440367    0.01527227   -0.03756953
     atom   28 type  2   force =     0.01636184    0.00733548    0.01241493
     atom   29 type  2   force =    -0.00286195   -0.00002026    0.01312871
     atom   30 type  2   force =    -0.00322020   -0.00092270    0.01295832
     atom   31 type  2   force =     0.00008241   -0.00108475    0.00276016
     atom   32 type  2   force =    -0.00035321   -0.00106281   -0.00331877
     atom   33 type  2   force =    -0.00258501   -0.00191070   -0.01301386
     atom   34 type  2   force =     0.00747389    0.00384913    0.01450966
     atom   35 type  2   force =    -0.00344730   -0.00140728   -0.01344235
     atom   36 type  2   force =     0.00611192    0.00359281    0.01376253

     Total force =     0.126331     Total SCF correction =     0.001114

     General routines

     Parallel routines

   This run was terminated on:  17:17: 1  18Oct2021

   JOB DONE.