     Program PWSCF v.6.4 starts on  4Aug2021 at 17: 0: 0

     R & G space division:  proc/nbgrp/npool/nimage =      40
     Waiting for input...
     Reading input from standard input
Warning: card    &IONS ignored
Warning: card      ION_DYNAMICS = 'BFGS' ignored
Warning: card   / ignored
Warning: card    &CELL ignored
Warning: card      CELL_DYNAMICS = 'BFGS', ignored
Warning: card    / ignored

     Current dimensions of program PWSCF are:
     Max number of different atomic species (ntypx) = 10
     Max number of k-points (npk) =  40000
     Max angular momentum in pseudopotentials (lmaxx) =  3

     bravais-lattice index     =            0
     lattice parameter (alat)  =      12.9114  a.u.
     unit-cell volume          =    3142.8922 (a.u.)^3
     number of atoms/cell      =           24
     number of atomic types    =            2
     number of electrons       =       144.00
     number of Kohn-Sham states=           86
     kinetic-energy cutoff     =      45.0000  Ry
     charge density cutoff     =     360.0000  Ry
     convergence threshold     =      1.0E-06
     mixing beta               =       0.7000
     number of iterations used =            8  local-TF  mixing
     Exchange-correlation      = SLA PW GGX GGC ( 1  4  2  2 0 0)

     celldm(1)=  12.911445  celldm(2)=   0.000000  celldm(3)=   0.000000
     celldm(4)=   0.000000  celldm(5)=   0.000000  celldm(6)=   0.000000

     crystal axes: (cart. coord. in units of alat)
               a(1) = (   0.999288  -0.011681   0.035876 )
               a(2) = (  -0.488794   0.852907   0.021588 )
               a(3) = (  -0.000766  -0.029578   1.723377 )

     reciprocal axes: (cart. coord. in units 2 pi/alat)
               b(1) = (  1.007084  0.576890  0.010349 )
               b(2) = (  0.013060  1.179432  0.020248 )
               b(3) = ( -0.021129 -0.026784  0.579787 )

     PseudoPot. # 1 for Mo read from file:
     ~/pseudo/Mo.pw91-n-van.UPF
     MD5 check sum: Not computed, couldn't open file
     Pseudo is Ultrasoft + core correction, Zval =  6.0
     Generated by new atomic code, or converted to UPF format
     Using radial grid of  965 points,  3 beta functions with:
                l(1) =   1
                l(2) =   2
                l(3) =   2
     Q(r) pseudized with  8 coefficients,  rinner =    1.000   1.000   1.000
                                                       1.200   1.200

     PseudoPot. # 2 for S  read from file:
     ~/pseudo/S.pw91-van_ak.UPF
     MD5 check sum: Not computed, couldn't open file
     Pseudo is Ultrasoft, Zval =  6.0
     Generated by new atomic code, or converted to UPF format
     Using radial grid of  811 points,  6 beta functions with:
                l(1) =   0
                l(2) =   0
                l(3) =   1
                l(4) =   1
                l(5) =   2
                l(6) =   2
     Q(r) pseudized with  8 coefficients,  rinner =    1.100   1.100   1.100
                                                       1.100   1.100

     atomic species   valence    mass     pseudopotential
        Mo             6.00    95.50000     Mo( 1.00)
        S              6.00    32.06500     S ( 1.00)

     No symmetry found

   Cartesian axes

     site n.     atom                  positions (alat units)
         1           Mo  tau(   1) = (   0.0075933   0.2780890   0.4479916  )
         2           Mo  tau(   2) = (  -0.2361948   0.7067749   0.4349823  )
         3           Mo  tau(   3) = (   0.5081717   0.2722661   0.4540835  )
         4           Mo  tau(   4) = (   0.2612773   0.6675454   0.5257244  )
         5           Mo  tau(   5) = (   0.2420362   0.1087683   1.3072620  )
         6           Mo  tau(   6) = (  -0.0059298   0.5440490   1.3278134  )
         7           Mo  tau(   7) = (   0.7469077   0.1067551   1.3160358  )
         8           Mo  tau(   8) = (   0.5120289   0.5409708   1.3409710  )
         9           S   tau(   9) = (   0.2498407   0.1199524   0.6590579  )
        10           S   tau(  10) = (  -0.0224474   0.5317211   0.7021576  )
        11           S   tau(  11) = (   0.7528105   0.1531671   0.6807457  )
        12           S   tau(  12) = (   0.5356172   0.5125096   0.7171006  )
        13           S   tau(  13) = (  -0.0201799   0.2684539   1.5453344  )
        14           S   tau(  14) = (  -0.2527157   0.6610041   1.5496724  )
        15           S   tau(  15) = (   0.5162287   0.2681235   1.5452396  )
        16           S   tau(  16) = (   0.2550998   0.6803346   1.5570200  )
        17           S   tau(  17) = (   0.2527136   0.1415664   0.1932189  )
        18           S   tau(  18) = (   0.0528592   0.5735348   0.2463771  )
        19           S   tau(  19) = (   0.7630469   0.1373973   0.2212011  )
        20           S   tau(  20) = (   0.4667317   0.5799300   0.2623852  )
        21           S   tau(  21) = (   0.0176205   0.2445368   1.0884593  )
        22           S   tau(  22) = (  -0.2418703   0.7154871   1.0906473  )
        23           S   tau(  23) = (   0.4951913   0.2398318   1.0869156  )
        24           S   tau(  24) = (   0.2558300   0.6893719   1.0863024  )

     number of k points=    10  Marzari-Vanderbilt smearing, width (Ry)=  0.0200
                       cart. coord. in units 2pi/alat
        k(    1) = (   0.0000000   0.0000000   0.0000000), wk =   0.1111111
        k(    2) = (   0.0105643   0.0133919  -0.2898935), wk =   0.1111111
        k(    3) = (   0.0043533   0.3931441   0.0067494), wk =   0.2222222
        k(    4) = (   0.0149176   0.4065360  -0.2831441), wk =   0.2222222
        k(    5) = (   0.3356948   0.1922967   0.0034496), wk =   0.2222222
        k(    6) = (   0.3462591   0.2056886  -0.2864438), wk =   0.2222222
        k(    7) = (   0.3400481   0.5854408   0.0101990), wk =   0.2222222
        k(    8) = (   0.3506124   0.5988327  -0.2796945), wk =   0.2222222
        k(    9) = (   0.3313416  -0.2008473  -0.0032998), wk =   0.2222222
        k(   10) = (   0.3419058  -0.1874555  -0.2931932), wk =   0.2222222

     Initial potential from superposition of free atoms

     starting charge  143.98738, renormalised to  144.00000
     Starting wfcs are  136 randomized atomic wfcs

     Self-consistent Calculation

     iteration #  1     ecut=    45.00 Ry     beta= 0.70
     Davidson diagonalization with overlap
     ethr =  1.00E-02,  avg # of iterations =  2.0

     total energy              =    -562.07448020 Ry
     Harris-Foulkes estimate   =    -564.29244237 Ry
     estimated scf accuracy    <       5.81416023 Ry

[...]

     total energy              =    -563.23863573 Ry
     Harris-Foulkes estimate   =    -563.23863594 Ry
     estimated scf accuracy    <       0.00000117 Ry

     iteration # 13     ecut=    45.00 Ry     beta= 0.70
     Davidson diagonalization with overlap
     ethr =  8.13E-10,  avg # of iterations =  2.5

     End of self-consistent calculation

          k = 0.0000 0.0000 0.0000 ( 16043 PWs)   bands (ev):

    -6.7090  -6.2809  -5.8037  -5.2940  -5.2201  -5.1798  -5.1000  -5.0382
    -4.9576  -4.9050  -4.7924  -4.7466  -4.6007  -4.5582  -4.4945  -4.3939
     1.4076   1.6785   1.7238   1.7758   2.0854   2.1911   2.2301   2.3099
     2.5393   2.6677   2.6714   2.8311   2.9056   3.0040   3.0509   3.1680
     3.4081   3.8273   3.8771   3.8870   4.0246   4.0408   4.0486   4.1462
     4.3037   4.3385   4.4389   4.5744   4.6398   4.6987   4.8308   5.0783
     5.2146   5.2480   5.3109   5.3513   5.4512   5.5085   5.7427   5.8125
     5.8606   5.9627   6.0782   6.1062   6.1531   6.2336   6.3658   6.4404
     6.5596   6.5920   6.8345   6.9547   7.0467   7.2861   7.4302   7.8792
     8.4092   8.4681   8.5918   8.6292   8.7029   8.8062   8.9226   9.0077
     9.0905   9.1003   9.1334   9.2300   9.3145   9.3368

[...]

          k = 0.3419-0.1875-0.2932 ( 16037 PWs)   bands (ev):

    -6.3044  -6.2617  -5.7018  -5.6348  -5.2995  -5.2682  -5.1425  -5.0763
    -5.0005  -4.9333  -4.8241  -4.7533  -4.6670  -4.5384  -4.5113  -4.4264
     2.0227   2.0581   2.1972   2.2223   2.3169   2.3783   2.3982   2.4766
     2.5664   2.6198   2.7102   2.7729   2.9684   3.0351   3.2688   3.3486
     3.4236   3.5149   3.7417   3.8156   3.8981   4.0385   4.1730   4.2132
     4.2553   4.3551   4.4393   4.5440   4.6083   4.6766   4.7445   4.8479
     4.9597   5.0100   5.1224   5.2830   5.3382   5.3749   5.4659   5.5701
     5.6228   5.6543   5.7630   5.8125   5.8713   5.9830   6.1898   6.2361
     6.4525   6.6297   6.7014   6.7634   6.8106   7.0346   7.1171   7.2714
     8.4886   8.6395   8.6614   8.7370   8.8178   8.8596   8.9059   8.9609
     9.0041   9.0927   9.1070   9.2047   9.2648   9.3177

     the Fermi energy is     7.9555 ev

!    total energy              =    -563.23863558 Ry
     Harris-Foulkes estimate   =    -563.23863584 Ry
     estimated scf accuracy    <       0.00000033 Ry

     The total energy is the sum of the following terms:

     one-electron contribution =      64.23627952 Ry
     hartree contribution      =      54.72366300 Ry
     xc contribution           =    -221.55228434 Ry
     ewald contribution        =    -460.64683244 Ry
     smearing contrib. (-TS)   =       0.00053869 Ry

     convergence has been achieved in  13 iterations

     Forces acting on atoms (cartesian axes, Ry/au):

     atom    1 type  1   force =     0.03310221    0.00208192   -0.08284413
     atom    2 type  1   force =    -0.01336413   -0.03577299    0.04397617
     atom    3 type  1   force =    -0.02308429   -0.00654710   -0.04682614
     atom    4 type  1   force =    -0.00789061    0.10989730   -0.05108732
     atom    5 type  1   force =     0.03834679    0.02658717    0.09500929
     atom    6 type  1   force =     0.04755269    0.00515719   -0.06397524
     atom    7 type  1   force =     0.00512151    0.00749211    0.01094673
     atom    8 type  1   force =    -0.04179821    0.01742423   -0.08465018
     atom    9 type  2   force =     0.00444380   -0.00458028   -0.02152442
     atom   10 type  2   force =     0.02453735    0.02350894   -0.03866182
     atom   11 type  2   force =    -0.02813056   -0.09653305    0.03305023
     atom   12 type  2   force =    -0.03632600    0.04683855   -0.04524268
     atom   13 type  2   force =     0.01639930   -0.04485726   -0.04783311
     atom   14 type  2   force =    -0.00340253    0.04522527   -0.01070236
     atom   15 type  2   force =    -0.03894248   -0.06967730   -0.00337874
     atom   16 type  2   force =    -0.01440978   -0.01444540   -0.02690673
     atom   17 type  2   force =     0.01436724    0.00327293    0.06998316
     atom   18 type  2   force =    -0.05557236   -0.00649667    0.03208990
     atom   19 type  2   force =    -0.00516479   -0.00195085    0.09173221
     atom   20 type  2   force =     0.09051133   -0.03418770    0.01476456
     atom   21 type  2   force =    -0.03985050    0.06452464   -0.01099233
     atom   22 type  2   force =     0.00972479   -0.06580737    0.01227467
     atom   23 type  2   force =     0.01963133    0.03933855    0.04828147
     atom   24 type  2   force =     0.00419789   -0.01049283    0.08251679

     Total force =     0.372834     Total SCF correction =     0.001262

     General routines

     Parallel routines

   This run was terminated on:  17: 1: 2   4Aug2021

   JOB DONE.