     Program PWSCF v.6.4 starts on  8Sep2021 at 11:44:53

     R & G space division:  proc/nbgrp/npool/nimage =      40
     Waiting for input...
     Reading input from standard input
Warning: card    &IONS ignored
Warning: card      ION_DYNAMICS = 'BFGS' ignored
Warning: card   / ignored
Warning: card    &CELL ignored
Warning: card      CELL_DYNAMICS = 'BFGS', ignored
Warning: card    / ignored

     Program PWSCF v.6.4 starts on  8Sep2021 at 12:19: 6

     R & G space division:  proc/nbgrp/npool/nimage =      40
     Waiting for input...
     Reading input from standard input
Warning: card    &IONS ignored
Warning: card      ION_DYNAMICS = 'BFGS' ignored
Warning: card   / ignored
Warning: card    &CELL ignored
Warning: card      CELL_DYNAMICS = 'BFGS', ignored
Warning: card    / ignored

     Current dimensions of program PWSCF are:
     Max number of different atomic species (ntypx) = 10
     Max number of k-points (npk) =  40000
     Max angular momentum in pseudopotentials (lmaxx) =  3

     gamma-point specific algorithms are used

     bravais-lattice index     =            0
     lattice parameter (alat)  =      33.7277  a.u.
     unit-cell volume          =   50062.1866 (a.u.)^3
     number of atoms/cell      =           30
     number of atomic types    =            2
     number of electrons       =       180.00
     number of Kohn-Sham states=          108
     kinetic-energy cutoff     =      45.0000  Ry
     charge density cutoff     =     360.0000  Ry
     convergence threshold     =      1.0E-06
     mixing beta               =       0.7000
     number of iterations used =            8  local-TF  mixing
     Exchange-correlation      = SLA PW GGX GGC ( 1  4  2  2 0 0)

     celldm(1)=  33.727750  celldm(2)=   0.000000  celldm(3)=   0.000000
     celldm(4)=   0.000000  celldm(5)=   0.000000  celldm(6)=   0.000000

     crystal axes: (cart. coord. in units of alat)
               a(1) = (   0.999981  -0.000021   0.006228 )
               a(2) = (   0.000030   1.065947  -0.005242 )
               a(3) = (   0.010596   0.023344   1.224061 )

     reciprocal axes: (cart. coord. in units 2 pi/alat)
               b(1) = (  1.000073 -0.000070 -0.008656 )
               b(2) = (  0.000131  0.938045 -0.017891 )
               b(3) = ( -0.005088  0.004018  0.816920 )

     PseudoPot. # 1 for Mo read from file:
     ~/pseudo/Mo.pw91-n-van.UPF
     MD5 check sum: Not computed, couldn't open file
     Pseudo is Ultrasoft + core correction, Zval =  6.0
     Generated by new atomic code, or converted to UPF format
     Using radial grid of  965 points,  3 beta functions with:
                l(1) =   1
                l(2) =   2
                l(3) =   2
     Q(r) pseudized with  8 coefficients,  rinner =    1.000   1.000   1.000
                                                       1.200   1.200

     PseudoPot. # 2 for S  read from file:
     ~/pseudo/S.pw91-van_ak.UPF
     MD5 check sum: Not computed, couldn't open file
     Pseudo is Ultrasoft, Zval =  6.0
     Generated by new atomic code, or converted to UPF format
     Using radial grid of  811 points,  6 beta functions with:
                l(1) =   0
                l(2) =   0
                l(3) =   1
                l(4) =   1
                l(5) =   2
                l(6) =   2
     Q(r) pseudized with  8 coefficients,  rinner =    1.100   1.100   1.100
                                                       1.100   1.100

     atomic species   valence    mass     pseudopotential
        Mo             6.00    95.50000     Mo( 1.00)
        S              6.00    32.06500     S ( 1.00)

     No symmetry found

   Cartesian axes

     site n.     atom                  positions (alat units)
         1           Mo  tau(   1) = (   0.6014448   0.4555211   0.4196474  )
         2           Mo  tau(   2) = (   0.4213181   0.4907058   0.8180667  )
         3           Mo  tau(   3) = (   0.6177895   0.4652604   0.6415212  )
         4           Mo  tau(   4) = (   0.4261659   0.6129650   0.7023528  )
         5           Mo  tau(   5) = (   0.5703035   0.6582109   0.6149240  )
         6           Mo  tau(   6) = (   0.4213199   0.4047591   0.6844320  )
         7           Mo  tau(   7) = (   0.4049455   0.6085355   0.5349724  )
         8           Mo  tau(   8) = (   0.5483832   0.3953473   0.7792574  )
         9           Mo  tau(   9) = (   0.4095910   0.4329735   0.5311915  )
        10           Mo  tau(  10) = (   0.5327605   0.6556313   0.4595937  )
        11           S   tau(  11) = (   0.3488141   0.5159402   0.6281512  )
        12           S   tau(  12) = (   0.5124909   0.7131509   0.7153155  )
        13           S   tau(  13) = (   0.6770487   0.4417007   0.5239153  )
        14           S   tau(  14) = (   0.5208937   0.3790976   0.5931505  )
        15           S   tau(  15) = (   0.5097760   0.4343696   0.8976331  )
        16           S   tau(  16) = (   0.5246666   0.5537517   0.5437772  )
        17           S   tau(  17) = (   0.4159312   0.6986857   0.4363437  )
        18           S   tau(  18) = (   0.3762211   0.6123887   0.8228774  )
        19           S   tau(  19) = (   0.5045577   0.5035171   0.7076582  )
        20           S   tau(  20) = (   0.5995439   0.7457347   0.5244713  )
        21           S   tau(  21) = (   0.4769700   0.2956958   0.7514590  )
        22           S   tau(  22) = (   0.3542098   0.5238962   0.4494506  )
        23           S   tau(  23) = (   0.3482369   0.6863399   0.6255064  )
        24           S   tau(  24) = (   0.6718588   0.3901978   0.7304721  )
        25           S   tau(  25) = (   0.3308637   0.4077742   0.7901350  )
        26           S   tau(  26) = (   0.3442544   0.3383172   0.5795910  )
        27           S   tau(  27) = (   0.6629016   0.3987711   0.3336055  )
        28           S   tau(  28) = (   0.6694818   0.5896132   0.6574003  )
        29           S   tau(  29) = (   0.5948454   0.5798026   0.3735341  )
        30           S   tau(  30) = (   0.4838761   0.4056159   0.4177395  )

     number of k points=     1  Marzari-Vanderbilt smearing, width (Ry)=  0.0200
                       cart. coord. in units 2pi/alat
        k(    1) = (   0.0000000   0.0000000   0.0000000), wk =   2.0000000

     Initial potential from superposition of free atoms

     starting charge  179.98423, renormalised to  180.00000

     negative rho (up, down):  7.542E-03 0.000E+00
     Starting wfcs are  170 randomized atomic wfcs

     Self-consistent Calculation

     iteration #  1     ecut=    45.00 Ry     beta= 0.70
     Davidson diagonalization with overlap
     ethr =  1.00E-02,  avg # of iterations =  2.0

     negative rho (up, down):  6.058E-03 0.000E+00

     total energy              =    -701.76336088 Ry
     Harris-Foulkes estimate   =    -704.70021483 Ry
     estimated scf accuracy    <       7.13009174 Ry

[...]

     total energy              =    -703.43325010 Ry
     Harris-Foulkes estimate   =    -703.43325597 Ry
     estimated scf accuracy    <       0.00000125 Ry

     iteration # 32     ecut=    45.00 Ry     beta= 0.70
     Davidson diagonalization with overlap
     ethr =  6.95E-10,  avg # of iterations =  1.0

[...]

     End of self-consistent calculation

          k = 0.0000 0.0000 0.0000 (127578 PWs)   bands (ev):

   -19.0303 -18.2983 -17.5361 -17.3476 -17.1674 -17.1226 -17.0035 -16.9509
   -16.9319 -16.8122 -16.7832 -16.7681 -16.7430 -16.7196 -16.6408 -16.5848
   -16.5445 -16.4705 -16.4514 -16.3888 -10.7704 -10.6629 -10.1522 -10.0060
    -9.8930  -9.5207  -9.3511  -9.2559  -8.9468  -8.8510  -8.8257  -8.7369
    -8.6936  -8.6523  -8.5644  -8.4989  -8.4516  -8.3837  -8.3408  -8.2752
    -8.2392  -8.1831  -8.1156  -8.0469  -8.0373  -7.9685  -7.9483  -7.9258
    -7.9131  -7.8775  -7.8428  -7.7738  -7.7548  -7.6963  -7.6511  -7.5602
    -7.5448  -7.5052  -7.4561  -7.4135  -7.3731  -7.2027  -7.1266  -7.0824
    -6.9981  -6.9411  -6.8309  -6.6769  -6.6285  -6.5864  -6.4978  -6.4529
    -6.2869  -6.2584  -6.1684  -6.0560  -5.9866  -5.8505  -5.7710  -5.5629
    -5.5085  -5.4040  -5.3530  -5.2522  -5.1814  -4.9975  -4.9025  -4.7457
    -4.5513  -4.3562  -4.1828  -4.1301  -4.0029  -3.8752  -3.8072  -3.6479
    -3.5634  -3.4374  -3.3630  -3.3392  -3.2912  -3.1948  -3.1204  -3.0311
    -3.0211  -2.9223  -2.8674  -2.7890

     the Fermi energy is    -4.2913 ev

!    total energy              =    -703.43324597 Ry
     Harris-Foulkes estimate   =    -703.43325014 Ry
     estimated scf accuracy    <       0.00000076 Ry

     The total energy is the sum of the following terms:

     one-electron contribution =   -3539.72684908 Ry
     hartree contribution      =    1799.41390956 Ry
     xc contribution           =    -277.07826112 Ry
     ewald contribution        =    1313.96152347 Ry
     smearing contrib. (-TS)   =      -0.00356881 Ry

     convergence has been achieved in  32 iterations

     negative rho (up, down):  1.048E-02 0.000E+00

     Forces acting on atoms (cartesian axes, Ry/au):

     atom    1 type  1   force =     0.00164508    0.00141855    0.00218290
     atom    2 type  1   force =     0.00629435    0.00240700   -0.00694154
     atom    3 type  1   force =    -0.00388023   -0.00287915   -0.00581261
     atom    4 type  1   force =     0.00313853   -0.00040514   -0.00053775
     atom    5 type  1   force =    -0.00221391   -0.00514443    0.00156192
     atom    6 type  1   force =    -0.00240424    0.00330825   -0.00071933
     atom    7 type  1   force =    -0.00678685   -0.00573979   -0.00239840
     atom    8 type  1   force =    -0.00405646    0.00173429   -0.00372710
     atom    9 type  1   force =     0.00324994   -0.00475534    0.00218756
     atom   10 type  1   force =    -0.00060766    0.00297234    0.00099659
     atom   11 type  2   force =    -0.00115587   -0.00302856   -0.00047166
     atom   12 type  2   force =     0.00233659    0.00159167    0.00105465
     atom   13 type  2   force =     0.00139961   -0.00129755   -0.00129390
     atom   14 type  2   force =    -0.00353780    0.00006273   -0.00037327
     atom   15 type  2   force =    -0.00089788    0.00266920   -0.00238730
     atom   16 type  2   force =     0.00661494    0.00549778    0.00145327
     atom   17 type  2   force =     0.00087416    0.00456688    0.00026203
     atom   18 type  2   force =    -0.00495680    0.00125168    0.00195699
     atom   19 type  2   force =    -0.00081683    0.00019644    0.00404648
     atom   20 type  2   force =     0.00474748   -0.00164759    0.00262329
     atom   21 type  2   force =     0.00080783    0.00070767    0.00167189
     atom   22 type  2   force =     0.00034836   -0.00551804    0.00484838
     atom   23 type  2   force =    -0.00386111   -0.00021296    0.00022900
     atom   24 type  2   force =    -0.00236469    0.00143141   -0.00171710
     atom   25 type  2   force =     0.00223563    0.00040304    0.00017855
     atom   26 type  2   force =     0.00229723   -0.00272237    0.00535491
     atom   27 type  2   force =    -0.00205001    0.00090209   -0.00085676
     atom   28 type  2   force =     0.00014854   -0.00184357    0.00212577
     atom   29 type  2   force =     0.00313487    0.00194807   -0.00272308
     atom   30 type  2   force =     0.00031722    0.00212540   -0.00277441

     Total force =     0.028168     Total SCF correction =     0.000592

     General routines

     Parallel routines

   This run was terminated on:  12:25:50   8Sep2021

   JOB DONE.