     Program PWSCF v.6.4 starts on  3Aug2021 at 21:47:12

     R & G space division:  proc/nbgrp/npool/nimage =      40
     Waiting for input...
     Reading input from standard input
Warning: card    &IONS ignored
Warning: card      ION_DYNAMICS = 'BFGS' ignored
Warning: card   / ignored
Warning: card    &CELL ignored
Warning: card      CELL_DYNAMICS = 'BFGS', ignored
Warning: card    / ignored

     Current dimensions of program PWSCF are:
     Max number of different atomic species (ntypx) = 10
     Max number of k-points (npk) =  40000
     Max angular momentum in pseudopotentials (lmaxx) =  3

     bravais-lattice index     =            0
     lattice parameter (alat)  =      12.0576  a.u.
     unit-cell volume          =    3540.2048 (a.u.)^3
     number of atoms/cell      =           24
     number of atomic types    =            2
     number of electrons       =       144.00
     number of Kohn-Sham states=           86
     kinetic-energy cutoff     =      45.0000  Ry
     charge density cutoff     =     360.0000  Ry
     convergence threshold     =      1.0E-06
     mixing beta               =       0.7000
     number of iterations used =            8  local-TF  mixing
     Exchange-correlation      = SLA PW GGX GGC ( 1  4  2  2 0 0)

     celldm(1)=  12.057647  celldm(2)=   0.000000  celldm(3)=   0.000000
     celldm(4)=   0.000000  celldm(5)=   0.000000  celldm(6)=   0.000000

     crystal axes: (cart. coord. in units of alat)
               a(1) = (   1.000000   0.000000   0.000000 )
               a(2) = (  -0.250000   0.433013   0.000000 )
               a(3) = (   0.000000   0.000000   4.663803 )

     reciprocal axes: (cart. coord. in units 2 pi/alat)
               b(1) = (  1.000000  0.577350  0.000000 )
               b(2) = (  0.000000  2.309402  0.000000 )
               b(3) = (  0.000000  0.000000  0.214417 )

     PseudoPot. # 1 for Mo read from file:
     ~/pseudo/Mo.pw91-n-van.UPF
     MD5 check sum: Not computed, couldn't open file
     Pseudo is Ultrasoft + core correction, Zval =  6.0
     Generated by new atomic code, or converted to UPF format
     Using radial grid of  965 points,  3 beta functions with:
                l(1) =   1
                l(2) =   2
                l(3) =   2
     Q(r) pseudized with  8 coefficients,  rinner =    1.000   1.000   1.000
                                                       1.200   1.200

     PseudoPot. # 2 for S  read from file:
     ~/pseudo/S.pw91-van_ak.UPF
     MD5 check sum: Not computed, couldn't open file
     Pseudo is Ultrasoft, Zval =  6.0
     Generated by new atomic code, or converted to UPF format
     Using radial grid of  811 points,  6 beta functions with:
                l(1) =   0
                l(2) =   0
                l(3) =   1
                l(4) =   1
                l(5) =   2
                l(6) =   2
     Q(r) pseudized with  8 coefficients,  rinner =    1.100   1.100   1.100
                                                       1.100   1.100

     atomic species   valence    mass     pseudopotential
        Mo             6.00    95.50000     Mo( 1.00)
        S              6.00    32.06500     S ( 1.00)

     No symmetry found

   Cartesian axes

     site n.     atom                  positions (alat units)
         1           Mo  tau(   1) = (  -0.0040063   0.3166514   0.5694187  )
         2           Mo  tau(   2) = (   0.0241801   0.2813636   2.8963200  )
         3           Mo  tau(   3) = (   0.4724293   0.2744661   0.5784508  )
         4           Mo  tau(   4) = (   0.4919919   0.3061030   2.8900846  )
         5           Mo  tau(   5) = (   0.2495174   0.1444714   1.7802668  )
         6           Mo  tau(   6) = (   0.2685641   0.1406856   4.0558363  )
         7           Mo  tau(   7) = (   0.7200201   0.1431111   1.7398604  )
         8           Mo  tau(   8) = (   0.7405455   0.1541044   4.1090711  )
         9           S   tau(   9) = (   0.2698273   0.1201008   0.8296373  )
        10           S   tau(  10) = (   0.2479818   0.1252100   3.1353818  )
        11           S   tau(  11) = (   0.7313587   0.1191430   0.8287138  )
        12           S   tau(  12) = (   0.7351259   0.1625426   3.1808642  )
        13           S   tau(  13) = (  -0.0141211   0.2726136   2.0170970  )
        14           S   tau(  14) = (  -0.0039484   0.3197698   4.3262736  )
        15           S   tau(  15) = (   0.5060074   0.2837754   1.9638103  )
        16           S   tau(  16) = (   0.4991524   0.2875447   4.3573956  )
        17           S   tau(  17) = (   0.2510460   0.1371819   0.3072207  )
        18           S   tau(  18) = (   0.2525034   0.1458901   2.7008274  )
        19           S   tau(  19) = (   0.7747044   0.1534048   0.3206909  )
        20           S   tau(  20) = (   0.7729870   0.1563032   2.6872545  )
        21           S   tau(  21) = (   0.0025865   0.2876807   1.4724485  )
        22           S   tau(  22) = (  -0.0284084   0.3016834   3.8330689  )
        23           S   tau(  23) = (   0.5090308   0.3117854   1.4845170  )
        24           S   tau(  24) = (   0.4706421   0.2919867   3.8250998  )

     number of k points=    10  Marzari-Vanderbilt smearing, width (Ry)=  0.0200
                       cart. coord. in units 2pi/alat
        k(    1) = (   0.0000000   0.0000000   0.0000000), wk =   0.1111111
        k(    2) = (   0.0000000   0.3849003   0.0000000), wk =   0.2222222
        k(    3) = (   0.0000000   0.7698006   0.0000000), wk =   0.2222222
        k(    4) = (   0.0000000  -1.1547008   0.0000000), wk =   0.1111111
        k(    5) = (   0.3333333   0.1924501   0.0000000), wk =   0.2222222
        k(    6) = (   0.3333333   0.5773504   0.0000000), wk =   0.2222222
        k(    7) = (   0.3333333  -0.9622507   0.0000000), wk =   0.2222222
        k(    8) = (   0.3333333  -0.5773504   0.0000000), wk =   0.2222222
        k(    9) = (   0.3333333  -0.1924501   0.0000000), wk =   0.2222222
        k(   10) = (   0.6666667  -0.3849003   0.0000000), wk =   0.2222222

     Initial potential from superposition of free atoms

     starting charge  143.98738, renormalised to  144.00000
     Starting wfcs are  136 randomized atomic wfcs

     Self-consistent Calculation

     iteration #  1     ecut=    45.00 Ry     beta= 0.70
     Davidson diagonalization with overlap
     ethr =  1.00E-02,  avg # of iterations =  2.0

     total energy              =    -562.19118360 Ry
     Harris-Foulkes estimate   =    -563.84920074 Ry
     estimated scf accuracy    <       4.31705587 Ry

[...]

     iteration # 10     ecut=    45.00 Ry     beta= 0.70
     Davidson diagonalization with overlap
     c_bands:  1 eigenvalues not converged
     ethr =  4.62E-06,  avg # of iterations =  7.3

[...]

     total energy              =    -563.02390197 Ry
     Harris-Foulkes estimate   =    -563.02390215 Ry
     estimated scf accuracy    <       0.00000120 Ry

     iteration # 18     ecut=    45.00 Ry     beta= 0.70
     Davidson diagonalization with overlap
     ethr =  8.32E-10,  avg # of iterations =  4.1

     End of self-consistent calculation

          k = 0.0000 0.0000 0.0000 ( 18043 PWs)   bands (ev):

    -9.3979  -8.3867  -8.3619  -8.3148  -7.5994  -7.5211  -7.4072  -7.2596
    -7.0018  -6.5489  -6.5420  -6.4802  -6.4225  -6.3220  -6.2654  -5.7341
    -0.8400  -0.7710  -0.1004  -0.0658   0.0949   0.1722   0.2661   0.3083
     0.4283   0.9724   1.0111   1.0528   1.1262   1.1406   1.5197   1.6864
     1.7807   1.8301   1.8353   2.0887   2.5531   2.7021   2.8725   3.0411
     3.0497   3.1960   3.2693   3.3074   3.3856   3.4074   3.4404   3.5533
     3.7158   3.7474   3.9044   3.9410   3.9606   4.0948   4.1965   4.2802
     4.3309   4.5096   4.5891   4.5998   4.8327   4.9582   5.0156   5.1866
     5.3042   5.4049   5.4321   5.5305   5.8675   5.9156   5.9935   6.3861
     6.8724   6.9079   7.1105   7.2157   7.5439   7.6423   7.6739   7.7129
     7.8147   7.8324   7.8698   8.0613   8.2086   8.3587

[...]

          k = 0.6667-0.3849 0.0000 ( 18020 PWs)   bands (ev):

    -8.3162  -7.4574  -7.3754  -7.2533  -7.1960  -7.1444  -6.8101  -6.5505
    -6.5242  -6.4665  -6.4058  -6.3969  -6.3005  -6.2458  -6.1017  -5.6584
    -0.7389  -0.4623   0.1559   0.2184   0.3325   0.4692   0.5941   0.6349
     0.7036   0.9627   1.0321   1.0768   1.1899   1.2581   1.3153   1.4753
     1.5619   1.6904   1.7090   1.7330   1.7871   1.8847   2.0335   2.0697
     2.1495   2.3111   2.3663   2.3692   2.7506   2.7760   2.7949   2.9552
     3.2560   3.2702   3.3340   3.3634   3.6651   3.7080   3.7261   3.7632
     3.8395   4.0236   4.0543   4.0723   4.1669   4.5727   4.5975   4.6680
     4.7688   4.8435   4.8645   4.9810   4.9897   5.4294   5.5897   5.7899
     6.8718   7.1819   7.2283   7.3443   7.4239   7.4475   7.5077   7.5987
     7.6700   7.7151   7.8297   7.8620   7.9952   8.0195

     the Fermi energy is     6.1620 ev

!    total energy              =    -563.02390196 Ry
     Harris-Foulkes estimate   =    -563.02390212 Ry
     estimated scf accuracy    <       0.00000018 Ry

     The total energy is the sum of the following terms:

     one-electron contribution =    -149.67411791 Ry
     hartree contribution      =     153.38369927 Ry
     xc contribution           =    -223.28600028 Ry
     ewald contribution        =    -343.45809060 Ry
     smearing contrib. (-TS)   =       0.01060757 Ry

     convergence has been achieved in  18 iterations

     Forces acting on atoms (cartesian axes, Ry/au):

     atom    1 type  1   force =     0.03399054   -0.20201033   -0.00054734
     atom    2 type  1   force =    -0.19678809    0.05521875    0.27899441
     atom    3 type  1   force =     0.16076191    0.05693937   -0.07602117
     atom    4 type  1   force =     0.12636990   -0.03245364    0.27133992
     atom    5 type  1   force =    -0.10386284   -0.06599231   -0.21134331
     atom    6 type  1   force =    -0.19447302    0.09168749    0.18307616
     atom    7 type  1   force =     0.23143837    0.01745928   -0.11612114
     atom    8 type  1   force =     0.01088039   -0.03053843   -0.08644556
     atom    9 type  2   force =    -0.09475938    0.06852569    0.07509320
     atom   10 type  2   force =     0.05857959    0.03152227    0.10031144
     atom   11 type  2   force =     0.01507204    0.05197675   -0.03073291
     atom   12 type  2   force =     0.00769981   -0.00959107   -0.08994919
     atom   13 type  2   force =    -0.00928359    0.01748243   -0.02161420
     atom   14 type  2   force =     0.03884912   -0.06438842    0.00397296
     atom   15 type  2   force =    -0.04550347    0.07774363    0.22926736
     atom   16 type  2   force =    -0.02030907    0.02306379   -0.03898568
     atom   17 type  2   force =    -0.02292842    0.05409987    0.00718109
     atom   18 type  2   force =     0.09569738   -0.07056719   -0.35956569
     atom   19 type  2   force =    -0.09201486   -0.02946036    0.02596521
     atom   20 type  2   force =    -0.09140988    0.02582710   -0.20129116
     atom   21 type  2   force =    -0.00489335    0.00560632    0.12524180
     atom   22 type  2   force =     0.02949909   -0.08799028   -0.03109351
     atom   23 type  2   force =    -0.06824292   -0.05225980   -0.00508210
     atom   24 type  2   force =     0.13563076    0.06809911   -0.03165058

     Total force =     0.938806     Total SCF correction =     0.001279

     General routines

     Parallel routines

   This run was terminated on:  21:48:29   3Aug2021

   JOB DONE.