     Program PWSCF v.6.4 starts on 24Dec2021 at  0:45: 8

     R & G space division:  proc/nbgrp/npool/nimage =      40
     Waiting for input...
     Reading input from standard input
Warning: card    &IONS ignored
Warning: card      ION_DYNAMICS = 'BFGS' ignored
Warning: card   / ignored
Warning: card    &CELL ignored
Warning: card      CELL_DYNAMICS = 'BFGS', ignored
Warning: card    / ignored

     Current dimensions of program PWSCF are:
     Max number of different atomic species (ntypx) = 10
     Max number of k-points (npk) =  40000
     Max angular momentum in pseudopotentials (lmaxx) =  3

     bravais-lattice index     =            0
     lattice parameter (alat)  =      11.9660  a.u.
     unit-cell volume          =    3392.6902 (a.u.)^3
     number of atoms/cell      =           21
     number of atomic types    =            2
     number of electrons       =       126.00
     number of Kohn-Sham states=           76
     kinetic-energy cutoff     =      45.0000  Ry
     charge density cutoff     =     360.0000  Ry
     convergence threshold     =      1.0E-06
     mixing beta               =       0.7000
     number of iterations used =            8  local-TF  mixing
     Exchange-correlation      = SLA PW GGX GGC ( 1  4  2  2 0 0)

     celldm(1)=  11.965980  celldm(2)=   0.000000  celldm(3)=   0.000000
     celldm(4)=   0.000000  celldm(5)=   0.000000  celldm(6)=   0.000000

     crystal axes: (cart. coord. in units of alat)
               a(1) = (   1.000000   0.000000   0.000000 )
               a(2) = (   0.160719   1.149986   0.000000 )
               a(3) = (   0.406627   0.429505   1.721896 )

     reciprocal axes: (cart. coord. in units 2 pi/alat)
               b(1) = (  1.000000 -0.139757 -0.201290 )
               b(2) = (  0.000000  0.869576 -0.216905 )
               b(3) = (  0.000000  0.000000  0.580755 )

     PseudoPot. # 1 for Mo read from file:
     ~/pseudo/Mo.pw91-n-van.UPF
     MD5 check sum: Not computed, couldn't open file
     Pseudo is Ultrasoft + core correction, Zval =  6.0
     Generated by new atomic code, or converted to UPF format
     Using radial grid of  965 points,  3 beta functions with:
                l(1) =   1
                l(2) =   2
                l(3) =   2
     Q(r) pseudized with  8 coefficients,  rinner =    1.000   1.000   1.000
                                                       1.200   1.200

     PseudoPot. # 2 for S  read from file:
     ~/pseudo/S.pw91-van_ak.UPF
     MD5 check sum: Not computed, couldn't open file
     Pseudo is Ultrasoft, Zval =  6.0
     Generated by new atomic code, or converted to UPF format
     Using radial grid of  811 points,  6 beta functions with:
                l(1) =   0
                l(2) =   0
                l(3) =   1
                l(4) =   1
                l(5) =   2
                l(6) =   2
     Q(r) pseudized with  8 coefficients,  rinner =    1.100   1.100   1.100
                                                       1.100   1.100

     atomic species   valence    mass     pseudopotential
        Mo             6.00    95.50000     Mo( 1.00)
        S              6.00    32.06500     S ( 1.00)

     No symmetry found

   Cartesian axes

     site n.     atom                  positions (alat units)
         1           Mo  tau(   1) = (   0.5113818   0.6047974   0.2906527  )
         2           Mo  tau(   2) = (   0.9029726   0.6350580   0.5652351  )
         3           Mo  tau(   3) = (   0.6078322   0.7624187   1.3603322  )
         4           Mo  tau(   4) = (   0.7789576   0.5113310   1.6766685  )
         5           Mo  tau(   5) = (   0.1334103   0.4347349   0.0573872  )
         6           Mo  tau(   6) = (   0.3215939   0.6777774   0.7481414  )
         7           Mo  tau(   7) = (   0.9556079   0.6794218   0.9988091  )
         8           S   tau(   8) = (   1.3089886   0.7058915   1.1235241  )
         9           S   tau(   9) = (   0.6525409   0.4686664   0.8207558  )
        10           S   tau(  10) = (   0.8543254   0.4554503   1.2923805  )
        11           S   tau(  11) = (   1.1067356   0.3665137   0.7564565  )
        12           S   tau(  12) = (   0.8251407   0.3928100   0.2855328  )
        13           S   tau(  13) = (   0.3673574   0.2377862   0.3075296  )
        14           S   tau(  14) = (   0.5854038   0.8688363   0.5396005  )
        15           S   tau(  15) = (   1.4424883   1.0845366   1.4902834  )
        16           S   tau(  16) = (   0.8011460   0.9978936   1.1303957  )
        17           S   tau(  17) = (   1.0681040   0.9432098   0.7162495  )
        18           S   tau(  18) = (   0.9385156   0.8522220   1.6127203  )
        19           S   tau(  19) = (   0.6019402   0.8803295   0.0533037  )
        20           S   tau(  20) = (   0.4154008   0.5450282   1.6130284  )
        21           S   tau(  21) = (   1.1385279   0.7685998   0.2799625  )

     number of k points=    10  Marzari-Vanderbilt smearing, width (Ry)=  0.0200
                       cart. coord. in units 2pi/alat
        k(    1) = (   0.0000000   0.0000000   0.0000000), wk =   0.1111111
        k(    2) = (   0.0000000   0.0000000  -0.2903776), wk =   0.1111111
        k(    3) = (   0.0000000   0.2898586  -0.0723016), wk =   0.2222222
        k(    4) = (   0.0000000   0.2898586  -0.3626792), wk =   0.2222222
        k(    5) = (   0.3333333  -0.0465858  -0.0670967), wk =   0.2222222
        k(    6) = (   0.3333333  -0.0465858  -0.3574743), wk =   0.2222222
        k(    7) = (   0.3333333   0.2432728  -0.1393983), wk =   0.2222222
        k(    8) = (   0.3333333   0.2432728  -0.4297759), wk =   0.2222222
        k(    9) = (   0.3333333  -0.3364444   0.0052049), wk =   0.2222222
        k(   10) = (   0.3333333  -0.3364444  -0.2851727), wk =   0.2222222

     Initial potential from superposition of free atoms

     starting charge  125.98896, renormalised to  126.00000
     Starting wfcs are  119 randomized atomic wfcs

     Self-consistent Calculation

     iteration #  1     ecut=    45.00 Ry     beta= 0.70
     Davidson diagonalization with overlap
     ethr =  1.00E-02,  avg # of iterations =  2.0

     total energy              =    -491.51594681 Ry
     Harris-Foulkes estimate   =    -493.36861102 Ry
     estimated scf accuracy    <       4.85201284 Ry

[...]

     total energy              =    -492.48956709 Ry
     Harris-Foulkes estimate   =    -492.48956726 Ry
     estimated scf accuracy    <       0.00000123 Ry

     iteration # 13     ecut=    45.00 Ry     beta= 0.70
     Davidson diagonalization with overlap
     ethr =  9.76E-10,  avg # of iterations =  2.4

     End of self-consistent calculation

          k = 0.0000 0.0000 0.0000 ( 17289 PWs)   bands (ev):

    -8.9483  -8.3411  -8.1874  -7.9369  -7.7912  -7.7474  -7.6598  -7.4438
    -7.4014  -7.2705  -7.1553  -6.9710  -6.8996  -6.8910  -0.7918  -0.5371
    -0.4166  -0.3652  -0.1426   0.0310   0.0974   0.2049   0.2584   0.4499
     0.5025   0.5786   0.6642   0.7718   0.7861   0.9003   1.0959   1.1644
     1.3336   1.4081   1.5273   1.6571   1.7651   1.8394   1.9398   2.0932
     2.1382   2.2432   2.3540   2.4416   2.4726   2.5529   2.7544   2.8411
     3.0017   3.1376   3.3385   3.3942   3.5386   3.8271   3.8864   3.9282
     3.9986   4.0735   4.2172   4.3789   4.7688   4.8508   4.8541   5.0120
     5.2022   5.3937   5.5162   5.7508   5.8554   6.0439   6.2315   6.3106
     6.7145   6.8269   6.9321   7.0829

[...]

          k = 0.3333-0.3364-0.2852 ( 17320 PWs)   bands (ev):

    -8.5655  -8.4147  -8.1487  -7.9625  -7.8711  -7.7568  -7.6258  -7.5598
    -7.4710  -7.3177  -7.2555  -7.0706  -6.9629  -6.8619  -0.6034  -0.4193
    -0.3215  -0.2143  -0.1320   0.0810   0.1260   0.2758   0.3283   0.3956
     0.4427   0.6339   0.6582   0.7492   0.8376   0.9680   1.0739   1.1117
     1.2986   1.4046   1.4855   1.5972   1.6683   1.7988   1.8816   1.9918
     2.1013   2.1707   2.3216   2.3909   2.4883   2.5932   2.6752   2.8556
     3.0273   3.1640   3.3011   3.4697   3.5457   3.7083   3.9180   3.9977
     4.0765   4.2123   4.3547   4.5192   4.6014   4.7606   4.9224   5.0032
     5.2327   5.3343   5.5336   5.6823   5.8842   5.9860   6.2908   6.3313
     6.5611   6.7314   6.8096   6.9870

     the Fermi energy is     4.9979 ev

!    total energy              =    -492.48956712 Ry
     Harris-Foulkes estimate   =    -492.48956723 Ry
     estimated scf accuracy    <       0.00000015 Ry

     The total energy is the sum of the following terms:

     one-electron contribution =    -104.01343839 Ry
     hartree contribution      =     116.53476399 Ry
     xc contribution           =    -194.21095736 Ry
     ewald contribution        =    -310.79648843 Ry
     smearing contrib. (-TS)   =      -0.00344692 Ry

     convergence has been achieved in  13 iterations

     Forces acting on atoms (cartesian axes, Ry/au):

     atom    1 type  1   force =    -0.01585490    0.00527698   -0.04255216
     atom    2 type  1   force =    -0.01960627    0.03154698    0.01233770
     atom    3 type  1   force =     0.03789629    0.02791662   -0.00591187
     atom    4 type  1   force =     0.01578033   -0.03179466   -0.00206384
     atom    5 type  1   force =     0.01731511    0.05664934   -0.02164070
     atom    6 type  1   force =     0.02785279   -0.04650779    0.02089130
     atom    7 type  1   force =    -0.05537484    0.02982432    0.01244526
     atom    8 type  2   force =     0.03301893    0.00452962   -0.01021362
     atom    9 type  2   force =     0.00881291    0.00601039    0.00059659
     atom   10 type  2   force =    -0.01815457    0.00162123    0.03721310
     atom   11 type  2   force =     0.00839098    0.03154389   -0.00912060
     atom   12 type  2   force =     0.02282362   -0.02502411   -0.00719916
     atom   13 type  2   force =    -0.01161648   -0.00658510   -0.00151879
     atom   14 type  2   force =     0.01349530    0.01836617    0.02365348
     atom   15 type  2   force =     0.01038915   -0.02759606    0.02929316
     atom   16 type  2   force =     0.00138898   -0.03266026   -0.03073927
     atom   17 type  2   force =    -0.01918948    0.01453412    0.00591085
     atom   18 type  2   force =    -0.04545619    0.00731566    0.00144286
     atom   19 type  2   force =    -0.00296020    0.01068019   -0.01230657
     atom   20 type  2   force =    -0.02219335   -0.03071396    0.01264088
     atom   21 type  2   force =     0.01324190   -0.04493358   -0.01315858

     Total force =     0.189652     Total SCF correction =     0.000692

     General routines

     Parallel routines

   This run was terminated on:   0:45:59  24Dec2021

   JOB DONE.