     Program PWSCF v.6.4 starts on 28Nov2021 at 10:10:52

     R & G space division:  proc/nbgrp/npool/nimage =      40
     Waiting for input...
     Reading input from standard input
Warning: card    &IONS ignored
Warning: card      ION_DYNAMICS = 'BFGS' ignored
Warning: card   / ignored
Warning: card    &CELL ignored
Warning: card      CELL_DYNAMICS = 'BFGS', ignored
Warning: card    / ignored

     Current dimensions of program PWSCF are:
     Max number of different atomic species (ntypx) = 10
     Max number of k-points (npk) =  40000
     Max angular momentum in pseudopotentials (lmaxx) =  3

     bravais-lattice index     =            0
     lattice parameter (alat)  =      12.0802  a.u.
     unit-cell volume          =    4098.4554 (a.u.)^3
     number of atoms/cell      =           24
     number of atomic types    =            2
     number of electrons       =       144.00
     number of Kohn-Sham states=           86
     kinetic-energy cutoff     =      45.0000  Ry
     charge density cutoff     =     360.0000  Ry
     convergence threshold     =      1.0E-06
     mixing beta               =       0.7000
     number of iterations used =            8  local-TF  mixing
     Exchange-correlation      = SLA PW GGX GGC ( 1  4  2  2 0 0)

     celldm(1)=  12.080153  celldm(2)=   0.000000  celldm(3)=   0.000000
     celldm(4)=   0.000000  celldm(5)=   0.000000  celldm(6)=   0.000000

     crystal axes: (cart. coord. in units of alat)
               a(1) = (   0.999993   0.001846   0.003390 )
               a(2) = (   0.488640   0.887411   0.007011 )
               a(3) = (   0.481458   0.342294   2.626241 )

     reciprocal axes: (cart. coord. in units 2 pi/alat)
               b(1) = (  1.001403 -0.550525 -0.111830 )
               b(2) = ( -0.001587  1.128908 -0.146847 )
               b(3) = ( -0.001288 -0.002303  0.381309 )

     PseudoPot. # 1 for Mo read from file:
     ~/pseudo/Mo.pw91-n-van.UPF
     MD5 check sum: Not computed, couldn't open file
     Pseudo is Ultrasoft + core correction, Zval =  6.0
     Generated by new atomic code, or converted to UPF format
     Using radial grid of  965 points,  3 beta functions with:
                l(1) =   1
                l(2) =   2
                l(3) =   2
     Q(r) pseudized with  8 coefficients,  rinner =    1.000   1.000   1.000
                                                       1.200   1.200

     PseudoPot. # 2 for S  read from file:
     ~/pseudo/S.pw91-van_ak.UPF
     MD5 check sum: Not computed, couldn't open file
     Pseudo is Ultrasoft, Zval =  6.0
     Generated by new atomic code, or converted to UPF format
     Using radial grid of  811 points,  6 beta functions with:
                l(1) =   0
                l(2) =   0
                l(3) =   1
                l(4) =   1
                l(5) =   2
                l(6) =   2
     Q(r) pseudized with  8 coefficients,  rinner =    1.100   1.100   1.100
                                                       1.100   1.100

     atomic species   valence    mass     pseudopotential
        Mo             6.00    95.50000     Mo( 1.00)
        S              6.00    32.06500     S ( 1.00)

     No symmetry found

   Cartesian axes

     site n.     atom                  positions (alat units)
         1           Mo  tau(   1) = (   0.8455031   0.6586190   2.0797004  )
         2           Mo  tau(   2) = (   0.7458966   0.8645586   1.7111907  )
         3           Mo  tau(   3) = (   0.5529030   0.7498232   0.5824556  )
         4           Mo  tau(   4) = (   1.4426654   0.5466674   1.8565628  )
         5           Mo  tau(   5) = (   0.3088301   0.3057351   0.5784370  )
         6           Mo  tau(   6) = (   0.5432709   0.3373941   2.2213913  )
         7           Mo  tau(   7) = (   1.0532250   0.7507731   0.5844110  )
         8           Mo  tau(   8) = (   0.8085527   0.3066931   0.5805902  )
         9           S   tau(   9) = (   1.0576004   0.4576988   0.3369924  )
        10           S   tau(  10) = (   1.0573151   0.4545020   0.8279399  )
        11           S   tau(  11) = (   0.8022356   0.8997314   0.3384260  )
        12           S   tau(  12) = (   0.8011704   0.8982341   0.8302027  )
        13           S   tau(  13) = (   1.0469208   0.8900328   2.3319694  )
        14           S   tau(  14) = (   0.5761643   0.6466715   1.4976279  )
        15           S   tau(  15) = (   0.5581070   0.4570652   0.3343767  )
        16           S   tau(  16) = (   0.5566118   0.4540993   0.8260545  )
        17           S   tau(  17) = (   1.2111821   0.4443267   2.1384708  )
        18           S   tau(  18) = (   1.2415168   0.3139842   1.6056177  )
        19           S   tau(  19) = (   1.3024361   0.9014005   0.3395287  )
        20           S   tau(  20) = (   1.3013750   0.8988563   0.8322131  )
        21           S   tau(  21) = (   1.5464715   0.8702428   2.0261610  )
        22           S   tau(  22) = (   1.0771378   0.7559134   1.7985471  )
        23           S   tau(  23) = (   0.7117751   0.5563506   2.4345149  )
        24           S   tau(  24) = (   0.7427389   0.3351251   1.9105604  )

     number of k points=     5  Marzari-Vanderbilt smearing, width (Ry)=  0.0200
                       cart. coord. in units 2pi/alat
        k(    1) = (   0.0000000   0.0000000   0.0000000), wk =   0.2222222
        k(    2) = (  -0.0005289   0.3763026  -0.0489489), wk =   0.4444444
        k(    3) = (   0.3338010  -0.1835084  -0.0372766), wk =   0.4444444
        k(    4) = (   0.3332722   0.1927942  -0.0862254), wk =   0.4444444
        k(    5) = (   0.3343299  -0.5598110   0.0116723), wk =   0.4444444

     Initial potential from superposition of free atoms

     starting charge  143.98738, renormalised to  144.00000
     Starting wfcs are  136 randomized atomic wfcs

     Self-consistent Calculation

     iteration #  1     ecut=    45.00 Ry     beta= 0.70
     Davidson diagonalization with overlap
     ethr =  1.00E-02,  avg # of iterations =  2.2

     total energy              =    -562.44237135 Ry
     Harris-Foulkes estimate   =    -564.24348582 Ry
     estimated scf accuracy    <       4.60288145 Ry

[...]

     negative rho (up, down):  1.662E-05 0.000E+00

[...]

     negative rho (up, down):  1.647E-04 0.000E+00

[...]

     iteration # 20     ecut=    45.00 Ry     beta= 0.70
     Davidson diagonalization with overlap
     c_bands:  1 eigenvalues not converged
     ethr =  9.14E-07,  avg # of iterations = 13.2

[...]

     iteration # 21     ecut=    45.00 Ry     beta= 0.70
     Davidson diagonalization with overlap
     c_bands:  2 eigenvalues not converged
     ethr =  1.48E-07,  avg # of iterations =  5.6

[...]

     total energy              =    -563.33806467 Ry
     Harris-Foulkes estimate   =    -563.33806537 Ry
     estimated scf accuracy    <       0.00000306 Ry

     iteration # 26     ecut=    45.00 Ry     beta= 0.70
     Davidson diagonalization with overlap
     ethr =  9.36E-10,  avg # of iterations =  3.0

     End of self-consistent calculation

          k = 0.0000 0.0000 0.0000 ( 20837 PWs)   bands (ev):

    -9.7559  -9.5638  -8.6479  -8.5551  -8.4158  -8.3074  -8.1196  -8.0739
    -8.0626  -8.0286  -8.0076  -7.8349  -7.7669  -7.7217  -7.5749  -7.5726
    -1.4034  -1.3777  -1.3556  -1.2553  -1.2360  -1.1593  -0.6883  -0.5531
    -0.4522  -0.4299  -0.4000  -0.3083  -0.2857  -0.0440   0.2055   0.2178
     0.2315   0.3435   0.3990   0.5864   0.7921   0.8672   0.9491   1.0695
     1.0739   1.1589   1.1949   1.2466   1.3207   1.4405   1.4586   1.7084
     1.7143   1.7379   2.0734   2.2836   2.3591   2.4080   2.4694   2.5296
     2.6235   2.7104   2.7763   2.8216   3.0236   3.0832   3.1927   3.2526
     3.3250   3.3415   3.4894   3.5692   3.6337   3.7331   4.0328   4.2390
     4.8155   5.3246   5.5600   5.5831   6.0315   6.0609   6.1376   6.1614
     6.1668   6.2103   6.3804   6.4543   6.6521   6.6926

          k =-0.0005 0.3763-0.0489 ( 20894 PWs)   bands (ev):

[...]

          k = 0.3343-0.5598 0.0117 ( 20910 PWs)   bands (ev):

    -9.0433  -8.8696  -8.8234  -8.8050  -8.7759  -8.7195  -8.2182  -8.1314
    -8.1065  -8.0837  -8.0490  -8.0243  -7.8383  -7.7026  -7.6839  -7.6184
    -1.2364  -1.0012  -0.8648  -0.7360  -0.6031  -0.5833  -0.5769  -0.4881
    -0.3883  -0.2639  -0.2211   0.0413   0.2293   0.2660   0.2918   0.4084
     0.4211   0.4339   0.4925   0.6214   0.6489   0.6671   0.6877   0.6980
     0.8376   0.9076   1.0912   1.1164   1.1488   1.1968   1.2555   1.3796
     1.5281   1.7567   1.9290   2.0253   2.0902   2.2213   2.2336   2.2451
     2.2597   2.2706   2.4692   2.7006   2.8050   3.0037   3.1392   3.1602
     3.1967   3.3856   3.4208   3.4497   3.6127   4.0044   4.1432   4.3056
     4.6799   5.3203   5.3280   5.4797   5.6187   5.7150   5.8406   6.0343
     6.0594   6.0837   6.1107   6.4140   6.4429   6.4885

     the Fermi energy is     4.3638 ev

!    total energy              =    -563.33806437 Ry
     Harris-Foulkes estimate   =    -563.33806517 Ry
     estimated scf accuracy    <       0.00000082 Ry

     The total energy is the sum of the following terms:

     one-electron contribution =    -277.55739461 Ry
     hartree contribution      =     209.31187972 Ry
     xc contribution           =    -222.36754079 Ry
     ewald contribution        =    -272.73603856 Ry
     smearing contrib. (-TS)   =       0.01102987 Ry

     convergence has been achieved in  26 iterations

     Forces acting on atoms (cartesian axes, Ry/au):

     atom    1 type  1   force =    -0.00145241   -0.00280526   -0.00047990
     atom    2 type  1   force =    -0.00156302   -0.00016708    0.00082343
     atom    3 type  1   force =    -0.00012662   -0.00034727    0.00040619
     atom    4 type  1   force =     0.00204013    0.00023501    0.00196531
     atom    5 type  1   force =    -0.00052092    0.00071646    0.00027659
     atom    6 type  1   force =     0.00146251    0.00006107   -0.00072040
     atom    7 type  1   force =     0.00010766   -0.00099180    0.00037180
     atom    8 type  1   force =     0.00052980    0.00044058    0.00016536
     atom    9 type  2   force =     0.00110338    0.00074289   -0.00235621
     atom   10 type  2   force =    -0.00144921    0.00040849    0.00159656
     atom   11 type  2   force =     0.00145616    0.00084868    0.00023473
     atom   12 type  2   force =    -0.00065516   -0.00134168    0.00056671
     atom   13 type  2   force =    -0.00020525    0.00044504   -0.00317281
     atom   14 type  2   force =     0.00019075    0.00058390   -0.00252628
     atom   15 type  2   force =     0.00054838   -0.00033900   -0.00002104
     atom   16 type  2   force =    -0.00032976   -0.00035441    0.00183559
     atom   17 type  2   force =     0.00096127    0.00288416   -0.00176102
     atom   18 type  2   force =     0.00050169    0.00005059    0.00137682
     atom   19 type  2   force =    -0.00001572    0.00044029    0.00045797
     atom   20 type  2   force =    -0.00087401   -0.00053907    0.00008343
     atom   21 type  2   force =     0.00053070   -0.00042396    0.00153359
     atom   22 type  2   force =    -0.00009569    0.00057256    0.00024273
     atom   23 type  2   force =    -0.00037806   -0.00070624    0.00257555
     atom   24 type  2   force =    -0.00176659   -0.00041397   -0.00347470

     Total force =     0.010362     Total SCF correction =     0.002300
     SCF correction compared to forces is large: reduce conv_thr to get better values

     General routines

     Parallel routines

   This run was terminated on:  10:12:23  28Nov2021

   JOB DONE.