     Program PWSCF v.6.4 starts on  8Sep2021 at 11:45:31

     R & G space division:  proc/nbgrp/npool/nimage =      40
     Waiting for input...
     Reading input from standard input
Warning: card    &IONS ignored
Warning: card      ION_DYNAMICS = 'BFGS' ignored
Warning: card   / ignored
Warning: card    &CELL ignored
Warning: card      CELL_DYNAMICS = 'BFGS', ignored
Warning: card    / ignored

     Current dimensions of program PWSCF are:
     Max number of different atomic species (ntypx) = 10
     Max number of k-points (npk) =  40000
     Max angular momentum in pseudopotentials (lmaxx) =  3

     bravais-lattice index     =            0
     lattice parameter (alat)  =      12.1918  a.u.
     unit-cell volume          =    3014.1851 (a.u.)^3
     number of atoms/cell      =           24
     number of atomic types    =            2
     number of electrons       =       144.00
     number of Kohn-Sham states=           86
     kinetic-energy cutoff     =      45.0000  Ry
     charge density cutoff     =     360.0000  Ry
     convergence threshold     =      1.0E-06
     mixing beta               =       0.7000
     number of iterations used =            8  local-TF  mixing
     Exchange-correlation      = SLA PW GGX GGC ( 1  4  2  2 0 0)

     celldm(1)=  12.191796  celldm(2)=   0.000000  celldm(3)=   0.000000
     celldm(4)=   0.000000  celldm(5)=   0.000000  celldm(6)=   0.000000

     crystal axes: (cart. coord. in units of alat)
               a(1) = (   0.999975   0.007059   0.000007 )
               a(2) = (  -0.506364   0.862320  -0.000007 )
               a(3) = (   0.000011  -0.000007   1.920935 )

     reciprocal axes: (cart. coord. in units 2 pi/alat)
               b(1) = (  0.995897  0.584801 -0.000004 )
               b(2) = ( -0.008153  1.154875  0.000004 )
               b(3) = ( -0.000003  0.000002  0.520580 )

     PseudoPot. # 1 for Mo read from file:
     ~/pseudo/Mo.pw91-n-van.UPF
     MD5 check sum: Not computed, couldn't open file
     Pseudo is Ultrasoft + core correction, Zval =  6.0
     Generated by new atomic code, or converted to UPF format
     Using radial grid of  965 points,  3 beta functions with:
                l(1) =   1
                l(2) =   2
                l(3) =   2
     Q(r) pseudized with  8 coefficients,  rinner =    1.000   1.000   1.000
                                                       1.200   1.200

     PseudoPot. # 2 for S  read from file:
     ~/pseudo/S.pw91-van_ak.UPF
     MD5 check sum: Not computed, couldn't open file
     Pseudo is Ultrasoft, Zval =  6.0
     Generated by new atomic code, or converted to UPF format
     Using radial grid of  811 points,  6 beta functions with:
                l(1) =   0
                l(2) =   0
                l(3) =   1
                l(4) =   1
                l(5) =   2
                l(6) =   2
     Q(r) pseudized with  8 coefficients,  rinner =    1.100   1.100   1.100
                                                       1.100   1.100

     atomic species   valence    mass     pseudopotential
        Mo             6.00    95.50000     Mo( 1.00)
        S              6.00    32.06500     S ( 1.00)

      2 Sym. Ops., with inversion, found

   Cartesian axes

     site n.     atom                  positions (alat units)
         1           Mo  tau(   1) = (  -0.0000339   0.0000187   1.4407552  )
         2           Mo  tau(   2) = (  -0.2532135   0.4311898   1.4407518  )
         3           Mo  tau(   3) = (   0.4999458   0.0035411   1.4407582  )
         4           Mo  tau(   4) = (   0.2467572   0.4347172   1.4407562  )
         5           Mo  tau(   5) = (   0.0000450  -0.0000253   0.4801793  )
         6           Mo  tau(   6) = (  -0.2531390   0.4311237   0.4801761  )
         7           Mo  tau(   7) = (   0.5000404   0.0035116   0.4801830  )
         8           Mo  tau(   8) = (   0.2468654   0.4346556   0.4801783  )
         9           S   tau(   9) = (   0.2486017   0.1462703   1.6843676  )
        10           S   tau(  10) = (  -0.0045625   0.5774107   1.6844303  )
        11           S   tau(  11) = (   0.7485618   0.1498045   1.6844093  )
        12           S   tau(  12) = (   0.4953977   0.5809447   1.6843685  )
        13           S   tau(  13) = (  -0.0017751   0.2884281   0.2365660  )
        14           S   tau(  14) = (  -0.2549392   0.7195683   0.2365252  )
        15           S   tau(  15) = (   0.4981851   0.2919620   0.2365042  )
        16           S   tau(  16) = (   0.2450209   0.7231025   0.2365669  )
        17           S   tau(  17) = (  -0.0017708   0.2884491   0.7240061  )
        18           S   tau(  18) = (  -0.2549210   0.7195580   0.7240285  )
        19           S   tau(  19) = (   0.4981898   0.2919596   0.7241065  )
        20           S   tau(  20) = (   0.2450052   0.7230881   0.7240053  )
        21           S   tau(  21) = (   0.2486174   0.1462847   1.1969292  )
        22           S   tau(  22) = (  -0.0045672   0.5774131   1.1968280  )
        23           S   tau(  23) = (   0.7485436   0.1498148   1.1969059  )
        24           S   tau(  24) = (   0.4953933   0.5809237   1.1969284  )

     number of k points=    10  Marzari-Vanderbilt smearing, width (Ry)=  0.0200
                       cart. coord. in units 2pi/alat
        k(    1) = (   0.0000000   0.0000000   0.0000000), wk =   0.1111111
        k(    2) = (   0.0000017  -0.0000010  -0.2602900), wk =   0.1111111
        k(    3) = (  -0.0027176   0.3849583   0.0000013), wk =   0.2222222
        k(    4) = (  -0.0027159   0.3849573  -0.2602886), wk =   0.2222222
        k(    5) = (   0.3319655   0.1949337  -0.0000013), wk =   0.2222222
        k(    6) = (   0.3319672   0.1949327  -0.2602912), wk =   0.2222222
        k(    7) = (   0.3292479   0.5798920   0.0000001), wk =   0.2222222
        k(    8) = (   0.3292496   0.5798910  -0.2602899), wk =   0.2222222
        k(    9) = (   0.3346831  -0.1900246  -0.0000026), wk =   0.2222222
        k(   10) = (   0.3346848  -0.1900256  -0.2602926), wk =   0.2222222

     Initial potential from superposition of free atoms

     starting charge  143.98738, renormalised to  144.00000
     Starting wfcs are  136 randomized atomic wfcs

     Self-consistent Calculation

     iteration #  1     ecut=    45.00 Ry     beta= 0.70
     Davidson diagonalization with overlap
     ethr =  1.00E-02,  avg # of iterations =  2.0

     total energy              =    -562.79638512 Ry
     Harris-Foulkes estimate   =    -564.54142476 Ry
     estimated scf accuracy    <       4.47466283 Ry

[...]

     iteration #  6     ecut=    45.00 Ry     beta= 0.70
     Davidson diagonalization with overlap
     c_bands:  2 eigenvalues not converged
     c_bands:  1 eigenvalues not converged
     ethr =  4.23E-07,  avg # of iterations = 11.0

[...]

     total energy              =    -563.67244393 Ry
     Harris-Foulkes estimate   =    -563.67244458 Ry
     estimated scf accuracy    <       0.00000262 Ry

     iteration # 12     ecut=    45.00 Ry     beta= 0.70
     Davidson diagonalization with overlap
     ethr =  1.82E-09,  avg # of iterations =  3.0

     End of self-consistent calculation

          k = 0.0000 0.0000 0.0000 ( 15341 PWs)   bands (ev):

    -6.4904  -6.2371  -5.3650  -4.9544  -4.6958  -4.6938  -4.6926  -4.6133
    -4.6096  -4.6082  -4.4285  -4.4282  -4.4252  -4.3085  -4.3079  -4.3069
     1.6573   1.9334   1.9342   1.9343   2.0315   2.0321   2.0348   2.6507
     2.7250   2.7282   2.7285   3.1858   3.1895   3.1899   3.6071   3.6146
     3.6156   3.6700   3.6704   3.6715   4.4714   4.4737   4.4744   4.5503
     4.5528   4.5535   5.0067   5.0149   5.0158   5.0262   5.0341   5.2291
     5.2300   5.2369   6.1179   6.1297   6.1354   6.1479   6.3641   6.3644
     6.3674   6.5489   6.5493   6.5504   6.7422   6.7428   6.7432   6.8007
     6.8017   6.8059   7.1558   7.1564   7.1597   7.2308   7.2496   8.3079
     9.6060   9.6063   9.6088   9.6560   9.6563   9.6594  10.1379  10.1382
    10.1382  10.1907  10.1909  10.1915  10.2194  10.2441

[...]

          k =-0.0027 0.3850 0.0000 ( 15329 PWs)   bands (ev):

[...]

          k =-0.0027 0.3850-0.2603 ( 15377 PWs)   bands (ev):

[...]

          k = 0.3347-0.1900-0.2603 ( 15376 PWs)   bands (ev):

    -6.0239  -6.0238  -5.1850  -5.1846  -4.9702  -4.9690  -4.6845  -4.6837
    -4.6833  -4.6825  -4.5785  -4.5773  -4.3452  -4.3447  -4.3440  -4.3435
     2.4291   2.4295   2.4299   2.4302   2.4511   2.4513   2.4811   2.4820
     2.8530   2.8532   2.8540   2.8543   3.4181   3.4204   3.8338   3.8343
     3.8345   3.8351   3.9114   3.9127   4.2936   4.2944   4.5004   4.5008
     4.5011   4.5016   4.8221   4.8223   4.8987   4.9000   5.2986   5.2987
     5.2994   5.2996   5.4179   5.4191   5.6009   5.6022   5.9084   5.9088
     5.9098   5.9101   5.9567   5.9604   6.2485   6.2490   6.4891   6.4934
     6.8136   6.8157   7.1599   7.1603   7.1603   7.1607   7.5369   7.5403
     9.6643   9.6645   9.6656   9.6659   9.6705   9.6711   9.8065   9.8097
     9.8246   9.8297  10.0981  10.0996  10.1471  10.1482

     the Fermi energy is     8.4666 ev

!    total energy              =    -563.67244447 Ry
     Harris-Foulkes estimate   =    -563.67244453 Ry
     estimated scf accuracy    <       0.00000008 Ry

     The total energy is the sum of the following terms:

     one-electron contribution =      45.30948293 Ry
     hartree contribution      =      66.52954960 Ry
     xc contribution           =    -222.88095077 Ry
     ewald contribution        =    -452.63125961 Ry
     smearing contrib. (-TS)   =       0.00073338 Ry

     convergence has been achieved in  12 iterations

     Forces acting on atoms (cartesian axes, Ry/au):

     atom    1 type  1   force =    -0.00167921    0.00095383   -0.00090165
     atom    2 type  1   force =    -0.00151355    0.00083623   -0.00083377
     atom    3 type  1   force =    -0.00149321    0.00087153   -0.00083311
     atom    4 type  1   force =    -0.00153343    0.00087004   -0.00085025
     atom    5 type  1   force =     0.00167921   -0.00095383    0.00090165
     atom    6 type  1   force =     0.00151355   -0.00083623    0.00083377
     atom    7 type  1   force =     0.00149321   -0.00087153    0.00083311
     atom    8 type  1   force =     0.00153343   -0.00087004    0.00085025
     atom    9 type  2   force =     0.00081730   -0.00046155   -0.00110421
     atom   10 type  2   force =     0.00072461   -0.00041188   -0.00072303
     atom   11 type  2   force =     0.00086763   -0.00049202   -0.00129577
     atom   12 type  2   force =     0.00081596   -0.00046537   -0.00110570
     atom   13 type  2   force =    -0.00081596    0.00046537    0.00110570
     atom   14 type  2   force =    -0.00086763    0.00049202    0.00129577
     atom   15 type  2   force =    -0.00072461    0.00041188    0.00072303
     atom   16 type  2   force =    -0.00081730    0.00046155    0.00110421
     atom   17 type  2   force =    -0.00083356    0.00039595   -0.00196358
     atom   18 type  2   force =    -0.00093604    0.00053057   -0.00210168
     atom   19 type  2   force =    -0.00075048    0.00042614   -0.00168489
     atom   20 type  2   force =    -0.00076621    0.00051227   -0.00196184
     atom   21 type  2   force =     0.00076621   -0.00051227    0.00196184
     atom   22 type  2   force =     0.00075048   -0.00042614    0.00168489
     atom   23 type  2   force =     0.00093604   -0.00053057    0.00210168
     atom   24 type  2   force =     0.00083356   -0.00039595    0.00196358

     Total force =     0.009209     Total SCF correction =     0.000365

     General routines

     Parallel routines

   This run was terminated on:  11:46:31   8Sep2021

   JOB DONE.