     Program PWSCF v.6.4 starts on 14Oct2021 at 11:20:50

     R & G space division:  proc/nbgrp/npool/nimage =      40
     Waiting for input...
     Reading input from standard input
Warning: card    &IONS ignored
Warning: card      ION_DYNAMICS = 'BFGS' ignored
Warning: card   / ignored
Warning: card    &CELL ignored
Warning: card      CELL_DYNAMICS = 'BFGS', ignored
Warning: card    / ignored

     Current dimensions of program PWSCF are:
     Max number of different atomic species (ntypx) = 10
     Max number of k-points (npk) =  40000
     Max angular momentum in pseudopotentials (lmaxx) =  3

     bravais-lattice index     =            0
     lattice parameter (alat)  =      12.8545  a.u.
     unit-cell volume          =    5963.9209 (a.u.)^3
     number of atoms/cell      =           24
     number of atomic types    =            2
     number of electrons       =       144.00
     number of Kohn-Sham states=           86
     kinetic-energy cutoff     =      45.0000  Ry
     charge density cutoff     =     360.0000  Ry
     convergence threshold     =      1.0E-06
     mixing beta               =       0.7000
     number of iterations used =            8  local-TF  mixing
     Exchange-correlation      = SLA PW GGX GGC ( 1  4  2  2 0 0)

     celldm(1)=  12.854462  celldm(2)=   0.000000  celldm(3)=   0.000000
     celldm(4)=   0.000000  celldm(5)=   0.000000  celldm(6)=   0.000000

     crystal axes: (cart. coord. in units of alat)
               a(1) = (   1.000000   0.000000   0.000000 )
               a(2) = (   0.561583   0.817360   0.000000 )
               a(3) = (  -0.730050   0.689305   3.435237 )

     reciprocal axes: (cart. coord. in units 2 pi/alat)
               b(1) = (  1.000000 -0.687069  0.350383 )
               b(2) = (  0.000000  1.223451 -0.245494 )
               b(3) = (  0.000000  0.000000  0.291101 )

     PseudoPot. # 1 for Mo read from file:
     ~/pseudo/Mo.pw91-n-van.UPF
     MD5 check sum: Not computed, couldn't open file
     Pseudo is Ultrasoft + core correction, Zval =  6.0
     Generated by new atomic code, or converted to UPF format
     Using radial grid of  965 points,  3 beta functions with:
                l(1) =   1
                l(2) =   2
                l(3) =   2
     Q(r) pseudized with  8 coefficients,  rinner =    1.000   1.000   1.000
                                                       1.200   1.200

     PseudoPot. # 2 for S  read from file:
     ~/pseudo/S.pw91-van_ak.UPF
     MD5 check sum: Not computed, couldn't open file
     Pseudo is Ultrasoft, Zval =  6.0
     Generated by new atomic code, or converted to UPF format
     Using radial grid of  811 points,  6 beta functions with:
                l(1) =   0
                l(2) =   0
                l(3) =   1
                l(4) =   1
                l(5) =   2
                l(6) =   2
     Q(r) pseudized with  8 coefficients,  rinner =    1.100   1.100   1.100
                                                       1.100   1.100

     atomic species   valence    mass     pseudopotential
        Mo             6.00    95.50000     Mo( 1.00)
        S              6.00    32.06500     S ( 1.00)

     No symmetry found

   Cartesian axes

     site n.     atom                  positions (alat units)
         1           Mo  tau(   1) = (   1.1914754   0.9311535   1.2323919  )
         2           Mo  tau(   2) = (   1.6794447   0.9445637   1.2210065  )
         3           Mo  tau(   3) = (   1.3932186   0.5504650   1.2235188  )
         4           Mo  tau(   4) = (   0.9146854   0.5481804   1.2207424  )
         5           Mo  tau(   5) = (  -0.3616825   0.5742918   2.2134314  )
         6           Mo  tau(   6) = (  -0.8755111   0.5251179   2.2230512  )
         7           Mo  tau(   7) = (  -0.5678186   0.9755329   2.2222271  )
         8           Mo  tau(   8) = (  -0.1219432   0.9802221   2.2269155  )
         9           S   tau(   9) = (   1.2251567   1.2268189   1.0143102  )
        10           S   tau(  10) = (   1.7149647   1.2290890   0.9842861  )
        11           S   tau(  11) = (   1.4246711   0.8158225   0.9858973  )
        12           S   tau(  12) = (   0.9239136   0.8194104   0.9869511  )
        13           S   tau(  13) = (  -0.1144363   0.6841602   2.4395816  )
        14           S   tau(  14) = (  -0.6193091   0.6826743   2.4397696  )
        15           S   tau(  15) = (  -0.9190211   0.2600932   2.4709007  )
        16           S   tau(  16) = (  -0.4019061   0.2938888   2.4408311  )
        17           S   tau(  17) = (  -0.1138515   0.6980677   1.9910825  )
        18           S   tau(  18) = (  -0.6238998   0.6910582   1.9885155  )
        19           S   tau(  19) = (  -0.9011672   0.2763838   1.9807438  )
        20           S   tau(  20) = (  -0.4072179   0.2822786   1.9948838  )
        21           S   tau(  21) = (   1.2257600   1.2344417   1.4386612  )
        22           S   tau(  22) = (   1.7000799   1.2251471   1.4598055  )
        23           S   tau(  23) = (   1.4347407   0.8122859   1.4728163  )
        24           S   tau(  24) = (   0.9222477   0.8219444   1.4592078  )

     number of k points=     5  Marzari-Vanderbilt smearing, width (Ry)=  0.0200
                       cart. coord. in units 2pi/alat
        k(    1) = (   0.0000000   0.0000000   0.0000000), wk =   0.2222222
        k(    2) = (   0.0000000   0.4078170  -0.0818314), wk =   0.4444444
        k(    3) = (   0.3333333  -0.2290231   0.1167944), wk =   0.4444444
        k(    4) = (   0.3333333   0.1787939   0.0349631), wk =   0.4444444
        k(    5) = (   0.3333333  -0.6368401   0.1986258), wk =   0.4444444

     Initial potential from superposition of free atoms

     starting charge  143.98738, renormalised to  144.00000

     negative rho (up, down):  6.919E-04 0.000E+00
     Starting wfcs are  136 randomized atomic wfcs

     Self-consistent Calculation

     iteration #  1     ecut=    45.00 Ry     beta= 0.70
     Davidson diagonalization with overlap
     ethr =  1.00E-02,  avg # of iterations =  2.0

     negative rho (up, down):  9.146E-05 0.000E+00

     total energy              =    -562.38408687 Ry
     Harris-Foulkes estimate   =    -564.37987078 Ry
     estimated scf accuracy    <       5.20642894 Ry

[...]

     iteration #  6     ecut=    45.00 Ry     beta= 0.70
     Davidson diagonalization with overlap
     c_bands:  1 eigenvalues not converged
     ethr =  1.23E-05,  avg # of iterations =  9.4

[...]

     total energy              =    -563.41308991 Ry
     Harris-Foulkes estimate   =    -563.41308734 Ry
     estimated scf accuracy    <       0.00000195 Ry

     iteration # 16     ecut=    45.00 Ry     beta= 0.70
     Davidson diagonalization with overlap
     ethr =  1.35E-09,  avg # of iterations =  3.0

[...]

     End of self-consistent calculation

          k = 0.0000 0.0000 0.0000 ( 30425 PWs)   bands (ev):

   -12.9973 -12.7410 -11.9433 -11.6084 -11.6020 -11.5105 -11.4383 -11.3357
   -11.2303 -11.1905 -11.1311 -11.0707 -11.0408 -10.7779 -10.6261 -10.5893
    -4.7664  -4.6131  -4.5477  -4.4170  -4.4043  -4.3711  -4.2826  -4.1116
    -3.9124  -3.6212  -3.5312  -3.4546  -3.4100  -3.2735  -3.1982  -3.0652
    -2.9431  -2.8594  -2.7997  -2.7435  -2.6869  -2.3791  -2.2958  -2.1914
    -2.1696  -1.9463  -1.7635  -1.5891  -1.4704  -1.3798  -1.3407  -1.2478
    -1.1590  -0.9909  -0.8833  -0.7905  -0.7600  -0.6584  -0.5790  -0.5452
    -0.4109  -0.3664  -0.2731  -0.1993  -0.0496   0.0042   0.0389   0.1121
     0.2375   0.3026   0.3780   0.5014   0.5785   0.7850   0.8532   1.1525
     1.9531   2.2314   2.4532   2.4543   2.5225   2.7817   2.8853   2.9234
     3.0278   3.1796   3.2385   3.2605   3.3383   3.4606

[...]

          k = 0.3333-0.6368 0.1986 ( 30412 PWs)   bands (ev):

   -12.3326 -12.0719 -12.0441 -11.9770 -11.8412 -11.7916 -11.7531 -11.3154
   -11.2949 -11.2222 -11.2057 -11.1455 -11.0314 -10.9831 -10.7359 -10.6596
    -4.1842  -4.0911  -3.9931  -3.9015  -3.6959  -3.6397  -3.5885  -3.5054
    -3.4102  -3.3103  -3.2396  -3.0685  -3.0127  -2.9974  -2.9300  -2.8641
    -2.8243  -2.7783  -2.7488  -2.6862  -2.6460  -2.5823  -2.5210  -2.4269
    -2.3520  -2.2804  -2.2141  -2.1100  -2.0530  -1.7885  -1.7624  -1.6920
    -1.6734  -1.5996  -1.5671  -1.1924  -1.1688  -0.9941  -0.9667  -0.9374
    -0.8007  -0.7075  -0.3384  -0.2755  -0.2663  -0.1706  -0.0621  -0.0196
     0.0234   0.0393   0.1493   0.2627   0.3501   0.4038   1.0420   1.1276
     1.5339   1.8568   2.1725   2.2161   2.4204   2.5267   2.6677   2.7251
     2.8637   2.9515   2.9926   3.0883   3.1224   3.2072

     the Fermi energy is     1.2311 ev

!    total energy              =    -563.41309013 Ry
     Harris-Foulkes estimate   =    -563.41309022 Ry
     estimated scf accuracy    <       0.00000081 Ry

     The total energy is the sum of the following terms:

     one-electron contribution =   -2999.41325647 Ry
     hartree contribution      =    1553.32246485 Ry
     xc contribution           =    -221.98998257 Ry
     ewald contribution        =    1104.65736834 Ry
     smearing contrib. (-TS)   =       0.01031572 Ry

     convergence has been achieved in  16 iterations

     negative rho (up, down):  9.566E-04 0.000E+00

     Forces acting on atoms (cartesian axes, Ry/au):

     atom    1 type  1   force =    -0.01453555    0.09404448   -0.01180030
     atom    2 type  1   force =     0.00763613    0.03652777    0.00868998
     atom    3 type  1   force =     0.07085352   -0.04579969    0.02082461
     atom    4 type  1   force =     0.00818223    0.00997431    0.00817744
     atom    5 type  1   force =    -0.07379054   -0.08281662   -0.01522819
     atom    6 type  1   force =    -0.01672873    0.11978907   -0.00724327
     atom    7 type  1   force =    -0.15392492   -0.05508270   -0.04054284
     atom    8 type  1   force =     0.11498165   -0.08613633   -0.01516492
     atom    9 type  2   force =    -0.04509484   -0.02122758   -0.02487119
     atom   10 type  2   force =    -0.01154877   -0.01293306    0.03439835
     atom   11 type  2   force =     0.00052940   -0.00732275    0.02681623
     atom   12 type  2   force =     0.01291316   -0.00246421    0.02831294
     atom   13 type  2   force =     0.01245089    0.02063506    0.02387990
     atom   14 type  2   force =     0.01024151    0.01580619    0.00385298
     atom   15 type  2   force =     0.03902330    0.04464209    0.02392834
     atom   16 type  2   force =     0.01472859   -0.00185668   -0.00795676
     atom   17 type  2   force =     0.02143931    0.00113943    0.01391195
     atom   18 type  2   force =     0.01551386    0.00407924    0.02629698
     atom   19 type  2   force =    -0.00617365    0.00255732   -0.02469291
     atom   20 type  2   force =     0.02156589    0.01519332    0.02519723
     atom   21 type  2   force =    -0.04072825   -0.02558501    0.01722006
     atom   22 type  2   force =     0.01692989   -0.00603716   -0.03709509
     atom   23 type  2   force =    -0.01361805   -0.00310323   -0.04919420
     atom   24 type  2   force =     0.00915397   -0.01402326   -0.02771732

     Total force =     0.344520     Total SCF correction =     0.002094

     General routines

     Parallel routines

   This run was terminated on:  11:21:57  14Oct2021

   JOB DONE.