     Program PWSCF v.6.4 starts on 18Oct2021 at 13:59:52

     R & G space division:  proc/nbgrp/npool/nimage =      40
     Waiting for input...
     Reading input from standard input
Warning: card    &IONS ignored
Warning: card      ION_DYNAMICS = 'BFGS' ignored
Warning: card   / ignored
Warning: card    &CELL ignored
Warning: card      CELL_DYNAMICS = 'BFGS', ignored
Warning: card    / ignored

     Current dimensions of program PWSCF are:
     Max number of different atomic species (ntypx) = 10
     Max number of k-points (npk) =  40000
     Max angular momentum in pseudopotentials (lmaxx) =  3

     bravais-lattice index     =            0
     lattice parameter (alat)  =       6.0922  a.u.
     unit-cell volume          =    5032.6935 (a.u.)^3
     number of atoms/cell      =           24
     number of atomic types    =            2
     number of electrons       =       144.00
     number of Kohn-Sham states=           86
     kinetic-energy cutoff     =      45.0000  Ry
     charge density cutoff     =     360.0000  Ry
     convergence threshold     =      1.0E-06
     mixing beta               =       0.7000
     number of iterations used =            8  local-TF  mixing
     Exchange-correlation      = SLA PW GGX GGC ( 1  4  2  2 0 0)

     celldm(1)=   6.092188  celldm(2)=   0.000000  celldm(3)=   0.000000
     celldm(4)=   0.000000  celldm(5)=   0.000000  celldm(6)=   0.000000

     crystal axes: (cart. coord. in units of alat)
               a(1) = (   1.000000   0.000000   0.000000 )
               a(2) = (   0.005715   1.740019   0.000000 )
               a(3) = (   0.601297   0.758638  12.791653 )

     reciprocal axes: (cart. coord. in units 2 pi/alat)
               b(1) = (  1.000000 -0.003284 -0.046812 )
               b(2) = (  0.000000  0.574706 -0.034084 )
               b(3) = (  0.000000  0.000000  0.078176 )

     PseudoPot. # 1 for Mo read from file:
     ~/pseudo/Mo.pw91-n-van.UPF
     MD5 check sum: Not computed, couldn't open file
     Pseudo is Ultrasoft + core correction, Zval =  6.0
     Generated by new atomic code, or converted to UPF format
     Using radial grid of  965 points,  3 beta functions with:
                l(1) =   1
                l(2) =   2
                l(3) =   2
     Q(r) pseudized with  8 coefficients,  rinner =    1.000   1.000   1.000
                                                       1.200   1.200

     PseudoPot. # 2 for S  read from file:
     ~/pseudo/S.pw91-van_ak.UPF
     MD5 check sum: Not computed, couldn't open file
     Pseudo is Ultrasoft, Zval =  6.0
     Generated by new atomic code, or converted to UPF format
     Using radial grid of  811 points,  6 beta functions with:
                l(1) =   0
                l(2) =   0
                l(3) =   1
                l(4) =   1
                l(5) =   2
                l(6) =   2
     Q(r) pseudized with  8 coefficients,  rinner =    1.100   1.100   1.100
                                                       1.100   1.100

     atomic species   valence    mass     pseudopotential
        Mo             6.00    95.50000     Mo( 1.00)
        S              6.00    32.06500     S ( 1.00)

     No symmetry found

   Cartesian axes

     site n.     atom                  positions (alat units)
         1           Mo  tau(   1) = (   0.7302458   1.4769359   2.8788047  )
         2           Mo  tau(   2) = (   0.5820032   1.3712346   7.1939948  )
         3           Mo  tau(   3) = (   0.2270079   0.6049951   2.9185921  )
         4           Mo  tau(   4) = (   1.0816315   0.4992600   7.2075165  )
         5           Mo  tau(   5) = (   0.3056451   2.3643521   5.0650919  )
         6           Mo  tau(   6) = (   0.6147787   1.5615822  10.4258080  )
         7           Mo  tau(   7) = (   0.8249740   1.5046384   4.9816552  )
         8           Mo  tau(   8) = (   1.0899800   0.7042347  10.5250196  )
         9           S   tau(   9) = (   0.2385578   1.1790380   3.4399087  )
        10           S   tau(  10) = (   1.0247145   1.0568532   7.6469500  )
        11           S   tau(  11) = (   0.7386498   2.0766337   3.3430116  )
        12           S   tau(  12) = (   0.6068164   0.1591565   7.7348560  )
        13           S   tau(  13) = (   0.7392292   0.9091898   5.4964497  )
        14           S   tau(  14) = (   1.1106576   1.8641309  10.9927270  )
        15           S   tau(  15) = (   0.2754546   1.7523630   5.5552812  )
        16           S   tau(  16) = (   0.5852859   0.9574215  10.9713589  )
        17           S   tau(  17) = (   0.2187923   1.2345429   2.4533265  )
        18           S   tau(  18) = (   1.0192053   1.0224276   6.6751341  )
        19           S   tau(  19) = (   0.7357932   2.0607653   2.4268990  )
        20           S   tau(  20) = (   0.5684095   0.1895904   6.7523851  )
        21           S   tau(  21) = (   0.7839843   0.9690154   4.5157137  )
        22           S   tau(  22) = (   1.1042353   1.8746342   9.9577915  )
        23           S   tau(  23) = (   0.2908973   1.7595590   4.5332587  )
        24           S   tau(  24) = (   0.5893516   0.9883417   9.9444860  )

     number of k points=     8  Marzari-Vanderbilt smearing, width (Ry)=  0.0200
                       cart. coord. in units 2pi/alat
        k(    1) = (   0.0000000   0.0000000   0.0000000), wk =   0.1333333
        k(    2) = (   0.0000000   0.1915688  -0.0113614), wk =   0.2666667
        k(    3) = (   0.2000000  -0.0006569  -0.0093624), wk =   0.2666667
        k(    4) = (   0.2000000   0.1909119  -0.0207239), wk =   0.2666667
        k(    5) = (   0.2000000  -0.1922256   0.0019990), wk =   0.2666667
        k(    6) = (   0.4000000  -0.0013137  -0.0187249), wk =   0.2666667
        k(    7) = (   0.4000000   0.1902550  -0.0300863), wk =   0.2666667
        k(    8) = (   0.4000000  -0.1928825  -0.0073635), wk =   0.2666667

     Initial potential from superposition of free atoms

     starting charge  143.98738, renormalised to  144.00000

     negative rho (up, down):  3.592E-04 0.000E+00
     Starting wfcs are  136 randomized atomic wfcs

     Self-consistent Calculation

     iteration #  1     ecut=    45.00 Ry     beta= 0.70
     Davidson diagonalization with overlap
     ethr =  1.00E-02,  avg # of iterations =  2.0

     negative rho (up, down):  2.035E-05 0.000E+00

     total energy              =    -562.43313692 Ry
     Harris-Foulkes estimate   =    -564.22789751 Ry
     estimated scf accuracy    <       4.65012577 Ry

[...]

     iteration #  9     ecut=    45.00 Ry     beta= 0.70
     Davidson diagonalization with overlap
     c_bands:  1 eigenvalues not converged
     ethr =  2.14E-06,  avg # of iterations =  3.4

[...]

     iteration # 10     ecut=    45.00 Ry     beta= 0.70
     Davidson diagonalization with overlap
     c_bands:  1 eigenvalues not converged
     ethr =  1.48E-06,  avg # of iterations = 10.8

[...]

     total energy              =    -563.33938949 Ry
     Harris-Foulkes estimate   =    -563.33938761 Ry
     estimated scf accuracy    <       0.00000187 Ry

     iteration # 19     ecut=    45.00 Ry     beta= 0.70
     Davidson diagonalization with overlap
     ethr =  1.30E-09,  avg # of iterations =  6.9

[...]

     End of self-consistent calculation

          k = 0.0000 0.0000 0.0000 ( 25751 PWs)   bands (ev):

   -12.2168 -11.7341 -11.7039 -11.4604 -10.9131 -10.6884 -10.5253 -10.5130
   -10.4615  -9.9892  -9.9421  -9.8305  -9.7740  -9.7497  -9.7042  -9.5706
    -3.7585  -3.6448  -3.3881  -3.3546  -3.2037  -3.1337  -3.0702  -2.9795
    -2.8145  -2.4818  -2.2974  -2.2935  -2.2507  -1.8561  -1.8141  -1.6083
    -1.5858  -1.1233  -1.0931  -1.0172  -0.8334  -0.6866  -0.5599  -0.4713
    -0.3255  -0.2707  -0.2136  -0.0933  -0.0409   0.1107   0.1780   0.2067
     0.2615   0.2833   0.3177   0.3710   0.5293   0.5701   0.6249   0.6385
     0.7319   0.8460   0.8773   1.0212   1.3611   1.6822   1.7520   1.8688
     1.9448   1.9865   2.0152   2.1728   2.1802   2.2548   2.4338   2.5359
     3.6049   3.6660   3.7996   4.1113   4.1972   4.2163   4.4477   4.5167
     4.5238   4.6283   4.6586   4.6707   4.7052   4.7755

[...]

          k = 0.4000-0.1929-0.0074 ( 25553 PWs)   bands (ev):

   -10.8820 -10.6160 -10.4393 -10.3279 -10.2125 -10.1913 -10.1569 -10.1153
    -9.8402  -9.7924  -9.7646  -9.5712  -9.5567  -9.5491  -9.5002  -9.4255
    -3.6536  -3.4338  -3.2386  -3.1386  -2.9819  -2.9582  -2.9480  -2.8982
    -2.7853  -2.5300  -2.5274  -2.5016  -2.3386  -2.2149  -2.0844  -1.9897
    -1.9845  -1.7729  -1.7436  -1.6926  -1.5262  -1.4074  -1.3148  -1.3102
    -1.2690  -1.0587  -1.0109  -0.9975  -0.6577  -0.5934  -0.5347  -0.4700
    -0.1148   0.0505   0.1913   0.2260   0.2526   0.2589   0.3793   0.4100
     0.4834   0.5080   0.5584   0.6832   0.7272   0.9577   1.0539   1.1105
     1.2222   1.5015   1.5669   1.7079   1.7988   1.9129   2.0303   2.1070
     3.7117   3.8541   3.9418   3.9948   4.0190   4.0769   4.1363   4.1859
     4.2931   4.2936   4.3434   4.3777   4.4255   4.4849

     the Fermi energy is     2.4672 ev

!    total energy              =    -563.33938793 Ry
     Harris-Foulkes estimate   =    -563.33938990 Ry
     estimated scf accuracy    <       0.00000056 Ry

     The total energy is the sum of the following terms:

     one-electron contribution =   -3589.95071995 Ry
     hartree contribution      =    1855.37447202 Ry
     xc contribution           =    -222.68255358 Ry
     ewald contribution        =    1393.90448029 Ry
     smearing contrib. (-TS)   =       0.01493329 Ry

     convergence has been achieved in  19 iterations

     negative rho (up, down):  4.884E-04 0.000E+00

     Forces acting on atoms (cartesian axes, Ry/au):

     atom    1 type  1   force =    -0.01997236    0.04688797    0.20946453
     atom    2 type  1   force =    -0.11716184   -0.07960117   -0.02301596
     atom    3 type  1   force =     0.01685350    0.09111962   -0.08570964
     atom    4 type  1   force =    -0.02115274   -0.08916104    0.02346579
     atom    5 type  1   force =    -0.11185982   -0.05257581   -0.16022381
     atom    6 type  1   force =    -0.02638799    0.01285651    0.09040728
     atom    7 type  1   force =    -0.10788858   -0.01924629    0.18351311
     atom    8 type  1   force =    -0.00047901   -0.05043845   -0.18079468
     atom    9 type  2   force =    -0.00653597    0.01481459   -0.06827804
     atom   10 type  2   force =     0.08426679    0.03345639    0.08266503
     atom   11 type  2   force =    -0.01314365   -0.06841730    0.11599795
     atom   12 type  2   force =    -0.01646746    0.04487572   -0.04904857
     atom   13 type  2   force =     0.11225460    0.05936964    0.07848812
     atom   14 type  2   force =    -0.00021370   -0.03812307   -0.06312192
     atom   15 type  2   force =     0.03234340    0.02672313   -0.06725286
     atom   16 type  2   force =     0.01310321    0.08143202    0.04125545
     atom   17 type  2   force =     0.02777503   -0.10293851   -0.12634667
     atom   18 type  2   force =     0.04922072    0.04917493    0.02940547
     atom   19 type  2   force =    -0.00484574    0.01828743   -0.04684019
     atom   20 type  2   force =     0.02142785    0.04130689   -0.06171034
     atom   21 type  2   force =     0.01476158   -0.10474763    0.01284811
     atom   22 type  2   force =     0.00962322    0.00962564    0.03889346
     atom   23 type  2   force =     0.05960826    0.09038665   -0.04697675
     atom   24 type  2   force =     0.00487069   -0.01506783    0.07291513

     Total force =     0.618426     Total SCF correction =     0.002131

     General routines

     Parallel routines

   This run was terminated on:  14: 1:20  18Oct2021

   JOB DONE.