     Program PWSCF v.6.4 starts on  2Sep2021 at 16:59:56

     R & G space division:  proc/nbgrp/npool/nimage =      40
     Waiting for input...
     Reading input from standard input
Warning: card    &IONS ignored
Warning: card      ION_DYNAMICS = 'BFGS' ignored
Warning: card   / ignored
Warning: card    &CELL ignored
Warning: card      CELL_DYNAMICS = 'BFGS', ignored
Warning: card    / ignored

     Current dimensions of program PWSCF are:
     Max number of different atomic species (ntypx) = 10
     Max number of k-points (npk) =  40000
     Max angular momentum in pseudopotentials (lmaxx) =  3

     bravais-lattice index     =            0
     lattice parameter (alat)  =       6.1145  a.u.
     unit-cell volume          =    3805.7876 (a.u.)^3
     number of atoms/cell      =           24
     number of atomic types    =            2
     number of electrons       =       144.00
     number of Kohn-Sham states=           86
     kinetic-energy cutoff     =      45.0000  Ry
     charge density cutoff     =     360.0000  Ry
     convergence threshold     =      1.0E-06
     mixing beta               =       0.7000
     number of iterations used =            8  local-TF  mixing
     Exchange-correlation      = SLA PW GGX GGC ( 1  4  2  2 0 0)

     celldm(1)=   6.114493  celldm(2)=   0.000000  celldm(3)=   0.000000
     celldm(4)=   0.000000  celldm(5)=   0.000000  celldm(6)=   0.000000

     crystal axes: (cart. coord. in units of alat)
               a(1) = (   1.000000   0.000000   0.000000 )
               a(2) = (  -0.004645   1.727932   0.000000 )
               a(3) = (  -0.246217  -0.482663   9.634663 )

     reciprocal axes: (cart. coord. in units 2 pi/alat)
               b(1) = (  1.000000  0.002688  0.025690 )
               b(2) = (  0.000000  0.578727  0.028992 )
               b(3) = (  0.000000  0.000000  0.103792 )

     PseudoPot. # 1 for Mo read from file:
     ~/pseudo/Mo.pw91-n-van.UPF
     MD5 check sum: Not computed, couldn't open file
     Pseudo is Ultrasoft + core correction, Zval =  6.0
     Generated by new atomic code, or converted to UPF format
     Using radial grid of  965 points,  3 beta functions with:
                l(1) =   1
                l(2) =   2
                l(3) =   2
     Q(r) pseudized with  8 coefficients,  rinner =    1.000   1.000   1.000
                                                       1.200   1.200

     PseudoPot. # 2 for S  read from file:
     ~/pseudo/S.pw91-van_ak.UPF
     MD5 check sum: Not computed, couldn't open file
     Pseudo is Ultrasoft, Zval =  6.0
     Generated by new atomic code, or converted to UPF format
     Using radial grid of  811 points,  6 beta functions with:
                l(1) =   0
                l(2) =   0
                l(3) =   1
                l(4) =   1
                l(5) =   2
                l(6) =   2
     Q(r) pseudized with  8 coefficients,  rinner =    1.100   1.100   1.100
                                                       1.100   1.100

     atomic species   valence    mass     pseudopotential
        Mo             6.00    95.50000     Mo( 1.00)
        S              6.00    32.06500     S ( 1.00)

     No symmetry found

   Cartesian axes

     site n.     atom                  positions (alat units)
         1           Mo  tau(   1) = (   0.3936448   0.9877860   1.2588256  )
         2           Mo  tau(   2) = (   0.0641192   1.1827512   6.3753661  )
         3           Mo  tau(   3) = (   0.8770506   0.1304725   1.2653136  )
         4           Mo  tau(   4) = (   0.5802380   0.3221436   6.3731871  )
         5           Mo  tau(   5) = (   0.0643706   1.3677541   3.2400451  )
         6           Mo  tau(   6) = (  -0.0198775   0.6888100   8.3953764  )
         7           Mo  tau(   7) = (   0.5706002   0.4974205   3.2417250  )
         8           Mo  tau(   8) = (   0.4642490  -0.1675923   8.4001635  )
         9           S   tau(   9) = (   0.8919974   0.7056458   1.7510471  )
        10           S   tau(  10) = (   0.5643447   0.8925593   6.8661377  )
        11           S   tau(  11) = (   0.3793415  -0.1647307   1.7495765  )
        12           S   tau(  12) = (   0.0816481   0.0327175   6.8621548  )
        13           S   tau(  13) = (   0.5673081   1.6454479   3.7280221  )
        14           S   tau(  14) = (   0.4758847   0.9801250   8.8792887  )
        15           S   tau(  15) = (   0.0710770   0.7870546   3.7246466  )
        16           S   tau(  16) = (  -0.0380089   0.1154249   8.8889748  )
        17           S   tau(  17) = (   0.8935159   0.7034605   0.7728400  )
        18           S   tau(  18) = (   0.5673029   0.9004917   5.8873090  )
        19           S   tau(  19) = (   0.3747822   1.5725966   0.7800564  )
        20           S   tau(  20) = (   0.0770238   0.0335538   5.8896948  )
        21           S   tau(  21) = (   0.5582027   1.6576491   2.7485930  )
        22           S   tau(  22) = (   0.4800403   0.9829971   7.9082925  )
        23           S   tau(  23) = (   0.0656075   0.7931168   2.7535447  )
        24           S   tau(  24) = (  -0.0310472   0.1110478   7.9089138  )

     number of k points=     8  Marzari-Vanderbilt smearing, width (Ry)=  0.0200
                       cart. coord. in units 2pi/alat
        k(    1) = (   0.0000000   0.0000000   0.0000000), wk =   0.1333333
        k(    2) = (   0.0000000   0.1929088   0.0096641), wk =   0.2666667
        k(    3) = (   0.2000000   0.0005376   0.0051380), wk =   0.2666667
        k(    4) = (   0.2000000   0.1934464   0.0148021), wk =   0.2666667
        k(    5) = (   0.2000000  -0.1923712  -0.0045261), wk =   0.2666667
        k(    6) = (   0.4000000   0.0010752   0.0102760), wk =   0.2666667
        k(    7) = (   0.4000000   0.1939840   0.0199401), wk =   0.2666667
        k(    8) = (   0.4000000  -0.1918336   0.0006119), wk =   0.2666667

     Initial potential from superposition of free atoms

     starting charge  143.98738, renormalised to  144.00000
     Starting wfcs are  136 randomized atomic wfcs

     Self-consistent Calculation

     iteration #  1     ecut=    45.00 Ry     beta= 0.70
     Davidson diagonalization with overlap
     ethr =  1.00E-02,  avg # of iterations =  2.0

     total energy              =    -562.77711008 Ry
     Harris-Foulkes estimate   =    -564.56685307 Ry
     estimated scf accuracy    <       4.57549735 Ry

[...]

     iteration #  6     ecut=    45.00 Ry     beta= 0.70
     Davidson diagonalization with overlap
     c_bands:  2 eigenvalues not converged
     ethr =  1.56E-06,  avg # of iterations = 13.5

[...]

     total energy              =    -563.67394131 Ry
     Harris-Foulkes estimate   =    -563.67394186 Ry
     estimated scf accuracy    <       0.00000213 Ry

     iteration # 18     ecut=    45.00 Ry     beta= 0.70
     Davidson diagonalization with overlap
     ethr =  1.48E-09,  avg # of iterations =  3.0

     End of self-consistent calculation

          k = 0.0000 0.0000 0.0000 ( 19435 PWs)   bands (ev):

    -9.2273  -9.1402  -9.1270  -9.0654  -8.0616  -7.9761  -7.9025  -7.8535
    -7.5285  -7.4408  -7.4395  -7.3762  -7.2306  -7.1526  -7.1366  -7.0768
    -0.8939  -0.8447  -0.7778  -0.7603  -0.7587  -0.6970  -0.4604  -0.4179
     0.1210   0.1310   0.1937   0.2044   0.6356   0.7381   0.9534   0.9982
     1.6538   1.6735   1.7260   1.7441   2.1635   2.1707   2.1905   2.2135
     2.2440   2.2493   2.2688   2.2784   2.6288   2.7566   2.7632   2.8532
     3.1501   3.1917   3.2580   3.2815   3.3026   3.3128   3.3323   3.3487
     3.3742   3.3898   3.5681   3.6655   3.7681   3.8022   3.8362   3.8786
     4.0805   4.1465   4.2586   4.3155   4.6142   4.7126   5.1749   5.2011
     6.7345   6.7531   6.7998   6.8142   7.2186   7.2909   7.3012   7.3571
     7.3628   7.4326   7.4445   7.4602   7.4715   7.5107

[...]

          k = 0.4000-0.1918 0.0006 ( 19331 PWs)   bands (ev):

    -7.8050  -7.7163  -7.7145  -7.6503  -7.4730  -7.3999  -7.3943  -7.3683
    -7.3318  -7.2919  -7.2695  -7.2146  -7.1897  -7.1147  -7.1071  -7.0394
    -0.5752  -0.5545  -0.5346  -0.5091  -0.4621  -0.4584  -0.4470  -0.4036
    -0.0461   0.0418   0.0455   0.0857   0.3740   0.4646   0.4697   0.5763
     0.7429   0.7927   0.8109   0.8692   0.9771   1.0614   1.0715   1.0873
     1.6545   1.6962   1.7075   1.7802   1.8181   1.8479   1.9024   1.9229
     2.5936   2.7661   2.8315   2.8604   2.8677   2.9121   2.9226   2.9555
     3.2384   3.2727   3.3024   3.3932   3.5042   3.5599   3.5766   3.6326
     3.9102   3.9607   3.9946   4.0990   4.3068   4.4025   4.4311   4.4550
     6.7068   6.7474   6.7707   6.7896   6.8215   6.8273   6.8440   6.8935
     6.9834   7.0546   7.2011   7.2523   7.3194   7.4182

     the Fermi energy is     5.3950 ev

!    total energy              =    -563.67394147 Ry
     Harris-Foulkes estimate   =    -563.67394170 Ry
     estimated scf accuracy    <       0.00000028 Ry

     The total energy is the sum of the following terms:

     one-electron contribution =    -568.28056278 Ry
     hartree contribution      =     358.38036399 Ry
     xc contribution           =    -222.66086056 Ry
     ewald contribution        =    -131.11410279 Ry
     smearing contrib. (-TS)   =       0.00122067 Ry

     convergence has been achieved in  18 iterations

     Forces acting on atoms (cartesian axes, Ry/au):

     atom    1 type  1   force =    -0.01329972    0.00982612    0.00673375
     atom    2 type  1   force =     0.00974116    0.00367409    0.00578642
     atom    3 type  1   force =     0.01281850   -0.00685446   -0.00056896
     atom    4 type  1   force =    -0.00972940   -0.00236379    0.00566625
     atom    5 type  1   force =     0.00021194   -0.00519777   -0.00722841
     atom    6 type  1   force =    -0.01291587    0.00669652   -0.00180506
     atom    7 type  1   force =    -0.00536387    0.00892137   -0.00638392
     atom    8 type  1   force =     0.01243394   -0.01167521   -0.00455386
     atom    9 type  2   force =    -0.00169375   -0.00156609   -0.01186983
     atom   10 type  2   force =     0.00311335    0.00372010   -0.01399028
     atom   11 type  2   force =    -0.00119419    0.00198661   -0.00991388
     atom   12 type  2   force =    -0.00252965   -0.00054015   -0.01070464
     atom   13 type  2   force =    -0.00351227    0.00792860    0.00080992
     atom   14 type  2   force =     0.00185292   -0.00241084    0.00342628
     atom   15 type  2   force =    -0.00126673    0.00082038    0.00273890
     atom   16 type  2   force =     0.00446977    0.00385215   -0.00347513
     atom   17 type  2   force =    -0.00156457   -0.00194270   -0.00002809
     atom   18 type  2   force =    -0.00157081   -0.00374853    0.00079083
     atom   19 type  2   force =     0.00051201   -0.00414623   -0.00324875
     atom   20 type  2   force =     0.00290513   -0.00155502   -0.00252740
     atom   21 type  2   force =     0.00846131   -0.00438677    0.01500586
     atom   22 type  2   force =    -0.00345367   -0.00187141    0.01297558
     atom   23 type  2   force =     0.00606922   -0.00542642    0.01267357
     atom   24 type  2   force =    -0.00449474    0.00625944    0.00969085

     Total force =     0.057028     Total SCF correction =     0.001181

     General routines

     Parallel routines

   This run was terminated on:  17: 1:14   2Sep2021

   JOB DONE.