     Program PWSCF v.6.4 starts on 17Nov2021 at 10:43:26

     R & G space division:  proc/nbgrp/npool/nimage =      40
     Waiting for input...
     Reading input from standard input
Warning: card    &IONS ignored
Warning: card      ION_DYNAMICS = 'BFGS' ignored
Warning: card   / ignored
Warning: card    &CELL ignored
Warning: card      CELL_DYNAMICS = 'BFGS', ignored
Warning: card    / ignored

     Current dimensions of program PWSCF are:
     Max number of different atomic species (ntypx) = 10
     Max number of k-points (npk) =  40000
     Max angular momentum in pseudopotentials (lmaxx) =  3

     bravais-lattice index     =            0
     lattice parameter (alat)  =      11.8334  a.u.
     unit-cell volume          =    4032.1362 (a.u.)^3
     number of atoms/cell      =           18
     number of atomic types    =            2
     number of electrons       =       108.00
     number of Kohn-Sham states=           65
     kinetic-energy cutoff     =      45.0000  Ry
     charge density cutoff     =     360.0000  Ry
     convergence threshold     =      1.0E-06
     mixing beta               =       0.7000
     number of iterations used =            8  local-TF  mixing
     Exchange-correlation      = SLA PW GGX GGC ( 1  4  2  2 0 0)

     celldm(1)=  11.833393  celldm(2)=   0.000000  celldm(3)=   0.000000
     celldm(4)=   0.000000  celldm(5)=   0.000000  celldm(6)=   0.000000

     crystal axes: (cart. coord. in units of alat)
               a(1) = (   1.000000   0.000000   0.000000 )
               a(2) = (   0.497004   0.904885   0.000000 )
               a(3) = (   0.342388   0.280804   2.689144 )

     reciprocal axes: (cart. coord. in units 2 pi/alat)
               b(1) = (  1.000000 -0.549245 -0.069969 )
               b(2) = (  0.000000  1.105113 -0.115397 )
               b(3) = (  0.000000  0.000000  0.371866 )

     PseudoPot. # 1 for Mo read from file:
     ~/pseudo/Mo.pw91-n-van.UPF
     MD5 check sum: Not computed, couldn't open file
     Pseudo is Ultrasoft + core correction, Zval =  6.0
     Generated by new atomic code, or converted to UPF format
     Using radial grid of  965 points,  3 beta functions with:
                l(1) =   1
                l(2) =   2
                l(3) =   2
     Q(r) pseudized with  8 coefficients,  rinner =    1.000   1.000   1.000
                                                       1.200   1.200

     PseudoPot. # 2 for S  read from file:
     ~/pseudo/S.pw91-van_ak.UPF
     MD5 check sum: Not computed, couldn't open file
     Pseudo is Ultrasoft, Zval =  6.0
     Generated by new atomic code, or converted to UPF format
     Using radial grid of  811 points,  6 beta functions with:
                l(1) =   0
                l(2) =   0
                l(3) =   1
                l(4) =   1
                l(5) =   2
                l(6) =   2
     Q(r) pseudized with  8 coefficients,  rinner =    1.100   1.100   1.100
                                                       1.100   1.100

     atomic species   valence    mass     pseudopotential
        Mo             6.00    95.50000     Mo( 1.00)
        S              6.00    32.06500     S ( 1.00)

     No symmetry found

   Cartesian axes

     site n.     atom                  positions (alat units)
         1           Mo  tau(   1) = (   1.2796592   1.0141600   1.7285885  )
         2           Mo  tau(   2) = (   0.5313961   0.5619172   1.7278432  )
         3           Mo  tau(   3) = (   0.7797096   1.0143196   1.7286573  )
         4           Mo  tau(   4) = (   1.0313920   0.5617412   1.7278424  )
         5           Mo  tau(   5) = (   1.0585265   0.1907661   0.5910122  )
         6           Mo  tau(   6) = (   0.5847690   0.1907966   0.5911335  )
         7           S   tau(   7) = (   1.5298876   0.8610406   1.9814397  )
         8           S   tau(   8) = (   0.7815915   0.4092173   1.9809879  )
         9           S   tau(   9) = (   1.0298531   0.8608434   1.9813992  )
        10           S   tau(  10) = (   1.2816855   0.4094062   1.9810888  )
        11           S   tau(  11) = (   0.8212295   0.2706295   0.8688097  )
        12           S   tau(  12) = (   0.3212079   0.2315959   0.8433796  )
        13           S   tau(  13) = (   1.5300037   0.8618825   1.4751890  )
        14           S   tau(  14) = (   0.7816693   0.4083757   1.4751330  )
        15           S   tau(  15) = (   1.0298415   0.8616733   1.4752361  )
        16           S   tau(  16) = (   1.2818071   0.4084681   1.4749443  )
        17           S   tau(  17) = (   0.8221343   0.4272432   0.4236548  )
        18           S   tau(  18) = (   0.3220582   0.3672416   0.4004715  )

     number of k points=     5  Marzari-Vanderbilt smearing, width (Ry)=  0.0200
                       cart. coord. in units 2pi/alat
        k(    1) = (   0.0000000   0.0000000   0.0000000), wk =   0.2222222
        k(    2) = (   0.0000000   0.3683710  -0.0384657), wk =   0.4444444
        k(    3) = (   0.3333333  -0.1830817  -0.0233231), wk =   0.4444444
        k(    4) = (   0.3333333   0.1852892  -0.0617889), wk =   0.4444444
        k(    5) = (   0.3333333  -0.5514527   0.0151426), wk =   0.4444444

     Initial potential from superposition of free atoms

     starting charge  107.99054, renormalised to  108.00000
     Starting wfcs are  102 randomized atomic wfcs

     Self-consistent Calculation

     iteration #  1     ecut=    45.00 Ry     beta= 0.70
     Davidson diagonalization with overlap
     ethr =  1.00E-02,  avg # of iterations =  2.0

     total energy              =    -421.58094429 Ry
     Harris-Foulkes estimate   =    -423.05302384 Ry
     estimated scf accuracy    <       3.89797270 Ry

[...]

     negative rho (up, down):  2.749E-07 0.000E+00

[...]

     iteration # 13     ecut=    45.00 Ry     beta= 0.70
     Davidson diagonalization with overlap
     c_bands:  1 eigenvalues not converged
     ethr =  1.69E-06,  avg # of iterations = 12.8

[...]

     iteration # 18     ecut=    45.00 Ry     beta= 0.70
     Davidson diagonalization with overlap
     c_bands:  1 eigenvalues not converged
     ethr =  8.84E-07,  avg # of iterations = 10.6

[...]

     total energy              =    -422.29666703 Ry
     Harris-Foulkes estimate   =    -422.29666841 Ry
     estimated scf accuracy    <       0.00000965 Ry

     iteration # 28     ecut=    45.00 Ry     beta= 0.70
     Davidson diagonalization with overlap
     ethr =  2.53E-09,  avg # of iterations =  1.2

[...]

     End of self-consistent calculation

          k = 0.0000 0.0000 0.0000 ( 20509 PWs)   bands (ev):

   -12.1526 -11.2281 -10.9690 -10.4682 -10.3183 -10.3071 -10.2435 -10.1248
   -10.0691 -10.0545 -10.0344  -9.8017  -3.8265  -3.7711  -3.7632  -3.6371
    -2.9963  -2.8837  -2.8777  -2.8003  -2.6807  -2.2236  -2.1631  -2.1252
    -2.1149  -1.7591  -1.5373  -1.3742  -1.3373  -1.3225  -0.8941  -0.8911
    -0.7500  -0.4285  -0.2359  -0.1343  -0.1008   0.0469   0.0495   0.0847
     0.3312   0.3366   0.5437   0.6064   0.8355   0.8707   1.0754   1.2544
     1.2847   1.3054   1.7080   1.7296   1.8456   1.9053   2.3778   2.8794
     3.0833   3.3608   3.6805   3.8962   3.9114   3.9623   4.2086   4.4040
     4.5144

[...]

          k = 0.3333-0.5515 0.0151 ( 20562 PWs)   bands (ev):

   -11.1770 -11.1706 -11.0973 -10.9668 -10.5080 -10.5020 -10.4327 -10.4047
   -10.1173  -9.9950  -9.9537  -9.8589  -3.3973  -2.9473  -2.9349  -2.9242
    -2.6148  -2.6007  -2.4059  -2.3473  -2.1019  -1.8984  -1.8947  -1.8853
    -1.7539  -1.7267  -1.6771  -1.6592  -1.6524  -1.6316  -1.2958  -1.1961
    -1.1919  -1.1580  -0.9981  -0.7601  -0.5333  -0.2866  -0.0537  -0.0450
    -0.0367   0.0310   0.2363   0.5774   0.7936   0.8107   0.8460   1.0131
     1.1084   1.1209   1.1343   1.2577   1.6179   1.8524   2.1166   2.7878
     3.3453   3.5309   3.6716   3.7021   3.7238   3.7739   3.9719   4.1739
     4.1912

     the Fermi energy is     1.9613 ev

!    total energy              =    -422.29666716 Ry
     Harris-Foulkes estimate   =    -422.29666756 Ry
     estimated scf accuracy    <       0.00000042 Ry

     The total energy is the sum of the following terms:

     one-electron contribution =    -698.35394183 Ry
     hartree contribution      =     393.40657111 Ry
     xc contribution           =    -166.78234557 Ry
     ewald contribution        =      49.42058284 Ry
     smearing contrib. (-TS)   =       0.01246628 Ry

     convergence has been achieved in  28 iterations

     negative rho (up, down):  1.557E-07 0.000E+00

     Forces acting on atoms (cartesian axes, Ry/au):

     atom    1 type  1   force =     0.00029254    0.00129715   -0.00119880
     atom    2 type  1   force =    -0.00002220    0.00018005   -0.00011034
     atom    3 type  1   force =     0.00031125    0.00106776   -0.00139818
     atom    4 type  1   force =    -0.00002961    0.00042008   -0.00021476
     atom    5 type  1   force =    -0.01266015    0.00003053   -0.00268627
     atom    6 type  1   force =     0.01230170    0.00018005   -0.00286909
     atom    7 type  2   force =     0.00034975    0.00005548   -0.00019941
     atom    8 type  2   force =    -0.00007922   -0.00083597    0.00051453
     atom    9 type  2   force =     0.00036943    0.00023654   -0.00010516
     atom   10 type  2   force =    -0.00019264   -0.00104964    0.00029461
     atom   11 type  2   force =     0.00026913   -0.02197525    0.01032404
     atom   12 type  2   force =     0.00034263   -0.00227538    0.06107110
     atom   13 type  2   force =     0.00007597   -0.00097146    0.00032673
     atom   14 type  2   force =    -0.00011778    0.00029663    0.00096917
     atom   15 type  2   force =     0.00032298   -0.00077278    0.00021668
     atom   16 type  2   force =    -0.00024135    0.00023978    0.00102738
     atom   17 type  2   force =    -0.00071321   -0.00567526   -0.01987634
     atom   18 type  2   force =    -0.00057920    0.02955171   -0.04608588

     Total force =     0.089946     Total SCF correction =     0.001069

     General routines

     Parallel routines

   This run was terminated on:  10:44:27  17Nov2021

   JOB DONE.