     Program PWSCF v.6.4 starts on  8Sep2021 at 12: 2:58

     R & G space division:  proc/nbgrp/npool/nimage =      40
     Waiting for input...
     Reading input from standard input
Warning: card    &IONS ignored
Warning: card      ION_DYNAMICS = 'BFGS' ignored
Warning: card   / ignored
Warning: card    &CELL ignored
Warning: card      CELL_DYNAMICS = 'BFGS', ignored
Warning: card    / ignored

     Current dimensions of program PWSCF are:
     Max number of different atomic species (ntypx) = 10
     Max number of k-points (npk) =  40000
     Max angular momentum in pseudopotentials (lmaxx) =  3

     bravais-lattice index     =            0
     lattice parameter (alat)  =      12.3905  a.u.
     unit-cell volume          =    3502.3256 (a.u.)^3
     number of atoms/cell      =           24
     number of atomic types    =            2
     number of electrons       =       144.00
     number of Kohn-Sham states=           86
     kinetic-energy cutoff     =      45.0000  Ry
     charge density cutoff     =     360.0000  Ry
     convergence threshold     =      1.0E-06
     mixing beta               =       0.7000
     number of iterations used =            8  local-TF  mixing
     Exchange-correlation      = SLA PW GGX GGC ( 1  4  2  2 0 0)

     celldm(1)=  12.390496  celldm(2)=   0.000000  celldm(3)=   0.000000
     celldm(4)=   0.000000  celldm(5)=   0.000000  celldm(6)=   0.000000

     crystal axes: (cart. coord. in units of alat)
               a(1) = (   0.999764   0.019351   0.009915 )
               a(2) = (  -0.242171   0.431081  -0.004141 )
               a(3) = (   0.125553   1.366009   4.221884 )

     reciprocal axes: (cart. coord. in units 2 pi/alat)
               b(1) = (  0.991567  0.555031 -0.209071 )
               b(2) = ( -0.037018  2.291844 -0.740435 )
               b(3) = ( -0.002365  0.000944  0.236626 )

     PseudoPot. # 1 for Mo read from file:
     ~/pseudo/Mo.pw91-n-van.UPF
     MD5 check sum: Not computed, couldn't open file
     Pseudo is Ultrasoft + core correction, Zval =  6.0
     Generated by new atomic code, or converted to UPF format
     Using radial grid of  965 points,  3 beta functions with:
                l(1) =   1
                l(2) =   2
                l(3) =   2
     Q(r) pseudized with  8 coefficients,  rinner =    1.000   1.000   1.000
                                                       1.200   1.200

     PseudoPot. # 2 for S  read from file:
     ~/pseudo/S.pw91-van_ak.UPF
     MD5 check sum: Not computed, couldn't open file
     Pseudo is Ultrasoft, Zval =  6.0
     Generated by new atomic code, or converted to UPF format
     Using radial grid of  811 points,  6 beta functions with:
                l(1) =   0
                l(2) =   0
                l(3) =   1
                l(4) =   1
                l(5) =   2
                l(6) =   2
     Q(r) pseudized with  8 coefficients,  rinner =    1.100   1.100   1.100
                                                       1.100   1.100

     atomic species   valence    mass     pseudopotential
        Mo             6.00    95.50000     Mo( 1.00)
        S              6.00    32.06500     S ( 1.00)

      2 Sym. Ops., with inversion, found

   Cartesian axes

     site n.     atom                  positions (alat units)
         1           Mo  tau(   1) = (   0.0810444   0.6473582   1.5664137  )
         2           Mo  tau(   2) = (   0.0791286   1.2949937   3.6867805  )
         3           Mo  tau(   3) = (   0.5162282   0.6216286   1.5806890  )
         4           Mo  tau(   4) = (   0.6437141   1.3400553   3.6824115  )
         5           Mo  tau(   5) = (   0.0464244   0.0710156   0.5351034  )
         6           Mo  tau(   6) = (   0.0445087   0.7186512   2.6554702  )
         7           Mo  tau(   7) = (   0.4816026   0.0453054   0.5493872  )
         8           Mo  tau(   8) = (   0.6090885   0.7637321   2.6511097  )
         9           S   tau(   9) = (   0.3041925   0.7771101   1.8296587  )
        10           S   tau(  10) = (   0.3593746   1.4506499   3.8957036  )
        11           S   tau(  11) = (   0.7964983   0.7773325   1.7895865  )
        12           S   tau(  12) = (   0.8668495   1.4697781   3.9456663  )
        13           S   tau(  13) = (   0.0162959   0.3466632   0.2819917  )
        14           S   tau(  14) = (   0.0866471   1.0391088   2.4380715  )
        15           S   tau(  15) = (   0.5237708   0.3657914   0.3319544  )
        16           S   tau(  16) = (   0.5789529   1.0393312   2.3979993  )
        17           S   tau(  17) = (   0.0327025   0.6544717   0.7943388  )
        18           S   tau(  18) = (   0.0860264   1.3368389   2.8692808  )
        19           S   tau(  19) = (   0.5231056   0.6634988   0.7631734  )
        20           S   tau(  20) = (   0.5953816   1.3471866   2.9103425  )
        21           S   tau(  21) = (   0.2877638   0.4692547   1.3173155  )
        22           S   tau(  22) = (   0.3600398   1.1529425   3.4644846  )
        23           S   tau(  23) = (   0.7971190   0.4796025   1.3583772  )
        24           S   tau(  24) = (   0.8504429   1.1619697   3.4333192  )

     number of k points=    10  Marzari-Vanderbilt smearing, width (Ry)=  0.0200
                       cart. coord. in units 2pi/alat
        k(    1) = (   0.0000000   0.0000000   0.0000000), wk =   0.1111111
        k(    2) = (  -0.0061696   0.3819740  -0.1234059), wk =   0.2222222
        k(    3) = (  -0.0123392   0.7639479  -0.2468118), wk =   0.2222222
        k(    4) = (   0.0185088  -1.1459219   0.3702177), wk =   0.1111111
        k(    5) = (   0.3305222   0.1850105  -0.0696902), wk =   0.2222222
        k(    6) = (   0.3243526   0.5669844  -0.1930961), wk =   0.2222222
        k(    7) = (   0.3181830   0.9489584  -0.3165020), wk =   0.2222222
        k(    8) = (   0.3490311  -0.9609114   0.3005275), wk =   0.2222222
        k(    9) = (   0.3428615  -0.5789374   0.1771216), wk =   0.2222222
        k(   10) = (   0.3366919  -0.1969635   0.0537157), wk =   0.2222222

     Initial potential from superposition of free atoms

     starting charge  143.98738, renormalised to  144.00000
     Starting wfcs are  136 randomized atomic wfcs

     Self-consistent Calculation

     iteration #  1     ecut=    45.00 Ry     beta= 0.70
     Davidson diagonalization with overlap
     ethr =  1.00E-02,  avg # of iterations =  2.0

     total energy              =    -562.31278427 Ry
     Harris-Foulkes estimate   =    -564.27911855 Ry
     estimated scf accuracy    <       5.13137481 Ry

[...]

     total energy              =    -563.32445008 Ry
     Harris-Foulkes estimate   =    -563.32445053 Ry
     estimated scf accuracy    <       0.00000198 Ry

     iteration # 14     ecut=    45.00 Ry     beta= 0.70
     Davidson diagonalization with overlap
     ethr =  1.37E-09,  avg # of iterations =  2.1

     End of self-consistent calculation

          k = 0.0000 0.0000 0.0000 ( 17929 PWs)   bands (ev):

    -8.0275  -8.0087  -7.9865  -7.9653  -7.0933  -7.0704  -7.0253  -7.0057
    -6.4321  -6.4263  -6.4139  -6.4085  -6.1539  -6.1419  -6.1291  -6.1177
     0.0550   0.0623   0.0949   0.1036   0.4072   0.5240   0.6131   0.7646
     1.4227   1.4412   1.4867   1.5243   1.6051   1.6264   1.7430   1.7685
     2.4899   2.4918   2.5005   2.5023   2.5874   2.5929   2.5963   2.5991
     3.0180   3.0224   3.0406   3.0423   3.5635   3.6351   3.6911   3.7691
     3.7988   4.0057   4.1573   4.3498   4.5828   4.6075   4.6457   4.7691
     4.9224   4.9420   4.9452   4.9610   5.3376   5.5273   5.5334   5.5638
     5.6160   5.6198   5.7215   5.7302   5.8199   5.8248   5.8749   5.9103
     6.1992   6.2252   6.2553   6.2941   6.4804   6.4823   6.4877   6.4894
     7.6303   7.6360   7.6401   7.6441   7.8830   7.8917

          k =-0.0062 0.3820-0.1234 ( 17875 PWs)   bands (ev):

[...]

          k =-0.0123 0.7639-0.2468 ( 17832 PWs)   bands (ev):

[...]

          k = 0.3367-0.1970 0.0537 ( 17911 PWs)   bands (ev):

    -7.6516  -7.6384  -7.6088  -7.5935  -6.9654  -6.9517  -6.9029  -6.8921
    -6.3439  -6.3405  -6.3263  -6.3234  -6.2286  -6.2245  -6.2059  -6.2019
     0.5994   0.6062   0.6552   0.6557   0.9061   0.9250   1.0781   1.1013
     1.1245   1.1715   1.2703   1.3050   1.7056   1.7594   1.8401   1.8638
     2.2572   2.2667   2.3683   2.3955   2.5104   2.5253   2.6009   2.6057
     2.8213   2.8261   2.8400   2.8452   3.2260   3.2342   3.2466   3.2545
     3.5436   3.6037   3.6125   3.6642   3.8482   3.8548   3.8659   3.8743
     4.5239   4.5712   4.6667   4.6697   4.7619   4.8377   4.8983   5.1176
     5.3812   5.4144   5.4461   5.4524   5.6367   5.7622   5.8501   5.9127
     6.2029   6.2252   6.2802   6.3067   6.9517   6.9708   6.9916   7.0118
     7.7245   7.7497   7.7933   7.8288   7.9817   7.9894

     the Fermi energy is     5.9712 ev

!    total energy              =    -563.32445029 Ry
     Harris-Foulkes estimate   =    -563.32445030 Ry
     estimated scf accuracy    <       0.00000001 Ry

     The total energy is the sum of the following terms:

     one-electron contribution =     -80.16030412 Ry
     hartree contribution      =     119.36634312 Ry
     xc contribution           =    -222.34618957 Ry
     ewald contribution        =    -380.19493572 Ry
     smearing contrib. (-TS)   =       0.01063600 Ry

     convergence has been achieved in  14 iterations

     Forces acting on atoms (cartesian axes, Ry/au):

     atom    1 type  1   force =     0.01715200   -0.00537898   -0.00190642
     atom    2 type  1   force =    -0.01988164   -0.03420633   -0.01285333
     atom    3 type  1   force =    -0.01983433   -0.03410877   -0.01299579
     atom    4 type  1   force =     0.01653878   -0.00564940   -0.00172502
     atom    5 type  1   force =     0.01988164    0.03420633    0.01285333
     atom    6 type  1   force =    -0.01715200    0.00537898    0.00190642
     atom    7 type  1   force =    -0.01653878    0.00564940    0.00172502
     atom    8 type  1   force =     0.01983433    0.03410877    0.01299579
     atom    9 type  2   force =    -0.01019500    0.00319948    0.02046285
     atom   10 type  2   force =    -0.00343395    0.00747786   -0.00391910
     atom   11 type  2   force =    -0.00344893    0.00735599   -0.00388960
     atom   12 type  2   force =    -0.00964578    0.00291476    0.02042851
     atom   13 type  2   force =     0.00964578   -0.00291476   -0.02042851
     atom   14 type  2   force =     0.00344893   -0.00735599    0.00388960
     atom   15 type  2   force =     0.00343395   -0.00747786    0.00391910
     atom   16 type  2   force =     0.01019500   -0.00319948   -0.02046285
     atom   17 type  2   force =    -0.00854565   -0.01391700    0.01583806
     atom   18 type  2   force =    -0.00809217   -0.01578450   -0.01453469
     atom   19 type  2   force =    -0.00769387   -0.01602241   -0.01463828
     atom   20 type  2   force =    -0.00809675   -0.01421832    0.01577551
     atom   21 type  2   force =     0.00809675    0.01421832   -0.01577551
     atom   22 type  2   force =     0.00769387    0.01602241    0.01463828
     atom   23 type  2   force =     0.00809217    0.01578450    0.01453469
     atom   24 type  2   force =     0.00854565    0.01391700   -0.01583806

     Total force =     0.121636     Total SCF correction =     0.000282

     General routines

     Parallel routines

   This run was terminated on:  12: 4: 1   8Sep2021

   JOB DONE.