     Program PWSCF v.6.4 starts on 24Dec2021 at 21:59: 2

     R & G space division:  proc/nbgrp/npool/nimage =      40
     Waiting for input...
     Reading input from standard input
Warning: card    &IONS ignored
Warning: card      ION_DYNAMICS = 'BFGS' ignored
Warning: card   / ignored
Warning: card    &CELL ignored
Warning: card      CELL_DYNAMICS = 'BFGS', ignored
Warning: card    / ignored

     Current dimensions of program PWSCF are:
     Max number of different atomic species (ntypx) = 10
     Max number of k-points (npk) =  40000
     Max angular momentum in pseudopotentials (lmaxx) =  3

     bravais-lattice index     =            0
     lattice parameter (alat)  =      18.5305  a.u.
     unit-cell volume          =    6668.9561 (a.u.)^3
     number of atoms/cell      =           42
     number of atomic types    =            2
     number of electrons       =       252.00
     number of Kohn-Sham states=          151
     kinetic-energy cutoff     =      45.0000  Ry
     charge density cutoff     =     360.0000  Ry
     convergence threshold     =      1.0E-06
     mixing beta               =       0.7000
     number of iterations used =            8  local-TF  mixing
     Exchange-correlation      = SLA PW GGX GGC ( 1  4  2  2 0 0)

     celldm(1)=  18.530474  celldm(2)=   0.000000  celldm(3)=   0.000000
     celldm(4)=   0.000000  celldm(5)=   0.000000  celldm(6)=   0.000000

     crystal axes: (cart. coord. in units of alat)
               a(1) = (   1.000000   0.000000   0.000000 )
               a(2) = (  -0.017700   1.011076   0.000000 )
               a(3) = (  -0.037159   0.012504   1.036607 )

     reciprocal axes: (cart. coord. in units 2 pi/alat)
               b(1) = (  1.000000  0.017507  0.035636 )
               b(2) = (  0.000000  0.989045 -0.011930 )
               b(3) = (  0.000000  0.000000  0.964685 )

     PseudoPot. # 1 for Mo read from file:
     ~/pseudo/Mo.pw91-n-van.UPF
     MD5 check sum: Not computed, couldn't open file
     Pseudo is Ultrasoft + core correction, Zval =  6.0
     Generated by new atomic code, or converted to UPF format
     Using radial grid of  965 points,  3 beta functions with:
                l(1) =   1
                l(2) =   2
                l(3) =   2
     Q(r) pseudized with  8 coefficients,  rinner =    1.000   1.000   1.000
                                                       1.200   1.200

     PseudoPot. # 2 for S  read from file:
     ~/pseudo/S.pw91-van_ak.UPF
     MD5 check sum: Not computed, couldn't open file
     Pseudo is Ultrasoft, Zval =  6.0
     Generated by new atomic code, or converted to UPF format
     Using radial grid of  811 points,  6 beta functions with:
                l(1) =   0
                l(2) =   0
                l(3) =   1
                l(4) =   1
                l(5) =   2
                l(6) =   2
     Q(r) pseudized with  8 coefficients,  rinner =    1.100   1.100   1.100
                                                       1.100   1.100

     atomic species   valence    mass     pseudopotential
        Mo             6.00    95.50000     Mo( 1.00)
        S              6.00    32.06500     S ( 1.00)

     No symmetry found

   Cartesian axes

     site n.     atom                  positions (alat units)
         1           Mo  tau(   1) = (   0.8540871   0.6315570   0.4011902  )
         2           Mo  tau(   2) = (   0.5853914   0.6251872   0.1203645  )
         3           Mo  tau(   3) = (   0.8282663   0.8586288   0.2065790  )
         4           Mo  tau(   4) = (   0.5976484   0.9073042   0.3889384  )
         5           Mo  tau(   5) = (   0.3692825   0.1406021   0.3667807  )
         6           Mo  tau(   6) = (   0.1464457   0.1309802   0.1708464  )
         7           Mo  tau(   7) = (   0.3557193   0.3539266   0.1599430  )
         8           Mo  tau(   8) = (   0.1462524   0.3528408   0.3541405  )
         9           Mo  tau(   9) = (   0.6026514   0.1338309   0.5721633  )
        10           Mo  tau(  10) = (   0.8502348   0.4061310   0.6044641  )
        11           Mo  tau(  11) = (   0.5584601   0.4381889   0.9718400  )
        12           Mo  tau(  12) = (   0.3174649   0.5704930   0.9837098  )
        13           Mo  tau(  13) = (   0.0527810   0.6186127   0.6098026  )
        14           Mo  tau(  14) = (   0.3777821   0.9409636   0.5660723  )
        15           S   tau(  15) = (   0.8434750   0.6287146   0.1424653  )
        16           S   tau(  16) = (   0.6048858   0.6502470   0.3877673  )
        17           S   tau(  17) = (   0.6197228   0.1320211   0.3392608  )
        18           S   tau(  18) = (   0.8889893   0.0971528   0.1580129  )
        19           S   tau(  19) = (   0.6083413   0.3852193   0.1668952  )
        20           S   tau(  20) = (   0.8865099   0.3842006   0.3656831  )
        21           S   tau(  21) = (   0.8365336   0.1566115   0.6545030  )
        22           S   tau(  22) = (   0.3833107   0.1113472   0.1182474  )
        23           S   tau(  23) = (   0.1194509   0.1164323   0.4071051  )
        24           S   tau(  24) = (   0.1019076   0.6072415   0.3728457  )
        25           S   tau(  25) = (   0.3433421   0.6104854   0.1738048  )
        26           S   tau(  26) = (   0.0660515   0.0174568   0.9825574  )
        27           S   tau(  27) = (   0.3520216   0.8988479   0.3416841  )
        28           S   tau(  28) = (   0.6003415   0.3830024   0.5911671  )
        29           S   tau(  29) = (   0.8522548   0.8849345   0.4348768  )
        30           S   tau(  30) = (   0.7599072   0.3736598   0.8637836  )
        31           S   tau(  31) = (   0.5241467   0.6623065   0.9202334  )
        32           S   tau(  32) = (   0.8255133   0.6451316   0.6511011  )
        33           S   tau(  33) = (   0.5982257   0.9099054   0.6403824  )
        34           S   tau(  34) = (   0.6051349   0.8770581   0.1329917  )
        35           S   tau(  35) = (   0.1821577   0.8261508   0.6366254  )
        36           S   tau(  36) = (   0.3744689   0.3892169   0.4042564  )
        37           S   tau(  37) = (   0.1170174   0.6155264   0.8519440  )
        38           S   tau(  38) = (   0.0629019   0.8879595   0.1137080  )
        39           S   tau(  39) = (   0.3663612   0.1562463   0.6157780  )
        40           S   tau(  40) = (   0.1030067   0.3813698   0.6032561  )
        41           S   tau(  41) = (   0.3445797   0.3384943   0.9376515  )
        42           S   tau(  42) = (   0.1107671   0.3598737   0.1104784  )

     number of k points=     8  Marzari-Vanderbilt smearing, width (Ry)=  0.0200
                       cart. coord. in units 2pi/alat
        k(    1) = (   0.0000000   0.0000000   0.0000000), wk =   0.2500000
        k(    2) = (   0.0000000   0.0000000  -0.4823427), wk =   0.2500000
        k(    3) = (   0.0000000  -0.4945224   0.0059651), wk =   0.2500000
        k(    4) = (   0.0000000  -0.4945224  -0.4763776), wk =   0.2500000
        k(    5) = (  -0.5000000  -0.0087533  -0.0178179), wk =   0.2500000
        k(    6) = (  -0.5000000  -0.0087533  -0.5001607), wk =   0.2500000
        k(    7) = (  -0.5000000  -0.5032757  -0.0118529), wk =   0.2500000
        k(    8) = (  -0.5000000  -0.5032757  -0.4941956), wk =   0.2500000

     Initial potential from superposition of free atoms

     starting charge  251.97792, renormalised to  252.00000
     Starting wfcs are  238 randomized atomic wfcs

     Self-consistent Calculation

     iteration #  1     ecut=    45.00 Ry     beta= 0.70
     Davidson diagonalization with overlap
     ethr =  1.00E-02,  avg # of iterations =  2.0

     total energy              =    -983.59919972 Ry
     Harris-Foulkes estimate   =    -986.76439696 Ry
     estimated scf accuracy    <       8.34015504 Ry

[...]

     total energy              =    -985.17215859 Ry
     Harris-Foulkes estimate   =    -985.17215877 Ry
     estimated scf accuracy    <       0.00000102 Ry

     iteration # 14     ecut=    45.00 Ry     beta= 0.70
     Davidson diagonalization with overlap
     ethr =  4.05E-10,  avg # of iterations =  3.4

     End of self-consistent calculation

          k = 0.0000 0.0000 0.0000 ( 33967 PWs)   bands (ev):

    -9.5148  -8.9941  -8.3762  -8.3611  -8.3208  -8.1258  -8.0888  -8.0596
    -7.9351  -7.8330  -7.7333  -7.7113  -7.6926  -7.6246  -7.5646  -7.5383
    -7.4827  -7.3825  -7.2273  -7.1613  -7.0295  -6.9471  -6.8615  -6.5562
    -6.3492  -6.3034  -6.1407  -5.3302  -0.9119  -0.8211  -0.6752  -0.6234
    -0.1899  -0.1694  -0.1423  -0.0487  -0.0240   0.0231   0.0599   0.1315
     0.1947   0.2291   0.3202   0.3568   0.4166   0.5008   0.5791   0.6021
     0.6517   0.6958   0.7020   0.7531   0.8187   0.8759   0.9429   0.9609
     0.9989   1.0364   1.1745   1.2381   1.2498   1.2779   1.2917   1.4094
     1.4460   1.4564   1.5447   1.5714   1.5950   1.6026   1.6815   1.7208
     1.7951   1.8406   1.8947   1.9682   1.9903   2.0041   2.0783   2.1101
     2.1228   2.1979   2.2283   2.2550   2.2944   2.4188   2.4362   2.5113
     2.5667   2.6440   2.6739   2.7249   2.8864   2.9118   2.9769   3.0776
     3.0961   3.1630   3.2144   3.3126   3.3554   3.4169   3.5635   3.5885
     3.6749   3.8089   3.8837   3.8983   4.0107   4.0532   4.1373   4.1836
     4.2457   4.3452   4.4482   4.5070   4.5497   4.5907   4.6716   4.7217
     4.7829   4.8727   4.9421   5.0114   5.0674   5.2282   5.3054   5.4573
     5.5704   5.6948   5.8336   5.9384   6.0157   6.1159   6.1526   6.2743
     6.3670   6.4438   6.4899   6.5709   6.5947   6.6459   6.7842   6.8369
     6.9081   6.9445   7.0790   7.1517   7.1908   7.2192   7.3773

[...]

          k = 0.0000-0.4945-0.4764 ( 34008 PWs)   bands (ev):

[...]

          k =-0.5000-0.0088-0.0178 ( 34002 PWs)   bands (ev):

[...]

          k =-0.5000-0.5033-0.4942 ( 33980 PWs)   bands (ev):

    -9.5027  -8.8521  -8.5978  -8.3831  -8.3330  -8.1448  -8.0798  -7.9973
    -7.9492  -7.8694  -7.8053  -7.7444  -7.6534  -7.5817  -7.5599  -7.4916
    -7.4709  -7.3921  -7.2495  -7.1505  -7.0126  -6.9442  -6.7919  -6.5538
    -6.3542  -6.2828  -6.1382  -5.3306  -0.7149  -0.5951  -0.5459  -0.4103
    -0.3611  -0.2021  -0.1978  -0.0972   0.0265   0.0644   0.0700   0.1378
     0.1754   0.2317   0.2645   0.2832   0.3509   0.3916   0.4327   0.5057
     0.5228   0.5602   0.6153   0.6936   0.7675   0.8053   0.8811   0.9372
     1.0104   1.0563   1.0753   1.1328   1.1867   1.2045   1.2928   1.3527
     1.3917   1.4582   1.5230   1.5914   1.6058   1.6274   1.6486   1.7025
     1.7939   1.7986   1.8968   1.9181   1.9339   2.0002   2.0295   2.1436
     2.1945   2.2582   2.2835   2.3165   2.3759   2.4305   2.4827   2.5288
     2.5449   2.7245   2.7575   2.8532   2.8704   2.9593   3.0240   3.0489
     3.1488   3.2271   3.2797   3.3416   3.4422   3.4797   3.6516   3.7057
     3.7755   3.7843   3.8500   3.9788   4.1112   4.1288   4.2535   4.2807
     4.3429   4.4337   4.4543   4.5069   4.5295   4.6501   4.6916   4.7954
     4.8252   4.8669   4.9706   5.0084   5.0469   5.1174   5.3130   5.5073
     5.5202   5.5838   5.6539   5.7294   5.8977   6.0782   6.1650   6.1982
     6.2622   6.3543   6.3996   6.4950   6.6248   6.6491   6.7299   6.7795
     6.8548   7.0084   7.0571   7.1326   7.1775   7.3026   7.3659

     the Fermi energy is     5.2344 ev

!    total energy              =    -985.17215854 Ry
     Harris-Foulkes estimate   =    -985.17215879 Ry
     estimated scf accuracy    <       0.00000035 Ry

     The total energy is the sum of the following terms:

     one-electron contribution =    -273.32103141 Ry
     hartree contribution      =     267.53892567 Ry
     xc contribution           =    -389.38560683 Ry
     ewald contribution        =    -590.01810181 Ry
     smearing contrib. (-TS)   =       0.01365584 Ry

     convergence has been achieved in  14 iterations

     Forces acting on atoms (cartesian axes, Ry/au):

     atom    1 type  1   force =     0.00992142   -0.00939498    0.02312211
     atom    2 type  1   force =    -0.01065117    0.02896520    0.08072070
     atom    3 type  1   force =     0.03046617    0.07086193   -0.04910480
     atom    4 type  1   force =    -0.00715621   -0.02788124    0.03225341
     atom    5 type  1   force =    -0.02233606    0.01000783   -0.01922869
     atom    6 type  1   force =    -0.01691962   -0.02299547   -0.02564619
     atom    7 type  1   force =    -0.01454121   -0.01049993    0.00557722
     atom    8 type  1   force =    -0.03336761   -0.02177975   -0.01401368
     atom    9 type  1   force =     0.07589191    0.02401383   -0.00558941
     atom   10 type  1   force =    -0.01032455   -0.01307989   -0.01118410
     atom   11 type  1   force =     0.08024022   -0.07660694   -0.04831310
     atom   12 type  1   force =    -0.08962032    0.02757970   -0.05116948
     atom   13 type  1   force =     0.06793086   -0.01372662    0.01404382
     atom   14 type  1   force =    -0.06609075   -0.05269516    0.05389132
     atom   15 type  2   force =     0.00505330   -0.01041605   -0.00410569
     atom   16 type  2   force =    -0.01252339   -0.00448045   -0.01704899
     atom   17 type  2   force =     0.02756750    0.02993797   -0.01559264
     atom   18 type  2   force =    -0.02184115   -0.03006053    0.00533796
     atom   19 type  2   force =     0.02955185   -0.00398738    0.00857006
     atom   20 type  2   force =    -0.03081682   -0.00814828    0.00570415
     atom   21 type  2   force =    -0.03191767    0.00234266   -0.01140683
     atom   22 type  2   force =    -0.00684625   -0.00046806    0.01331103
     atom   23 type  2   force =    -0.00092599   -0.00404888    0.00264588
     atom   24 type  2   force =    -0.00775978    0.02245642   -0.00118257
     atom   25 type  2   force =     0.00241895    0.00339852    0.00438188
     atom   26 type  2   force =    -0.01122816   -0.00283293    0.03168773
     atom   27 type  2   force =     0.00347320   -0.01515808   -0.02397984
     atom   28 type  2   force =     0.02019375   -0.00458261    0.00666098
     atom   29 type  2   force =    -0.00192536    0.00795336    0.00422080
     atom   30 type  2   force =    -0.02910180    0.02106346    0.01805600
     atom   31 type  2   force =     0.04647162    0.05985465   -0.06199082
     atom   32 type  2   force =    -0.04362388   -0.00411111   -0.00758798
     atom   33 type  2   force =     0.01843726   -0.02666376    0.00802051
     atom   34 type  2   force =    -0.01906678    0.02314652    0.00435960
     atom   35 type  2   force =     0.02879614    0.02347077   -0.00354615
     atom   36 type  2   force =     0.02337103   -0.00758042   -0.02080735
     atom   37 type  2   force =     0.04210557   -0.00540281    0.02978937
     atom   38 type  2   force =     0.04583555   -0.00155742   -0.01734373
     atom   39 type  2   force =    -0.02144981    0.01465009    0.03308863
     atom   40 type  2   force =    -0.02132127    0.00762815    0.03273816
     atom   41 type  2   force =    -0.02117381   -0.01187544   -0.00527425
     atom   42 type  2   force =    -0.00519691    0.01270311   -0.00406501

     Total force =     0.328995     Total SCF correction =     0.001199

     General routines

     Parallel routines

   This run was terminated on:  22: 2:29  24Dec2021

   JOB DONE.