     Program PWSCF v.6.4 starts on 24Dec2021 at 23: 1:23

     R & G space division:  proc/nbgrp/npool/nimage =      40
     Waiting for input...
     Reading input from standard input
Warning: card    &IONS ignored
Warning: card      ION_DYNAMICS = 'BFGS' ignored
Warning: card   / ignored
Warning: card    &CELL ignored
Warning: card      CELL_DYNAMICS = 'BFGS', ignored
Warning: card    / ignored

     Current dimensions of program PWSCF are:
     Max number of different atomic species (ntypx) = 10
     Max number of k-points (npk) =  40000
     Max angular momentum in pseudopotentials (lmaxx) =  3

     bravais-lattice index     =            0
     lattice parameter (alat)  =      17.9801  a.u.
     unit-cell volume          =    8256.6072 (a.u.)^3
     number of atoms/cell      =           42
     number of atomic types    =            2
     number of electrons       =       252.00
     number of Kohn-Sham states=          151
     kinetic-energy cutoff     =      45.0000  Ry
     charge density cutoff     =     360.0000  Ry
     convergence threshold     =      1.0E-06
     mixing beta               =       0.7000
     number of iterations used =            8  local-TF  mixing
     Exchange-correlation      = SLA PW GGX GGC ( 1  4  2  2 0 0)

     celldm(1)=  17.980146  celldm(2)=   0.000000  celldm(3)=   0.000000
     celldm(4)=   0.000000  celldm(5)=   0.000000  celldm(6)=   0.000000

     crystal axes: (cart. coord. in units of alat)
               a(1) = (   1.000000   0.000000   0.000000 )
               a(2) = (  -0.216324   1.108151   0.000000 )
               a(3) = (  -0.403962  -0.627160   1.281808 )

     reciprocal axes: (cart. coord. in units 2 pi/alat)
               b(1) = (  1.000000  0.195212  0.410663 )
               b(2) = (  0.000000  0.902404  0.441526 )
               b(3) = (  0.000000  0.000000  0.780148 )

     PseudoPot. # 1 for Mo read from file:
     ~/pseudo/Mo.pw91-n-van.UPF
     MD5 check sum: Not computed, couldn't open file
     Pseudo is Ultrasoft + core correction, Zval =  6.0
     Generated by new atomic code, or converted to UPF format
     Using radial grid of  965 points,  3 beta functions with:
                l(1) =   1
                l(2) =   2
                l(3) =   2
     Q(r) pseudized with  8 coefficients,  rinner =    1.000   1.000   1.000
                                                       1.200   1.200

     PseudoPot. # 2 for S  read from file:
     ~/pseudo/S.pw91-van_ak.UPF
     MD5 check sum: Not computed, couldn't open file
     Pseudo is Ultrasoft, Zval =  6.0
     Generated by new atomic code, or converted to UPF format
     Using radial grid of  811 points,  6 beta functions with:
                l(1) =   0
                l(2) =   0
                l(3) =   1
                l(4) =   1
                l(5) =   2
                l(6) =   2
     Q(r) pseudized with  8 coefficients,  rinner =    1.100   1.100   1.100
                                                       1.100   1.100

     atomic species   valence    mass     pseudopotential
        Mo             6.00    95.50000     Mo( 1.00)
        S              6.00    32.06500     S ( 1.00)

     No symmetry found

   Cartesian axes

     site n.     atom                  positions (alat units)
         1           Mo  tau(   1) = (  -0.3340681   0.7720380   0.5239699  )
         2           Mo  tau(   2) = (  -0.0074414   0.7726918   0.1838981  )
         3           Mo  tau(   3) = (  -0.1074124   0.5317383   0.3547052  )
         4           Mo  tau(   4) = (   0.0470221   0.5012131   0.5998491  )
         5           Mo  tau(   5) = (   0.2918868   0.1745358   0.4715606  )
         6           Mo  tau(   6) = (   0.4998420   0.2474237   0.2588184  )
         7           Mo  tau(   7) = (   0.3396862  -0.0447925   0.1280697  )
         8           Mo  tau(   8) = (   0.3293741   0.8550400   0.4674721  )
         9           Mo  tau(   9) = (   0.0402302   0.1503948   0.6485774  )
        10           Mo  tau(  10) = (   0.7555369  -0.1237182   0.6403370  )
        11           Mo  tau(  11) = (  -0.5142338   0.3436367   1.2491805  )
        12           Mo  tau(  12) = (  -0.2661041   0.2093043   1.2197587  )
        13           Mo  tau(  13) = (   0.4088472   0.7162498   0.7087733  )
        14           Mo  tau(  14) = (   0.2584138   0.3593197   0.7044713  )
        15           S   tau(  15) = (  -0.2544894   0.7153229   0.2801138  )
        16           S   tau(  16) = (   0.0880527   0.7273024   0.4437709  )
        17           S   tau(  17) = (   0.0124806   0.2842380   0.4503328  )
        18           S   tau(  18) = (   0.7481801   0.3382546   0.2683212  )
        19           S   tau(  19) = (  -0.1124015   1.0028634   0.2186641  )
        20           S   tau(  20) = (   0.7529057  -0.1335466   0.3896242  )
        21           S   tau(  21) = (   0.0335411  -0.1085873   0.5836763  )
        22           S   tau(  22) = (   0.2480840   0.1900699   0.2170361  )
        23           S   tau(  23) = (   0.5349913   0.1968694   0.4889596  )
        24           S   tau(  24) = (   0.4621307   0.6491892   0.4770593  )
        25           S   tau(  25) = (   0.2416344   0.8358202   0.1611567  )
        26           S   tau(  26) = (   0.4522806   0.4872184   0.8122340  )
        27           S   tau(  27) = (   0.2550045   0.4231174   0.4770733  )
        28           S   tau(  28) = (   0.2918222   0.4200653   1.1293594  )
        29           S   tau(  29) = (  -0.1959322   0.5625145   0.5909650  )
        30           S   tau(  30) = (  -0.1806591   0.0943205   0.7350142  )
        31           S   tau(  31) = (  -0.4903378   0.1057209   1.2321681  )
        32           S   tau(  32) = (  -0.1538253  -0.3071695   0.7708581  )
        33           S   tau(  33) = (   0.0336626   0.3593139   0.7975119  )
        34           S   tau(  34) = (   0.0611955   0.5137176   0.1550027  )
        35           S   tau(  35) = (  -0.1266488   0.0806979   1.0606545  )
        36           S   tau(  36) = (   0.3621557  -0.0649363   0.4171856  )
        37           S   tau(  37) = (   0.1627528   0.6587217   0.7591217  )
        38           S   tau(  38) = (   0.4590943   0.4695701   0.1583725  )
        39           S   tau(  39) = (   0.2858408   0.1171922   0.7170213  )
        40           S   tau(  40) = (   0.5275625  -0.1562227   0.7015700  )
        41           S   tau(  41) = (  -0.3128628   0.4510955   1.1629062  )
        42           S   tau(  42) = (   0.5644383   0.0803759   0.0957409  )

     number of k points=     8  Marzari-Vanderbilt smearing, width (Ry)=  0.0200
                       cart. coord. in units 2pi/alat
        k(    1) = (   0.0000000   0.0000000   0.0000000), wk =   0.2500000
        k(    2) = (   0.0000000   0.0000000  -0.3900741), wk =   0.2500000
        k(    3) = (   0.0000000  -0.4512019  -0.2207629), wk =   0.2500000
        k(    4) = (   0.0000000  -0.4512019  -0.6108370), wk =   0.2500000
        k(    5) = (  -0.5000000  -0.0976060  -0.2053316), wk =   0.2500000
        k(    6) = (  -0.5000000  -0.0976060  -0.5954057), wk =   0.2500000
        k(    7) = (  -0.5000000  -0.5488078  -0.4260944), wk =   0.2500000
        k(    8) = (  -0.5000000  -0.5488078  -0.8161686), wk =   0.2500000

     Initial potential from superposition of free atoms

     starting charge  251.97792, renormalised to  252.00000
     Starting wfcs are  238 randomized atomic wfcs

     Self-consistent Calculation

     iteration #  1     ecut=    45.00 Ry     beta= 0.70
     Davidson diagonalization with overlap
     ethr =  1.00E-02,  avg # of iterations =  2.0

     total energy              =    -982.60582965 Ry
     Harris-Foulkes estimate   =    -986.45877991 Ry
     estimated scf accuracy    <      10.50410959 Ry

[...]

     iteration #  6     ecut=    45.00 Ry     beta= 0.70
     Davidson diagonalization with overlap
     c_bands:  2 eigenvalues not converged
     c_bands:  1 eigenvalues not converged
     ethr =  1.64E-05,  avg # of iterations = 16.0

[...]

     iteration #  7     ecut=    45.00 Ry     beta= 0.70
     Davidson diagonalization with overlap
     c_bands:  1 eigenvalues not converged
     ethr =  7.05E-06,  avg # of iterations =  8.6

[...]

     total energy              =    -984.65839839 Ry
     Harris-Foulkes estimate   =    -984.65839871 Ry
     estimated scf accuracy    <       0.00000366 Ry

     iteration # 14     ecut=    45.00 Ry     beta= 0.70
     Davidson diagonalization with overlap
     ethr =  1.45E-09,  avg # of iterations =  2.0

     negative rho (up, down):  1.464E-08 0.000E+00

     End of self-consistent calculation

          k = 0.0000 0.0000 0.0000 ( 42095 PWs)   bands (ev):

   -11.2766 -10.7142 -10.5321 -10.3375 -10.2427 -10.1534 -10.1318 -10.0867
   -10.0108  -9.9050  -9.8584  -9.8086  -9.7140  -9.6139  -9.5146  -9.4062
    -9.3784  -9.2494  -9.1505  -9.0230  -8.9216  -8.7782  -8.7458  -8.6890
    -8.6049  -8.2431  -8.0667  -7.9803  -2.9670  -2.7047  -2.5730  -2.5317
    -2.4827  -2.3801  -2.2530  -2.1944  -2.1059  -2.0566  -1.9963  -1.9408
    -1.8740  -1.7886  -1.7428  -1.7206  -1.6979  -1.5846  -1.5327  -1.4899
    -1.4431  -1.3905  -1.3387  -1.3223  -1.2141  -1.1925  -1.1317  -1.0846
    -1.0132  -0.9684  -0.9364  -0.9171  -0.8241  -0.7669  -0.7425  -0.6658
    -0.6354  -0.5618  -0.5538  -0.4939  -0.4581  -0.4504  -0.3633  -0.2963
    -0.2091  -0.2003  -0.1869  -0.1216  -0.0987  -0.0044   0.0603   0.0862
     0.1527   0.2054   0.2654   0.3325   0.3597   0.4401   0.4765   0.5482
     0.6041   0.7108   0.7906   0.8388   0.9211   0.9727   0.9852   1.0465
     1.0734   1.2083   1.2494   1.3317   1.4922   1.5589   1.5724   1.6847
     1.7176   1.7809   1.8417   1.8551   1.9168   1.9253   1.9958   2.1446
     2.1913   2.2227   2.3243   2.3683   2.4496   2.5188   2.5327   2.6422
     2.6912   2.7225   2.7553   2.8679   2.9151   3.0327   3.0956   3.1869
     3.2441   3.3686   3.4024   3.4562   3.5713   3.5883   3.7505   3.7978
     3.9558   4.0661   4.1097   4.2119   4.2871   4.4180   4.4919   4.5231
     4.5739   4.6839   4.7446   4.7889   4.8784   4.9197   5.0280

[...]

          k = 0.0000-0.4512-0.6108 ( 42066 PWs)   bands (ev):

[...]

          k =-0.5000-0.0976-0.2053 ( 42098 PWs)   bands (ev):

[...]

          k =-0.5000-0.5488-0.8162 ( 42098 PWs)   bands (ev):

   -11.2303 -10.7160 -10.6328 -10.3055 -10.2366 -10.1777 -10.1430 -10.0725
   -10.0045  -9.9265  -9.8669  -9.7878  -9.7199  -9.5928  -9.4997  -9.4539
    -9.3754  -9.2177  -9.1238  -9.0337  -8.9163  -8.7888  -8.7233  -8.6768
    -8.6119  -8.2417  -8.0649  -7.9816  -2.9983  -2.7159  -2.6105  -2.5323
    -2.4524  -2.3402  -2.1872  -2.1427  -2.0997  -2.0478  -1.9823  -1.9404
    -1.9225  -1.8850  -1.7546  -1.6929  -1.6553  -1.6020  -1.5297  -1.5113
    -1.4912  -1.4465  -1.3822  -1.3495  -1.2551  -1.1870  -1.1629  -1.0947
    -1.0187  -0.9446  -0.9146  -0.8683  -0.8074  -0.7516  -0.7188  -0.6946
    -0.6711  -0.6115  -0.4948  -0.4868  -0.4690  -0.4111  -0.4012  -0.3222
    -0.2300  -0.2057  -0.1745  -0.1155  -0.0717   0.0088   0.0613   0.0858
     0.1547   0.1731   0.3015   0.3618   0.3956   0.4419   0.5180   0.5702
     0.6553   0.7656   0.8066   0.8718   0.9452   0.9664   0.9942   1.0551
     1.1488   1.1783   1.2202   1.2903   1.4397   1.4743   1.5485   1.5926
     1.6693   1.7692   1.8613   1.8991   1.9285   1.9481   2.0460   2.0822
     2.1446   2.2312   2.2934   2.4760   2.4882   2.5203   2.5748   2.6758
     2.7311   2.7494   2.8051   2.8353   2.9649   3.0296   3.0583   3.1938
     3.2570   3.3505   3.3905   3.5475   3.5844   3.6329   3.6955   3.7906
     3.8445   3.8807   4.1375   4.1486   4.2775   4.3149   4.4455   4.4952
     4.6235   4.6692   4.7212   4.7989   4.9004   4.9560   4.9886

     the Fermi energy is     3.0477 ev

!    total energy              =    -984.65839840 Ry
     Harris-Foulkes estimate   =    -984.65839868 Ry
     estimated scf accuracy    <       0.00000046 Ry

     The total energy is the sum of the following terms:

     one-electron contribution =    -737.48006016 Ry
     hartree contribution      =     480.15564636 Ry
     xc contribution           =    -388.48363038 Ry
     ewald contribution        =    -338.86033062 Ry
     smearing contrib. (-TS)   =       0.00997641 Ry

     convergence has been achieved in  14 iterations

     negative rho (up, down):  1.464E-08 0.000E+00

     Forces acting on atoms (cartesian axes, Ry/au):

     atom    1 type  1   force =     0.01902571    0.02443023   -0.03358573
     atom    2 type  1   force =     0.02244958   -0.05014836    0.04545755
     atom    3 type  1   force =    -0.01262018   -0.05841036   -0.11611618
     atom    4 type  1   force =    -0.01542076    0.06437209   -0.06206428
     atom    5 type  1   force =     0.00670150   -0.00433072   -0.01321291
     atom    6 type  1   force =    -0.05301224    0.05337914   -0.10250255
     atom    7 type  1   force =     0.03637006   -0.00379340    0.09514919
     atom    8 type  1   force =    -0.04311502    0.10185194   -0.00375172
     atom    9 type  1   force =    -0.00912537   -0.01945812    0.00700136
     atom   10 type  1   force =     0.04616268    0.05872198   -0.04435503
     atom   11 type  1   force =    -0.11785537    0.06958304   -0.02028584
     atom   12 type  1   force =     0.09135591   -0.06513236   -0.09918836
     atom   13 type  1   force =     0.00375495   -0.03263617   -0.01692866
     atom   14 type  1   force =     0.10157536    0.01240825    0.09034742
     atom   15 type  2   force =     0.00825228   -0.01307331    0.00142782
     atom   16 type  2   force =    -0.01730924   -0.01284725   -0.00806611
     atom   17 type  2   force =    -0.00253584   -0.04981985   -0.02662979
     atom   18 type  2   force =     0.03133171    0.05499141    0.02900034
     atom   19 type  2   force =     0.00658949    0.00218071   -0.04515895
     atom   20 type  2   force =     0.00870131   -0.01320040    0.01228456
     atom   21 type  2   force =     0.00649663    0.01320904   -0.00966953
     atom   22 type  2   force =     0.02358632    0.00621268   -0.00601654
     atom   23 type  2   force =     0.03443836    0.02466810    0.04838723
     atom   24 type  2   force =    -0.03692971   -0.08695618   -0.01884791
     atom   25 type  2   force =    -0.01852043    0.01641478    0.01472287
     atom   26 type  2   force =    -0.00859843   -0.01587515   -0.02072590
     atom   27 type  2   force =     0.03228373    0.07078049   -0.05311791
     atom   28 type  2   force =     0.06101420   -0.02475331    0.03830595
     atom   29 type  2   force =    -0.02154101   -0.00283780    0.01841416
     atom   30 type  2   force =    -0.03890454    0.02245699    0.02409149
     atom   31 type  2   force =    -0.01283299   -0.04771449   -0.02155401
     atom   32 type  2   force =     0.04759314   -0.01079723    0.07478932
     atom   33 type  2   force =    -0.04173832   -0.03298953    0.08311989
     atom   34 type  2   force =    -0.03813618    0.02624670    0.05821311
     atom   35 type  2   force =    -0.05593023    0.05696397    0.06256508
     atom   36 type  2   force =     0.01841220   -0.02048522   -0.03603307
     atom   37 type  2   force =     0.00408569   -0.02401062    0.00184951
     atom   38 type  2   force =     0.01259014   -0.06126678    0.03845569
     atom   39 type  2   force =    -0.00574798   -0.03951779    0.01065710
     atom   40 type  2   force =    -0.08251229   -0.00456398    0.01955518
     atom   41 type  2   force =     0.00635986    0.01605607   -0.02204425
     atom   42 type  2   force =     0.00325536   -0.00030921    0.00606040

     Total force =     0.490608     Total SCF correction =     0.001175

     General routines

     Parallel routines

   This run was terminated on:  23: 5:41  24Dec2021

   JOB DONE.