     Program PWSCF v.6.4.1 starts on 28Jul2021 at 16:10:31

     R & G space division:  proc/nbgrp/npool/nimage =      20
     Waiting for input...
     Reading input from standard input
Warning: card    &IONS ignored
Warning: card      ION_DYNAMICS = 'BFGS' ignored
Warning: card   / ignored
Warning: card    &CELL ignored
Warning: card      CELL_DYNAMICS = 'BFGS', ignored
Warning: card    / ignored

     Current dimensions of program PWSCF are:
     Max number of different atomic species (ntypx) = 10
     Max number of k-points (npk) =  40000
     Max angular momentum in pseudopotentials (lmaxx) =  3

     Subspace diagonalization in iterative solution of the eigenvalue problem:
     a serial algorithm will be used

     bravais-lattice index     =            0
     lattice parameter (alat)  =      12.0576  a.u.
     unit-cell volume          =    4149.4302 (a.u.)^3
     number of atoms/cell      =           12
     number of atomic types    =            2
     number of electrons       =        72.00
     number of Kohn-Sham states=           43
     kinetic-energy cutoff     =      45.0000  Ry
     charge density cutoff     =     360.0000  Ry
     convergence threshold     =      1.0E-06
     mixing beta               =       0.7000
     number of iterations used =            8  local-TF  mixing
     Exchange-correlation      = SLA PW GGX GGC ( 1  4  2  2 0 0)

     celldm(1)=  12.057643  celldm(2)=   0.000000  celldm(3)=   0.000000
     celldm(4)=   0.000000  celldm(5)=   0.000000  celldm(6)=   0.000000

     crystal axes: (cart. coord. in units of alat)
               a(1) = (   1.000000   0.000000   0.000000 )
               a(2) = (  -0.500000   0.866025   0.000000 )
               a(3) = (   0.000000   0.000000   2.733194 )

     reciprocal axes: (cart. coord. in units 2 pi/alat)
               b(1) = (  1.000000  0.577350 -0.000000 )
               b(2) = (  0.000000  1.154700  0.000000 )
               b(3) = (  0.000000 -0.000000  0.365872 )

     PseudoPot. # 1 for Mo read from file:
     /home/kkety/pseudo/Mo.pw91-n-van.UPF
     MD5 check sum: 875977911cf57e7168990cb144db214a
     Pseudo is Ultrasoft + core correction, Zval =  6.0
     Generated by new atomic code, or converted to UPF format
     Using radial grid of  965 points,  3 beta functions with:
                l(1) =   1
                l(2) =   2
                l(3) =   2
     Q(r) pseudized with  8 coefficients,  rinner =    1.000   1.000   1.000
                                                       1.200   1.200

     PseudoPot. # 2 for S  read from file:
     /home/kkety/pseudo/S.pw91-van_ak.UPF
     MD5 check sum: 708c80e9edb6b1bde406d41998b2c042
     Pseudo is Ultrasoft, Zval =  6.0
     Generated by new atomic code, or converted to UPF format
     Using radial grid of  811 points,  6 beta functions with:
                l(1) =   0
                l(2) =   0
                l(3) =   1
                l(4) =   1
                l(5) =   2
                l(6) =   2
     Q(r) pseudized with  8 coefficients,  rinner =    1.100   1.100   1.100
                                                       1.100   1.100

     atomic species   valence    mass     pseudopotential
        Mo             6.00    95.50000     Mo( 1.00)
        S              6.00    32.06500     S ( 1.00)

     No symmetry found

   Cartesian axes

     site n.     atom                  positions (alat units)
         1           Mo  tau(   1) = (   0.0074022   0.0080801  -0.0112047  )
         2           Mo  tau(   2) = (  -0.2500983   0.4413946   0.0132424  )
         3           Mo  tau(   3) = (   0.4863659   0.0057129   0.0052057  )
         4           Mo  tau(   4) = (   0.2510189   0.4289349   0.0150983  )
         5           S   tau(   5) = (   0.0075237   0.2929174   0.2583324  )
         6           S   tau(   6) = (  -0.2379274   0.7149185   0.2379037  )
         7           S   tau(   7) = (   0.4862802   0.2958937   0.2429539  )
         8           S   tau(   8) = (   0.2486974   0.7075034   0.2387185  )
         9           S   tau(   9) = (   0.0078887   0.2991371   2.4793405  )
        10           S   tau(  10) = (  -0.2486573   0.7062581   2.4903351  )
        11           S   tau(  11) = (   0.4874149   0.2864170   2.4970029  )
        12           S   tau(  12) = (   0.2570367   0.7156204   2.4753184  )

     number of k points=     5  Marzari-Vanderbilt smearing, width (Ry)=  0.0200
                       cart. coord. in units 2pi/alat
        k(    1) = (   0.0000000   0.0000000   0.0000000), wk =   0.2222222
        k(    2) = (   0.0000000   0.3849002   0.0000000), wk =   0.4444444
        k(    3) = (   0.3333333   0.5773503   0.0000000), wk =   0.4444444
        k(    4) = (  -0.3333333   0.1924500   0.0000000), wk =   0.4444444
        k(    5) = (   0.3333333   0.1924501   0.0000000), wk =   0.4444444

     Initial potential from superposition of free atoms

     starting charge   71.99369, renormalised to   72.00000

     negative rho (up, down):  6.746E-04 0.000E+00
     Starting wfcs are   68 randomized atomic wfcs

     Self-consistent Calculation

     iteration #  1     ecut=    45.00 Ry     beta= 0.70
     Davidson diagonalization with overlap
     ethr =  1.00E-02,  avg # of iterations =  2.0

     negative rho (up, down):  2.376E-05 0.000E+00

     total energy              =    -281.34907819 Ry
     Harris-Foulkes estimate   =    -282.15833917 Ry
     estimated scf accuracy    <       2.05778938 Ry

[...]

     total energy              =    -281.74648236 Ry
     Harris-Foulkes estimate   =    -281.74648536 Ry
     estimated scf accuracy    <       0.00001985 Ry

     iteration # 13     ecut=    45.00 Ry     beta= 0.70
     Davidson diagonalization with overlap
     ethr =  2.76E-08,  avg # of iterations =  2.2

[...]

     End of self-consistent calculation

          k = 0.0000 0.0000 0.0000 ( 21137 PWs)   bands (ev):

   -15.2154 -13.9616 -13.6062 -13.3806 -13.2706 -13.1647 -13.0662 -12.8449
    -6.9141  -6.8975  -6.7985  -6.4892  -5.9359  -5.8454  -5.7019  -5.3970
    -5.0035  -4.9405  -4.4321  -4.3802  -3.9662  -3.7775  -3.7100  -3.0682
    -3.0165  -2.8599  -2.7385  -2.6348  -2.3351  -2.0446  -1.9528  -1.8723
    -1.6509  -1.5623  -1.4931  -0.9975   0.8211   1.0043   1.0345   1.4149
     1.4469   1.6051   1.6232

[...]

          k =-0.3333 0.1925 0.0000 ( 21146 PWs)   bands (ev):

[...]

          k = 0.3333 0.1925 0.0000 ( 21146 PWs)   bands (ev):

   -14.8531 -14.0033 -13.7946 -13.4237 -13.3766 -13.3091 -13.0797 -12.9134
    -6.5124  -6.4160  -6.3631  -6.0585  -5.9688  -5.8400  -5.2401  -5.1153
    -4.8728  -4.7310  -4.4911  -4.3793  -4.3158  -3.9062  -3.7802  -3.4289
    -3.3850  -3.2585  -2.9996  -2.8421  -2.6902  -2.5511  -2.3386  -2.1321
    -1.8966  -1.6758  -1.3453  -1.2275   0.8000   1.0072   1.0549   1.1274
     1.2919   1.3720   1.5220

     the Fermi energy is    -0.8869 ev

!    total energy              =    -281.74648764 Ry
     Harris-Foulkes estimate   =    -281.74648506 Ry
     estimated scf accuracy    <       0.00000019 Ry

     The total energy is the sum of the following terms:

     one-electron contribution =   -1427.29352051 Ry
     hartree contribution      =     735.26960499 Ry
     xc contribution           =    -111.65510108 Ry
     ewald contribution        =     521.92493152 Ry
     smearing contrib. (-TS)   =       0.00759745 Ry

     convergence has been achieved in  13 iterations

     negative rho (up, down):  9.341E-04 0.000E+00

     Forces acting on atoms (cartesian axes, Ry/au):

     atom    1 type  1   force =    -0.03905858   -0.03713971    0.04134625
     atom    2 type  1   force =     0.01071264   -0.11396609   -0.08713256
     atom    3 type  1   force =     0.11626387   -0.05050042   -0.07099946
     atom    4 type  1   force =    -0.06096614    0.04027592   -0.15341197
     atom    5 type  2   force =    -0.03290133   -0.03120670    0.00312159
     atom    6 type  2   force =    -0.06606721    0.05859946    0.10786197
     atom    7 type  2   force =     0.06605559   -0.03524087    0.09692268
     atom    8 type  2   force =     0.01287509    0.09617586    0.04291783
     atom    9 type  2   force =    -0.02023718   -0.00417869    0.03054268
     atom   10 type  2   force =    -0.00086186    0.04056315   -0.03484317
     atom   11 type  2   force =     0.03478677    0.01779349   -0.02499341
     atom   12 type  2   force =    -0.02060167    0.01882460    0.04866757

     Total force =     0.364097     Total SCF correction =     0.000508

     General routines

     Parallel routines

   This run was terminated on:  16:19:34  28Jul2021

   JOB DONE.