     Program PWSCF v.6.4 starts on  8Sep2021 at 12: 6: 8

     R & G space division:  proc/nbgrp/npool/nimage =      40
     Waiting for input...
     Reading input from standard input
Warning: card    &IONS ignored
Warning: card      ION_DYNAMICS = 'BFGS' ignored
Warning: card   / ignored
Warning: card    &CELL ignored
Warning: card      CELL_DYNAMICS = 'BFGS', ignored
Warning: card    / ignored

     Current dimensions of program PWSCF are:
     Max number of different atomic species (ntypx) = 10
     Max number of k-points (npk) =  40000
     Max angular momentum in pseudopotentials (lmaxx) =  3

     bravais-lattice index     =            0
     lattice parameter (alat)  =      11.0490  a.u.
     unit-cell volume          =    3462.7721 (a.u.)^3
     number of atoms/cell      =           27
     number of atomic types    =            2
     number of electrons       =       162.00
     number of Kohn-Sham states=           97
     kinetic-energy cutoff     =      45.0000  Ry
     charge density cutoff     =     360.0000  Ry
     convergence threshold     =      1.0E-06
     mixing beta               =       0.7000
     number of iterations used =            8  local-TF  mixing
     Exchange-correlation      = SLA PW GGX GGC ( 1  4  2  2 0 0)

     celldm(1)=  11.049021  celldm(2)=   0.000000  celldm(3)=   0.000000
     celldm(4)=   0.000000  celldm(5)=   0.000000  celldm(6)=   0.000000

     crystal axes: (cart. coord. in units of alat)
               a(1) = (   0.999945  -0.009352  -0.004717 )
               a(2) = (  -0.006106   1.494319   0.078566 )
               a(3) = (  -0.009387   0.304422   1.734144 )

     reciprocal axes: (cart. coord. in units 2 pi/alat)
               b(1) = (  1.000113  0.003837  0.004740 )
               b(2) = (  0.005758  0.675457 -0.118543 )
               b(3) = (  0.002459 -0.030592  0.582037 )

     PseudoPot. # 1 for Mo read from file:
     ~/pseudo/Mo.pw91-n-van.UPF
     MD5 check sum: Not computed, couldn't open file
     Pseudo is Ultrasoft + core correction, Zval =  6.0
     Generated by new atomic code, or converted to UPF format
     Using radial grid of  965 points,  3 beta functions with:
                l(1) =   1
                l(2) =   2
                l(3) =   2
     Q(r) pseudized with  8 coefficients,  rinner =    1.000   1.000   1.000
                                                       1.200   1.200

     PseudoPot. # 2 for S  read from file:
     ~/pseudo/S.pw91-van_ak.UPF
     MD5 check sum: Not computed, couldn't open file
     Pseudo is Ultrasoft, Zval =  6.0
     Generated by new atomic code, or converted to UPF format
     Using radial grid of  811 points,  6 beta functions with:
                l(1) =   0
                l(2) =   0
                l(3) =   1
                l(4) =   1
                l(5) =   2
                l(6) =   2
     Q(r) pseudized with  8 coefficients,  rinner =    1.100   1.100   1.100
                                                       1.100   1.100

     atomic species   valence    mass     pseudopotential
        Mo             6.00    95.50000     Mo( 1.00)
        S              6.00    32.06500     S ( 1.00)

     No symmetry found

   Cartesian axes

     site n.     atom                  positions (alat units)
         1           Mo  tau(   1) = (   0.9525322   1.0171094   0.8290093  )
         2           Mo  tau(   2) = (   0.9573613   0.9251310   0.1845148  )
         3           Mo  tau(   3) = (   0.9477920   0.4365471   0.6050473  )
         4           Mo  tau(   4) = (   0.9341994   1.6227594   1.6144537  )
         5           Mo  tau(   5) = (   0.9495453   0.6169550   1.1151823  )
         6           Mo  tau(   6) = (   0.9395428   1.5308354   0.9698438  )
         7           Mo  tau(   7) = (   0.4440857   0.6840351   1.7292025  )
         8           Mo  tau(   8) = (   0.4497307   1.1149708   1.3834293  )
         9           Mo  tau(   9) = (   0.4414974   1.4416207   0.4207098  )
        10           S   tau(  10) = (   0.6786991   0.3672409   0.9012037  )
        11           S   tau(  11) = (   0.2121470   1.2381046   1.0590403  )
        12           S   tau(  12) = (   0.6898907   1.0180858   1.6913924  )
        13           S   tau(  13) = (   0.1523303   0.2686669   1.1984313  )
        14           S   tau(  14) = (   0.6917475   0.9236532   1.1211206  )
        15           S   tau(  15) = (   0.6792502   1.3189196   0.7448986  )
        16           S   tau(  16) = (   0.6890682   1.2337150   0.1769556  )
        17           S   tau(  17) = (   0.2040955   0.7883658   1.4026563  )
        18           S   tau(  18) = (   0.1701411   0.5784210   0.2488091  )
        19           S   tau(  19) = (   0.1901630   1.1165511   0.4869424  )
        20           S   tau(  20) = (   0.2058652   0.1391630   0.6036772  )
        21           S   tau(  21) = (   0.2027491   1.3236795   1.6267758  )
        22           S   tau(  22) = (   0.7455213   0.7941821   0.5265572  )
        23           S   tau(  23) = (   0.7015047   1.4405452   1.3169396  )
        24           S   tau(  24) = (   0.2079260   0.0451627   0.0338517  )
        25           S   tau(  25) = (   0.2190756   0.6952040   0.8240251  )
        26           S   tau(  26) = (   0.7275280   0.4844828   1.4765179  )
        27           S   tau(  27) = (   0.6933505   0.2743914   0.3220697  )

     number of k points=     8  Marzari-Vanderbilt smearing, width (Ry)=  0.0200
                       cart. coord. in units 2pi/alat
        k(    1) = (   0.0000000   0.0000000   0.0000000), wk =   0.1666667
        k(    2) = (  -0.0012297   0.0152958  -0.2910184), wk =   0.1666667
        k(    3) = (  -0.0028789  -0.3377286   0.0592713), wk =   0.1666667
        k(    4) = (  -0.0041086  -0.3224328  -0.2317471), wk =   0.1666667
        k(    5) = (   0.3333710   0.0012791   0.0015800), wk =   0.3333333
        k(    6) = (   0.3321414   0.0165748  -0.2894384), wk =   0.3333333
        k(    7) = (   0.3304921  -0.3364495   0.0608513), wk =   0.3333333
        k(    8) = (   0.3292625  -0.3211537  -0.2301671), wk =   0.3333333

     Initial potential from superposition of free atoms

     starting charge  161.98581, renormalised to  162.00000
     Starting wfcs are  153 randomized atomic wfcs

     Self-consistent Calculation

     iteration #  1     ecut=    45.00 Ry     beta= 0.70
     Davidson diagonalization with overlap
     ethr =  1.00E-02,  avg # of iterations =  2.0

     total energy              =    -632.19162467 Ry
     Harris-Foulkes estimate   =    -634.58428074 Ry
     estimated scf accuracy    <       5.97618623 Ry

[...]

     total energy              =    -633.44563732 Ry
     Harris-Foulkes estimate   =    -633.44563764 Ry
     estimated scf accuracy    <       0.00000263 Ry

     iteration # 13     ecut=    45.00 Ry     beta= 0.70
     Davidson diagonalization with overlap
     ethr =  1.59E-09,  avg # of iterations =  1.0

     End of self-consistent calculation

          k = 0.0000 0.0000 0.0000 ( 17663 PWs)   bands (ev):

    -6.5938  -5.7611  -5.7113  -5.3945  -5.3890  -5.2471  -5.1898  -5.0543
    -5.0468  -4.9977  -4.9742  -4.7630  -4.7179  -4.6317  -4.5522  -4.5165
    -4.3866  -4.3781   1.5284   1.9924   2.0963   2.1273   2.2825   2.3049
     2.3275   2.5469   2.6056   2.6741   2.6963   2.7028   2.7969   2.9106
     2.9578   3.0560   3.1605   3.2716   3.2836   3.3210   3.5275   3.6425
     3.6447   3.7148   3.8496   3.8524   4.0229   4.0971   4.1979   4.2383
     4.3939   4.3986   4.4338   4.4722   4.6054   4.6799   5.0210   5.1006
     5.1416   5.2463   5.3590   5.4034   5.4428   5.4537   5.5511   5.7250
     5.8847   6.1086   6.2150   6.3005   6.3814   6.6357   6.6720   6.8350
     6.8999   7.0249   7.1244   7.1735   7.3081   7.4106   7.6430   7.6516
     7.6941   7.8001   7.8671   8.1955   8.3902   8.5492   8.5641   8.6727
     8.7805   8.8572   8.8832   8.9911   9.0750   9.1495   9.3660   9.4873
     9.5281

          k =-0.0012 0.0153-0.2910 ( 17674 PWs)   bands (ev):

[...]

          k =-0.0041-0.3224-0.2317 ( 17644 PWs)   bands (ev):

[...]

          k = 0.3293-0.3212-0.2302 ( 17648 PWs)   bands (ev):

    -6.0108  -5.9089  -5.7961  -5.6423  -5.3915  -5.3240  -5.2263  -5.1400
    -5.0555  -5.0080  -4.9535  -4.8235  -4.7450  -4.6209  -4.5386  -4.4536
    -4.4212  -4.3931   1.7642   1.8227   1.8983   2.0148   2.1877   2.2172
     2.3184   2.4629   2.5032   2.5868   2.6323   2.7310   2.7559   2.8117
     2.8730   3.0883   3.1817   3.4232   3.4542   3.5189   3.5880   3.6663
     3.7834   3.8776   3.9023   3.9999   4.1381   4.2360   4.3008   4.4122
     4.4215   4.4732   4.5673   4.7718   4.8134   4.8578   5.0289   5.0883
     5.1711   5.2315   5.3597   5.4420   5.5666   5.5833   5.6896   5.7866
     5.9239   5.9613   6.1218   6.2313   6.3316   6.3930   6.5184   6.5929
     6.7309   6.9727   7.0232   7.0720   7.1800   7.2782   7.3435   7.6183
     7.6694   7.8574   7.9393   7.9798   8.2010   8.3097   8.4258   8.5867
     8.6839   8.8231   8.9402   9.0248   9.1491   9.2970   9.3334   9.5376
     9.6269

     the Fermi energy is     7.7690 ev

!    total energy              =    -633.44563731 Ry
     Harris-Foulkes estimate   =    -633.44563748 Ry
     estimated scf accuracy    <       0.00000022 Ry

     The total energy is the sum of the following terms:

     one-electron contribution =      75.25605475 Ry
     hartree contribution      =      61.15842091 Ry
     xc contribution           =    -250.39295453 Ry
     ewald contribution        =    -519.46450751 Ry
     smearing contrib. (-TS)   =      -0.00265093 Ry

     convergence has been achieved in  13 iterations

     Forces acting on atoms (cartesian axes, Ry/au):

     atom    1 type  1   force =     0.00601291    0.00963035   -0.00479793
     atom    2 type  1   force =     0.00715192    0.00465217    0.00365635
     atom    3 type  1   force =     0.02611371    0.03026481    0.00573169
     atom    4 type  1   force =    -0.00750574   -0.00417082   -0.00358370
     atom    5 type  1   force =    -0.02539556   -0.02983647   -0.00533386
     atom    6 type  1   force =    -0.00761707   -0.01014270    0.00450663
     atom    7 type  1   force =     0.00055580   -0.00006428   -0.00031182
     atom    8 type  1   force =    -0.00696342   -0.01020352    0.01060424
     atom    9 type  1   force =     0.00796168    0.01077002   -0.01118707
     atom   10 type  2   force =    -0.00406478    0.00026206   -0.00075730
     atom   11 type  2   force =     0.00563444   -0.00580117    0.00413688
     atom   12 type  2   force =    -0.00170034   -0.00668293   -0.00121930
     atom   13 type  2   force =     0.01464122   -0.00443757   -0.00495884
     atom   14 type  2   force =     0.00928773   -0.01287218   -0.00602114
     atom   15 type  2   force =    -0.00478570    0.00585955   -0.00444303
     atom   16 type  2   force =    -0.00030933   -0.00758402   -0.00830563
     atom   17 type  2   force =     0.00374618    0.00425608    0.00353410
     atom   18 type  2   force =     0.00934532   -0.00262241    0.00143595
     atom   19 type  2   force =     0.00528030    0.01280149   -0.00358399
     atom   20 type  2   force =    -0.00969143    0.01317370    0.00626675
     atom   21 type  2   force =    -0.00006460    0.00713719    0.00892237
     atom   22 type  2   force =    -0.01482099    0.00458005    0.00545985
     atom   23 type  2   force =    -0.00504694   -0.01308933    0.00374737
     atom   24 type  2   force =     0.00150858    0.00622797    0.00136368
     atom   25 type  2   force =     0.00374141   -0.00041656    0.00089489
     atom   26 type  2   force =    -0.00921920    0.00263963   -0.00240645
     atom   27 type  2   force =    -0.00379609   -0.00433112   -0.00335069

     Total force =     0.081446     Total SCF correction =     0.000890

     General routines

     Parallel routines

   This run was terminated on:  12: 7: 7   8Sep2021

   JOB DONE.