     Program PWSCF v.6.4 starts on 24Dec2021 at  0:59:29

     R & G space division:  proc/nbgrp/npool/nimage =      40
     Waiting for input...
     Reading input from standard input
Warning: card    &IONS ignored
Warning: card      ION_DYNAMICS = 'BFGS' ignored
Warning: card   / ignored
Warning: card    &CELL ignored
Warning: card      CELL_DYNAMICS = 'BFGS', ignored
Warning: card    / ignored

     Current dimensions of program PWSCF are:
     Max number of different atomic species (ntypx) = 10
     Max number of k-points (npk) =  40000
     Max angular momentum in pseudopotentials (lmaxx) =  3

     bravais-lattice index     =            0
     lattice parameter (alat)  =      18.0283  a.u.
     unit-cell volume          =    6236.0753 (a.u.)^3
     number of atoms/cell      =           27
     number of atomic types    =            2
     number of electrons       =       162.00
     number of Kohn-Sham states=           97
     kinetic-energy cutoff     =      45.0000  Ry
     charge density cutoff     =     360.0000  Ry
     convergence threshold     =      1.0E-06
     mixing beta               =       0.7000
     number of iterations used =            8  local-TF  mixing
     Exchange-correlation      = SLA PW GGX GGC ( 1  4  2  2 0 0)

     celldm(1)=  18.028257  celldm(2)=   0.000000  celldm(3)=   0.000000
     celldm(4)=   0.000000  celldm(5)=   0.000000  celldm(6)=   0.000000

     crystal axes: (cart. coord. in units of alat)
               a(1) = (   1.000000   0.000000   0.000000 )
               a(2) = (   0.252946   0.995536   0.000000 )
               a(3) = (   0.056906   0.266191   1.069038 )

     reciprocal axes: (cart. coord. in units 2 pi/alat)
               b(1) = (  1.000000 -0.254080  0.010035 )
               b(2) = (  0.000000  1.004484 -0.250117 )
               b(3) = (  0.000000  0.000000  0.935420 )

     PseudoPot. # 1 for Mo read from file:
     ~/pseudo/Mo.pw91-n-van.UPF
     MD5 check sum: Not computed, couldn't open file
     Pseudo is Ultrasoft + core correction, Zval =  6.0
     Generated by new atomic code, or converted to UPF format
     Using radial grid of  965 points,  3 beta functions with:
                l(1) =   1
                l(2) =   2
                l(3) =   2
     Q(r) pseudized with  8 coefficients,  rinner =    1.000   1.000   1.000
                                                       1.200   1.200

     PseudoPot. # 2 for S  read from file:
     ~/pseudo/S.pw91-van_ak.UPF
     MD5 check sum: Not computed, couldn't open file
     Pseudo is Ultrasoft, Zval =  6.0
     Generated by new atomic code, or converted to UPF format
     Using radial grid of  811 points,  6 beta functions with:
                l(1) =   0
                l(2) =   0
                l(3) =   1
                l(4) =   1
                l(5) =   2
                l(6) =   2
     Q(r) pseudized with  8 coefficients,  rinner =    1.100   1.100   1.100
                                                       1.100   1.100

     atomic species   valence    mass     pseudopotential
        Mo             6.00    95.50000     Mo( 1.00)
        S              6.00    32.06500     S ( 1.00)

     No symmetry found

   Cartesian axes

     site n.     atom                  positions (alat units)
         1           Mo  tau(   1) = (   0.5040708   0.7797246   0.7649527  )
         2           Mo  tau(   2) = (   0.3931007   0.4862595   0.7834262  )
         3           Mo  tau(   3) = (   1.1459159   0.6241888   0.6113839  )
         4           Mo  tau(   4) = (   0.8398319   0.6781160   0.6542173  )
         5           Mo  tau(   5) = (   0.5308924   0.2842343   0.9776705  )
         6           Mo  tau(   6) = (   0.7747738   0.8613754   0.8676936  )
         7           Mo  tau(   7) = (   0.8856291   0.9253105   0.1283686  )
         8           Mo  tau(   8) = (   0.9811057   0.7848824   0.3874099  )
         9           Mo  tau(   9) = (   0.6577015   0.5754182   0.9326641  )
        10           S   tau(  10) = (   0.9216940   1.0580748   0.9285644  )
        11           S   tau(  11) = (   0.6429526   0.9110379   0.1146578  )
        12           S   tau(  12) = (   0.9118859   1.0199639   0.3521048  )
        13           S   tau(  13) = (   0.6890738   0.8985438   0.6382938  )
        14           S   tau(  14) = (   0.9677859   0.4567281   0.6363282  )
        15           S   tau(  15) = (   0.6064498   0.5583467   0.6887190  )
        16           S   tau(  16) = (   0.7691005   0.3621143   1.0264065  )
        17           S   tau(  17) = (   1.0143250   0.7163779   0.1406734  )
        18           S   tau(  18) = (   0.3674409   0.2369054   0.7959912  )
        19           S   tau(  19) = (   0.5771167   0.8046805   1.0020566  )
        20           S   tau(  20) = (   0.3059856   0.4355040   0.5457383  )
        21           S   tau(  21) = (   0.2218227   0.7222296   0.3964461  )
        22           S   tau(  22) = (   0.3630151   0.9949124   0.7143056  )
        23           S   tau(  23) = (   0.8992410   0.6547956   0.9091073  )
        24           S   tau(  24) = (   0.4338652   0.5060992   1.0351065  )
        25           S   tau(  25) = (   0.2601233   0.6933216   0.8210079  )
        26           S   tau(  26) = (   1.0291585   0.8553121   0.6322171  )
        27           S   tau(  27) = (   0.7901168   0.6323936   0.4055424  )

     number of k points=     8  Marzari-Vanderbilt smearing, width (Ry)=  0.0200
                       cart. coord. in units 2pi/alat
        k(    1) = (   0.0000000   0.0000000   0.0000000), wk =   0.2500000
        k(    2) = (   0.0000000   0.0000000  -0.4677102), wk =   0.2500000
        k(    3) = (   0.0000000  -0.5022420   0.1250585), wk =   0.2500000
        k(    4) = (   0.0000000  -0.5022420  -0.3426517), wk =   0.2500000
        k(    5) = (  -0.5000000   0.1270399  -0.0050174), wk =   0.2500000
        k(    6) = (  -0.5000000   0.1270399  -0.4727277), wk =   0.2500000
        k(    7) = (  -0.5000000  -0.3752021   0.1200411), wk =   0.2500000
        k(    8) = (  -0.5000000  -0.3752021  -0.3476692), wk =   0.2500000

     Initial potential from superposition of free atoms

     starting charge  161.98581, renormalised to  162.00000
     Starting wfcs are  153 randomized atomic wfcs

     Self-consistent Calculation

     iteration #  1     ecut=    45.00 Ry     beta= 0.70
     Davidson diagonalization with overlap
     ethr =  1.00E-02,  avg # of iterations =  2.0

     total energy              =    -631.82159850 Ry
     Harris-Foulkes estimate   =    -634.32562184 Ry
     estimated scf accuracy    <       6.93637921 Ry

[...]

     negative rho (up, down):  2.839E-08 0.000E+00

[...]

     total energy              =    -633.15088025 Ry
     Harris-Foulkes estimate   =    -633.15088038 Ry
     estimated scf accuracy    <       0.00000108 Ry

     iteration # 15     ecut=    45.00 Ry     beta= 0.70
     Davidson diagonalization with overlap
     ethr =  6.70E-10,  avg # of iterations =  1.0

[...]

     End of self-consistent calculation

          k = 0.0000 0.0000 0.0000 ( 31799 PWs)   bands (ev):

   -12.2577 -11.6751 -11.3486 -11.2358 -11.1423 -11.0639 -10.9004 -10.7968
   -10.6761 -10.5921 -10.5303 -10.5126 -10.3955 -10.2664 -10.1294 -10.0314
    -9.9097  -9.1541  -4.0684  -3.8159  -3.4930  -3.4719  -3.3569  -3.0735
    -2.9531  -2.8768  -2.7553  -2.7212  -2.6035  -2.5673  -2.4981  -2.4449
    -2.3720  -2.3315  -2.3064  -2.2705  -2.1345  -2.1062  -2.0176  -1.9833
    -1.8018  -1.7939  -1.7277  -1.6585  -1.5664  -1.5534  -1.5016  -1.4537
    -1.3707  -1.2629  -1.2501  -1.1903  -1.1337  -1.1060  -0.9461  -0.8274
    -0.7527  -0.7197  -0.5329  -0.4916  -0.4674  -0.2721  -0.1955  -0.1488
    -0.0045   0.0940   0.3325   0.3994   0.5072   0.6135   0.6858   0.7654
     0.8601   1.1158   1.2080   1.2780   1.4313   1.4570   1.5944   1.6802
     1.7405   1.8913   2.0309   2.1806   2.2658   2.4772   2.5075   2.6920
     2.7881   2.9330   3.0878   3.1092   3.2639   3.3089   3.4730   3.5443
     3.6194

[...]

          k = 0.0000-0.5022-0.3427 ( 31838 PWs)   bands (ev):

[...]

          k =-0.5000 0.1270-0.0050 ( 31780 PWs)   bands (ev):

[...]

          k =-0.5000-0.3752-0.3477 ( 31780 PWs)   bands (ev):

   -12.2321 -11.5938 -11.5033 -11.2566 -11.1372 -11.0660 -10.9336 -10.7330
   -10.6821 -10.5996 -10.5311 -10.4931 -10.3577 -10.2661 -10.1735  -9.9939
    -9.9070  -9.1442  -4.1192  -3.7303  -3.6592  -3.5109  -3.1794  -3.1516
    -3.0011  -2.8208  -2.7253  -2.7051  -2.6652  -2.5817  -2.5308  -2.4481
    -2.3772  -2.3047  -2.2791  -2.2042  -2.1925  -2.1277  -2.0704  -1.9140
    -1.8885  -1.8406  -1.7532  -1.6256  -1.6008  -1.5088  -1.4613  -1.4225
    -1.3800  -1.3120  -1.1799  -1.1141  -1.0780  -1.0121  -0.9271  -0.8405
    -0.8161  -0.6242  -0.6034  -0.5090  -0.4478  -0.2884  -0.2122  -0.1309
     0.0156   0.1596   0.2888   0.3843   0.4165   0.6346   0.6493   0.8570
     0.9673   1.1429   1.2154   1.3471   1.4262   1.5296   1.5514   1.5873
     1.6505   1.8593   1.9775   2.1023   2.2906   2.4427   2.6409   2.6808
     2.7486   2.8371   2.9795   3.0745   3.1393   3.3403   3.5156   3.5266
     3.6262

     the Fermi energy is     1.7992 ev

!    total energy              =    -633.15087992 Ry
     Harris-Foulkes estimate   =    -633.15088028 Ry
     estimated scf accuracy    <       0.00000042 Ry

     The total energy is the sum of the following terms:

     one-electron contribution =    -491.81491300 Ry
     hartree contribution      =     310.04749808 Ry
     xc contribution           =    -249.25337141 Ry
     ewald contribution        =    -202.13782107 Ry
     smearing contrib. (-TS)   =       0.00772748 Ry

     convergence has been achieved in  15 iterations

     negative rho (up, down):  8.574E-08 0.000E+00

     Forces acting on atoms (cartesian axes, Ry/au):

     atom    1 type  1   force =    -0.04631633    0.12779141   -0.00702779
     atom    2 type  1   force =    -0.00875960   -0.00248426   -0.05232664
     atom    3 type  1   force =    -0.01160027   -0.03827772    0.00054250
     atom    4 type  1   force =     0.04555074    0.04169502   -0.01179678
     atom    5 type  1   force =    -0.03378869    0.01522365   -0.05425140
     atom    6 type  1   force =     0.00776566    0.03985931   -0.00039334
     atom    7 type  1   force =     0.02514831   -0.04798894    0.03191029
     atom    8 type  1   force =    -0.02892145   -0.01991333    0.01026302
     atom    9 type  1   force =    -0.02192797   -0.01789561   -0.02334408
     atom   10 type  2   force =    -0.02611850   -0.02049331   -0.01694243
     atom   11 type  2   force =     0.01372798    0.00463327    0.00597232
     atom   12 type  2   force =     0.00077555   -0.00841810   -0.01381450
     atom   13 type  2   force =     0.00741273   -0.01943048    0.00319654
     atom   14 type  2   force =     0.02836470    0.01635479   -0.01028529
     atom   15 type  2   force =     0.00461591   -0.03056995   -0.00573028
     atom   16 type  2   force =     0.01349161   -0.00995969    0.00398212
     atom   17 type  2   force =    -0.02601608    0.04087743    0.01841089
     atom   18 type  2   force =     0.02437502   -0.00177070    0.01411173
     atom   19 type  2   force =    -0.02047904    0.00205119    0.00664356
     atom   20 type  2   force =    -0.00724598    0.02431876    0.03195153
     atom   21 type  2   force =    -0.01035415   -0.01899073   -0.01038235
     atom   22 type  2   force =     0.05151157   -0.08131390    0.02193909
     atom   23 type  2   force =     0.01235053   -0.00049946    0.00479090
     atom   24 type  2   force =    -0.01457829    0.00728685    0.03646468
     atom   25 type  2   force =    -0.00744042   -0.00171551    0.02369330
     atom   26 type  2   force =    -0.00764692   -0.02205732    0.00020278
     atom   27 type  2   force =     0.03610338    0.02168732   -0.00778036

     Total force =     0.254979     Total SCF correction =     0.001400

     General routines

     Parallel routines

   This run was terminated on:   1: 1:17  24Dec2021

   JOB DONE.