     Program PWSCF v.6.4 starts on  3Dec2021 at 22: 5:32

     R & G space division:  proc/nbgrp/npool/nimage =      40
     Waiting for input...
     Reading input from standard input
Warning: card    &IONS ignored
Warning: card      ION_DYNAMICS = 'BFGS' ignored
Warning: card   / ignored
Warning: card    &CELL ignored
Warning: card      CELL_DYNAMICS = 'BFGS', ignored
Warning: card    / ignored

     Current dimensions of program PWSCF are:
     Max number of different atomic species (ntypx) = 10
     Max number of k-points (npk) =  40000
     Max angular momentum in pseudopotentials (lmaxx) =  3

     bravais-lattice index     =            0
     lattice parameter (alat)  =      11.7974  a.u.
     unit-cell volume          =   15475.4569 (a.u.)^3
     number of atoms/cell      =           36
     number of atomic types    =            2
     number of electrons       =       216.00
     number of Kohn-Sham states=          130
     kinetic-energy cutoff     =      45.0000  Ry
     charge density cutoff     =     360.0000  Ry
     convergence threshold     =      1.0E-06
     mixing beta               =       0.7000
     number of iterations used =            8  local-TF  mixing
     Exchange-correlation      = SLA PW GGX GGC ( 1  4  2  2 0 0)

     celldm(1)=  11.797385  celldm(2)=   0.000000  celldm(3)=   0.000000
     celldm(4)=   0.000000  celldm(5)=   0.000000  celldm(6)=   0.000000

     crystal axes: (cart. coord. in units of alat)
               a(1) = (   1.000000   0.000000   0.000000 )
               a(2) = (  -0.497220   1.808664   0.000000 )
               a(3) = (  -0.319178  -0.096924   5.211086 )

     reciprocal axes: (cart. coord. in units 2 pi/alat)
               b(1) = (  1.000000  0.274910  0.066363 )
               b(2) = (  0.000000  0.552894  0.010284 )
               b(3) = (  0.000000  0.000000  0.191899 )

     PseudoPot. # 1 for Mo read from file:
     ~/pseudo/Mo.pw91-n-van.UPF
     MD5 check sum: Not computed, couldn't open file
     Pseudo is Ultrasoft + core correction, Zval =  6.0
     Generated by new atomic code, or converted to UPF format
     Using radial grid of  965 points,  3 beta functions with:
                l(1) =   1
                l(2) =   2
                l(3) =   2
     Q(r) pseudized with  8 coefficients,  rinner =    1.000   1.000   1.000
                                                       1.200   1.200

     PseudoPot. # 2 for S  read from file:
     ~/pseudo/S.pw91-van_ak.UPF
     MD5 check sum: Not computed, couldn't open file
     Pseudo is Ultrasoft, Zval =  6.0
     Generated by new atomic code, or converted to UPF format
     Using radial grid of  811 points,  6 beta functions with:
                l(1) =   0
                l(2) =   0
                l(3) =   1
                l(4) =   1
                l(5) =   2
                l(6) =   2
     Q(r) pseudized with  8 coefficients,  rinner =    1.100   1.100   1.100
                                                       1.100   1.100

     atomic species   valence    mass     pseudopotential
        Mo             6.00    95.50000     Mo( 1.00)
        S              6.00    32.06500     S ( 1.00)

     No symmetry found

   Cartesian axes

     site n.     atom                  positions (alat units)
         1           Mo  tau(   1) = (   0.2510370   0.1271591   1.9654170  )
         2           Mo  tau(   2) = (   0.0020498   0.5787737   1.9658116  )
         3           Mo  tau(   3) = (   0.7511021   0.1270777   1.9648961  )
         4           Mo  tau(   4) = (   0.5021362   0.5792662   1.9648469  )
         5           Mo  tau(   5) = (   0.2525898   1.0319182   1.9627944  )
         6           Mo  tau(   6) = (  -0.2478795   1.0315328   1.9628771  )
         7           Mo  tau(   7) = (   0.0033406   1.4836276   1.9627257  )
         8           Mo  tau(   8) = (  -0.4966643   1.4836820   1.9637173  )
         9           Mo  tau(   9) = (   0.3208938   0.8298127   4.4337585  )
        10           Mo  tau(  10) = (  -0.1524262   1.0614109   4.7657713  )
        11           Mo  tau(  11) = (   0.2651136   0.7945318   3.0526028  )
        12           Mo  tau(  12) = (  -0.2369317   0.7960171   3.0557238  )
        13           S   tau(  13) = (   0.5008651   0.2810093   1.7104892  )
        14           S   tau(  14) = (   0.2537052   1.6385767   1.7088300  )
        15           S   tau(  15) = (   0.0012417   0.2813031   1.7110696  )
        16           S   tau(  16) = (  -0.2468976   1.6388569   1.7094539  )
        17           S   tau(  17) = (   0.0117883   0.5983375   2.8732076  )
        18           S   tau(  18) = (   0.5149815   0.9858480   2.8636794  )
        19           S   tau(  19) = (   0.5013347   0.2821088   2.2197481  )
        20           S   tau(  20) = (   0.2530019   1.6372566   2.2182290  )
        21           S   tau(  21) = (   0.0009073   0.2808664   2.2206032  )
        22           S   tau(  22) = (  -0.2459353   1.6371333   2.2187459  )
        23           S   tau(  23) = (   0.0164919   0.9790267   3.2485307  )
        24           S   tau(  24) = (   0.5130331   0.6170923   3.2562760  )
        25           S   tau(  25) = (   0.2516614   0.7325354   1.7105283  )
        26           S   tau(  26) = (  -0.2473041   0.7322807   1.7103496  )
        27           S   tau(  27) = (   0.2524918   0.7349695   2.2190612  )
        28           S   tau(  28) = (  -0.2479856   0.7343227   2.2193681  )
        29           S   tau(  29) = (   0.5024752   1.1849456   2.2183311  )
        30           S   tau(  30) = (   0.0022069   1.1852577   2.2167854  )
        31           S   tau(  31) = (   0.0850872   0.7677365   4.7112441  )
        32           S   tau(  32) = (  -0.3738733   0.7693399   4.6674991  )
        33           S   tau(  33) = (   0.5024404   1.1868178   1.7085195  )
        34           S   tau(  34) = (   0.0021940   1.1857546   1.7077366  )
        35           S   tau(  35) = (  -0.0662298   0.9352452   4.4258502  )
        36           S   tau(  36) = (  -0.4875008   1.1056283   4.5865307  )

     number of k points=     4  Marzari-Vanderbilt smearing, width (Ry)=  0.0200
                       cart. coord. in units 2pi/alat
        k(    1) = (   0.0000000   0.0000000   0.0000000), wk =   0.3333333
        k(    2) = (   0.0000000  -0.2764471  -0.0051418), wk =   0.3333333
        k(    3) = (   0.3333333   0.0916366   0.0221210), wk =   0.6666667
        k(    4) = (   0.3333333  -0.1848105   0.0169792), wk =   0.6666667

     Initial potential from superposition of free atoms

     starting charge  215.98107, renormalised to  216.00000

     negative rho (up, down):  1.436E-03 0.000E+00
     Starting wfcs are  204 randomized atomic wfcs

     Self-consistent Calculation

     iteration #  1     ecut=    45.00 Ry     beta= 0.70
     Davidson diagonalization with overlap
     ethr =  1.00E-02,  avg # of iterations =  2.2

     negative rho (up, down):  8.733E-06 0.000E+00

     total energy              =    -843.05513973 Ry
     Harris-Foulkes estimate   =    -845.81553003 Ry
     estimated scf accuracy    <       7.64883380 Ry

[...]

     iteration #  9     ecut=    45.00 Ry     beta= 0.70
     Davidson diagonalization with overlap
     c_bands:  2 eigenvalues not converged
     ethr =  1.64E-05,  avg # of iterations = 13.0

[...]

     iteration # 33     ecut=    45.00 Ry     beta= 0.70
     Davidson diagonalization with overlap
     c_bands:  1 eigenvalues not converged
     ethr =  1.41E-09,  avg # of iterations = 13.0

[...]

     total energy              =    -844.45719669 Ry
     Harris-Foulkes estimate   =    -844.45719678 Ry
     estimated scf accuracy    <       0.00000139 Ry

     iteration # 36     ecut=    45.00 Ry     beta= 0.70
     Davidson diagonalization with overlap
     ethr =  6.41E-10,  avg # of iterations =  1.0

[...]

     End of self-consistent calculation

          k = 0.0000 0.0000 0.0000 ( 78991 PWs)   bands (ev):

   -16.5146 -15.7066 -15.2796 -14.9527 -14.9521 -14.5323 -14.1953 -14.1933
   -13.9840 -13.8781 -13.8499 -13.8491 -13.8459 -13.8446 -13.7912 -13.5910
   -13.5886 -13.5842 -13.5805 -13.2690 -13.2521 -13.1560 -12.8550 -12.7529
    -7.3878  -7.1797  -7.1683  -7.0775  -7.0759  -7.0719  -7.0712  -6.5425
    -6.5418  -6.5052  -6.5036  -6.5015  -6.4995  -6.3565  -6.2890  -6.0600
    -5.9791  -5.9040  -5.6894  -5.5273  -5.5223  -5.5204  -5.5185  -5.5171
    -5.5156  -5.3271  -5.2239  -5.2169  -5.0726  -4.9015  -4.9009  -4.8901
    -4.8867  -4.8150  -4.7844  -4.7610  -4.7328  -4.4810  -4.3968  -4.3791
    -4.3174  -4.2595  -4.2459  -3.9353  -3.7586  -3.7545  -3.6899  -3.6115
    -3.5667  -3.5298  -3.5276  -3.5164  -3.5144  -3.4502  -3.4113  -3.4105
    -3.4063  -3.3983  -3.2910  -3.2041  -3.1186  -3.1155  -3.0590  -3.0532
    -2.8569  -2.8208  -2.7841  -2.5304  -2.5294  -2.4791  -2.4693  -2.2412
    -2.2322  -2.1729  -2.1644  -2.1607  -2.1528  -1.8236  -1.7783  -1.4048
    -1.2179  -1.1432  -1.1373  -0.9845  -0.8929  -0.5269  -0.3473  -0.2475
     0.1085   0.3271   0.3350   0.3706   0.4534   0.4660   0.4685   0.4725
     0.4748   0.5283   0.5422   0.5880   0.8049   0.8125   0.9106   0.9389
     1.0281   1.0558

[...]

          k = 0.3333-0.1848 0.0170 ( 78848 PWs)   bands (ev):

   -16.3829 -15.4676 -15.3177 -15.0742 -14.6214 -14.3338 -14.3050 -14.2905
   -14.2227 -14.0268 -13.9770 -13.9665 -13.8744 -13.8217 -13.7315 -13.6945
   -13.6901 -13.6518 -13.4981 -13.3368 -13.2556 -13.2450 -12.8244 -12.7605
    -6.9131  -6.8812  -6.8742  -6.8445  -6.8263  -6.7551  -6.6463  -6.5587
    -6.5190  -6.5065  -6.3873  -6.3071  -6.2452  -6.0910  -5.8950  -5.8865
    -5.8615  -5.5947  -5.5184  -5.4780  -5.4722  -5.4479  -5.4271  -5.4187
    -5.3822  -5.3411  -5.2136  -5.1215  -5.1185  -4.8710  -4.8477  -4.8077
    -4.7872  -4.7612  -4.7499  -4.7013  -4.6920  -4.6702  -4.6469  -4.5987
    -4.5951  -4.5124  -4.4337  -4.2436  -4.1948  -4.1537  -4.1114  -4.0859
    -3.9318  -3.8748  -3.8407  -3.8027  -3.7923  -3.7119  -3.6691  -3.5702
    -3.4625  -3.4287  -3.3700  -3.3382  -3.3019  -3.2891  -3.1153  -3.0862
    -3.0829  -3.0561  -2.7636  -2.6867  -2.6691  -2.5112  -2.4332  -2.3199
    -2.2419  -2.1539  -2.1482  -2.0951  -1.9962  -1.7007  -1.6797  -1.4611
    -1.3442  -1.0249  -0.8886  -0.8526  -0.7103  -0.4664  -0.3585  -0.1447
     0.0955   0.1571   0.2591   0.3325   0.3347   0.3780   0.4357   0.4550
     0.5600   0.5639   0.6316   0.6815   0.7095   0.7612   0.7810   0.7997
     0.8152   0.8284

     the Fermi energy is    -0.7849 ev

!    total energy              =    -844.45719563 Ry
     Harris-Foulkes estimate   =    -844.45719677 Ry
     estimated scf accuracy    <       0.00000021 Ry

     The total energy is the sum of the following terms:

     one-electron contribution =   -6209.21912446 Ry
     hartree contribution      =    3165.69017338 Ry
     xc contribution           =    -333.78553580 Ry
     ewald contribution        =    2532.85877542 Ry
     smearing contrib. (-TS)   =      -0.00148416 Ry

     convergence has been achieved in  36 iterations

     negative rho (up, down):  2.075E-03 0.000E+00

     Forces acting on atoms (cartesian axes, Ry/au):

     atom    1 type  1   force =     0.00030287    0.00494993   -0.00037095
     atom    2 type  1   force =    -0.00032436    0.00799926   -0.00086228
     atom    3 type  1   force =    -0.00055941    0.00501666    0.00002663
     atom    4 type  1   force =    -0.00089834    0.00660296   -0.00014485
     atom    5 type  1   force =    -0.00142157    0.00560278    0.00027030
     atom    6 type  1   force =     0.00045460    0.00590833    0.00016308
     atom    7 type  1   force =    -0.00064764    0.00582023    0.00076908
     atom    8 type  1   force =    -0.00023044    0.00591994    0.00045458
     atom    9 type  1   force =     0.01753119    0.03077472    0.05111637
     atom   10 type  1   force =    -0.05533168   -0.06195097   -0.07097962
     atom   11 type  1   force =    -0.00057172   -0.00004412    0.01150456
     atom   12 type  1   force =    -0.00028024   -0.00026993    0.01086999
     atom   13 type  2   force =     0.00079532   -0.00240428    0.00111972
     atom   14 type  2   force =     0.00015820   -0.00266416    0.00205583
     atom   15 type  2   force =     0.00048539   -0.00291798    0.00022729
     atom   16 type  2   force =     0.00055843   -0.00280155    0.00079972
     atom   17 type  2   force =     0.00097953   -0.02496225   -0.02913091
     atom   18 type  2   force =    -0.00070542    0.02259785   -0.02782072
     atom   19 type  2   force =     0.00002872   -0.00485776   -0.00080620
     atom   20 type  2   force =     0.00012642   -0.00372425   -0.00034144
     atom   21 type  2   force =     0.00041398   -0.00321997   -0.00156609
     atom   22 type  2   force =    -0.00100140   -0.00381685   -0.00125602
     atom   23 type  2   force =    -0.00160605    0.02911290    0.01871946
     atom   24 type  2   force =     0.00121558   -0.02625833    0.01843068
     atom   25 type  2   force =     0.00097624   -0.00267625   -0.00072948
     atom   26 type  2   force =    -0.00055317   -0.00253056   -0.00041084
     atom   27 type  2   force =    -0.00042183   -0.00402648   -0.00114340
     atom   28 type  2   force =    -0.00020880   -0.00297132   -0.00156417
     atom   29 type  2   force =    -0.00048450   -0.00082596   -0.00238700
     atom   30 type  2   force =     0.00026982   -0.00146209    0.00067868
     atom   31 type  2   force =     0.03294326   -0.02093108    0.07777911
     atom   32 type  2   force =    -0.05658338   -0.07064147    0.02247560
     atom   33 type  2   force =     0.00053869   -0.00458790    0.00013783
     atom   34 type  2   force =     0.00072791   -0.00301158    0.00191342
     atom   35 type  2   force =     0.07940749    0.04928190   -0.07481035
     atom   36 type  2   force =    -0.01608368    0.07396961   -0.00518762

     Total force =     0.240613     Total SCF correction =     0.000714

     General routines

     Parallel routines

   This run was terminated on:  22:16: 9   3Dec2021

   JOB DONE.