     Program PWSCF v.6.4 starts on  8Sep2021 at 11:53:15

     R & G space division:  proc/nbgrp/npool/nimage =      40
     Waiting for input...
     Reading input from standard input
Warning: card    &IONS ignored
Warning: card      ION_DYNAMICS = 'BFGS' ignored
Warning: card   / ignored
Warning: card    &CELL ignored
Warning: card      CELL_DYNAMICS = 'BFGS', ignored
Warning: card    / ignored

     Current dimensions of program PWSCF are:
     Max number of different atomic species (ntypx) = 10
     Max number of k-points (npk) =  40000
     Max angular momentum in pseudopotentials (lmaxx) =  3

     bravais-lattice index     =            0
     lattice parameter (alat)  =      12.2876  a.u.
     unit-cell volume          =    4317.5501 (a.u.)^3
     number of atoms/cell      =           12
     number of atomic types    =            2
     number of electrons       =        72.00
     number of Kohn-Sham states=           43
     kinetic-energy cutoff     =      45.0000  Ry
     charge density cutoff     =     360.0000  Ry
     convergence threshold     =      1.0E-06
     mixing beta               =       0.7000
     number of iterations used =            8  local-TF  mixing
     Exchange-correlation      = SLA PW GGX GGC ( 1  4  2  2 0 0)

     celldm(1)=  12.287576  celldm(2)=   0.000000  celldm(3)=   0.000000
     celldm(4)=   0.000000  celldm(5)=   0.000000  celldm(6)=   0.000000

     crystal axes: (cart. coord. in units of alat)
               a(1) = (   0.999923   0.005532   0.011101 )
               a(2) = (  -0.503555   0.880304  -0.007293 )
               a(3) = (   0.231007   0.001063   2.638091 )

     reciprocal axes: (cart. coord. in units 2 pi/alat)
               b(1) = (  0.997896  0.570095 -0.087612 )
               b(2) = ( -0.006266  1.132388  0.000092 )
               b(3) = ( -0.004216  0.000731  0.379431 )

     PseudoPot. # 1 for Mo read from file:
     ~/pseudo/Mo.pw91-n-van.UPF
     MD5 check sum: Not computed, couldn't open file
     Pseudo is Ultrasoft + core correction, Zval =  6.0
     Generated by new atomic code, or converted to UPF format
     Using radial grid of  965 points,  3 beta functions with:
                l(1) =   1
                l(2) =   2
                l(3) =   2
     Q(r) pseudized with  8 coefficients,  rinner =    1.000   1.000   1.000
                                                       1.200   1.200

     PseudoPot. # 2 for S  read from file:
     ~/pseudo/S.pw91-van_ak.UPF
     MD5 check sum: Not computed, couldn't open file
     Pseudo is Ultrasoft, Zval =  6.0
     Generated by new atomic code, or converted to UPF format
     Using radial grid of  811 points,  6 beta functions with:
                l(1) =   0
                l(2) =   0
                l(3) =   1
                l(4) =   1
                l(5) =   2
                l(6) =   2
     Q(r) pseudized with  8 coefficients,  rinner =    1.100   1.100   1.100
                                                       1.100   1.100

     atomic species   valence    mass     pseudopotential
        Mo             6.00    95.50000     Mo( 1.00)
        S              6.00    32.06500     S ( 1.00)

     No symmetry found

   Cartesian axes

     site n.     atom                  positions (alat units)
         1           Mo  tau(   1) = (   0.0019024  -0.0366776   0.0012473  )
         2           Mo  tau(   2) = (  -0.2133890   0.3384794  -0.0024393  )
         3           Mo  tau(   3) = (   0.5122289  -0.0568002  -0.0029272  )
         4           Mo  tau(   4) = (   0.2122291   0.3423311   0.0053999  )
         5           S   tau(   5) = (  -0.0055192   0.5210831   0.2480144  )
         6           S   tau(   6) = (  -0.2504006   0.9501237   0.2484921  )
         7           S   tau(   7) = (   0.4962943   0.5139926   0.2069020  )
         8           S   tau(   8) = (   0.2407264   0.9534352   0.2566636  )
         9           S   tau(   9) = (   0.2339781   0.2114887   2.3632574  )
        10           S   tau(  10) = (  -0.0206519   0.6547967   2.4107443  )
        11           S   tau(  11) = (   0.7326587   0.2367319   2.4093374  )
        12           S   tau(  12) = (   0.4881955   0.6574312   2.4099344  )

     number of k points=     5  Marzari-Vanderbilt smearing, width (Ry)=  0.0200
                       cart. coord. in units 2pi/alat
        k(    1) = (   0.0000000   0.0000000   0.0000000), wk =   0.2222222
        k(    2) = (  -0.0020885   0.3774627   0.0000307), wk =   0.4444444
        k(    3) = (   0.3326319   0.1900315  -0.0292039), wk =   0.4444444
        k(    4) = (   0.3305434   0.5674942  -0.0291731), wk =   0.4444444
        k(    5) = (   0.3347204  -0.1874312  -0.0292346), wk =   0.4444444

     Initial potential from superposition of free atoms

     starting charge   71.99369, renormalised to   72.00000

     negative rho (up, down):  6.689E-04 0.000E+00
     Starting wfcs are   68 randomized atomic wfcs

     Self-consistent Calculation

     iteration #  1     ecut=    45.00 Ry     beta= 0.70
     Davidson diagonalization with overlap
     ethr =  1.00E-02,  avg # of iterations =  2.0

     negative rho (up, down):  7.086E-05 0.000E+00

     total energy              =    -281.11418510 Ry
     Harris-Foulkes estimate   =    -282.16027246 Ry
     estimated scf accuracy    <       2.77112041 Ry

[...]

     total energy              =    -281.65145923 Ry
     Harris-Foulkes estimate   =    -281.65145615 Ry
     estimated scf accuracy    <       0.00000269 Ry

     iteration # 14     ecut=    45.00 Ry     beta= 0.70
     Davidson diagonalization with overlap
     ethr =  3.74E-09,  avg # of iterations =  2.0

[...]

     End of self-consistent calculation

          k = 0.0000 0.0000 0.0000 ( 22009 PWs)   bands (ev):

   -14.9861 -13.9974 -13.6656 -13.6332 -13.3110 -13.1406 -13.0861 -12.5956
    -7.0413  -6.8471  -6.8364  -6.3650  -5.6094  -5.4408  -5.4249  -5.0481
    -5.0145  -4.8882  -4.4880  -4.4515  -4.2153  -3.9467  -3.7850  -3.3811
    -3.3420  -3.3038  -3.1219  -2.7010  -2.5561  -2.3397  -2.1397  -2.0535
    -1.8036  -1.2949  -1.2308  -1.1988  -0.9723  -0.8516   0.3259   0.4803
     0.6147   1.1895   1.4259

          k =-0.0021 0.3775 0.0000 ( 21986 PWs)   bands (ev):

[...]

          k = 0.3347-0.1874-0.0292 ( 22035 PWs)   bands (ev):

   -14.6306 -13.9406 -13.7874 -13.5764 -13.4910 -13.3220 -13.2453 -12.6855
    -6.4771  -6.2497  -6.1378  -5.9694  -5.7003  -5.6190  -5.4769  -4.9725
    -4.8810  -4.8001  -4.6274  -4.5531  -4.2727  -4.1926  -3.9182  -3.7316
    -3.6215  -3.4830  -3.2505  -2.9823  -2.8557  -2.6025  -2.3341  -2.0472
    -1.8544  -1.7546  -1.6342  -1.3110  -0.6132  -0.4618   0.1160   0.2133
     0.6495   1.1354   1.3169

     the Fermi energy is    -1.0418 ev

!    total energy              =    -281.65146377 Ry
     Harris-Foulkes estimate   =    -281.65145951 Ry
     estimated scf accuracy    <       0.00000031 Ry

     The total energy is the sum of the following terms:

     one-electron contribution =   -1308.88105977 Ry
     hartree contribution      =     675.62355502 Ry
     xc contribution           =    -111.11227364 Ry
     ewald contribution        =     462.71392795 Ry
     smearing contrib. (-TS)   =       0.00438668 Ry

     convergence has been achieved in  14 iterations

     negative rho (up, down):  9.296E-04 0.000E+00

     Forces acting on atoms (cartesian axes, Ry/au):

     atom    1 type  1   force =     0.00027783    0.00607669   -0.00110491
     atom    2 type  1   force =    -0.00419213    0.00663939    0.00423173
     atom    3 type  1   force =    -0.00559816   -0.01030098   -0.01351407
     atom    4 type  1   force =     0.00908017    0.00705470    0.00020196
     atom    5 type  2   force =     0.00018271   -0.00714832   -0.00813108
     atom    6 type  2   force =    -0.00406137    0.00369592   -0.00562369
     atom    7 type  2   force =    -0.00095616    0.00205867    0.00241883
     atom    8 type  2   force =     0.00410619    0.00344382   -0.00187107
     atom    9 type  2   force =     0.00218878    0.00266405    0.00089226
     atom   10 type  2   force =     0.00356176   -0.00005092    0.00544173
     atom   11 type  2   force =     0.00076900   -0.01424493    0.00770426
     atom   12 type  2   force =    -0.00535862    0.00011192    0.00935406

     Total force =     0.035021     Total SCF correction =     0.000948

     General routines

     Parallel routines

   This run was terminated on:  11:53:42   8Sep2021

   JOB DONE.