     Program PWSCF v.6.4 starts on  2Sep2021 at 23:26: 7

     R & G space division:  proc/nbgrp/npool/nimage =      40
     Waiting for input...
     Reading input from standard input
Warning: card    &IONS ignored
Warning: card      ION_DYNAMICS = 'BFGS' ignored
Warning: card   / ignored
Warning: card    &CELL ignored
Warning: card      CELL_DYNAMICS = 'BFGS', ignored
Warning: card    / ignored

     Current dimensions of program PWSCF are:
     Max number of different atomic species (ntypx) = 10
     Max number of k-points (npk) =  40000
     Max angular momentum in pseudopotentials (lmaxx) =  3

     Found symmetry operation: I + ( -0.0000 -0.5000  0.0000)
     This is a supercell, fractional translations are disabled

     bravais-lattice index     =            0
     lattice parameter (alat)  =      11.8864  a.u.
     unit-cell volume          =    6331.9731 (a.u.)^3
     number of atoms/cell      =           36
     number of atomic types    =            2
     number of electrons       =       216.00
     number of Kohn-Sham states=          130
     kinetic-energy cutoff     =      45.0000  Ry
     charge density cutoff     =     360.0000  Ry
     convergence threshold     =      1.0E-06
     mixing beta               =       0.7000
     number of iterations used =            8  local-TF  mixing
     Exchange-correlation      = SLA PW GGX GGC ( 1  4  2  2 0 0)

     celldm(1)=  11.886363  celldm(2)=   0.000000  celldm(3)=   0.000000
     celldm(4)=   0.000000  celldm(5)=   0.000000  celldm(6)=   0.000000

     crystal axes: (cart. coord. in units of alat)
               a(1) = (   1.000000   0.000000   0.000000 )
               a(2) = (   0.500456   0.865738   0.000000 )
               a(3) = (   0.496480   0.315831   4.355173 )

     reciprocal axes: (cart. coord. in units 2 pi/alat)
               b(1) = (  1.000000 -0.578068 -0.072077 )
               b(2) = (  0.000000  1.155083 -0.083765 )
               b(3) = (  0.000000  0.000000  0.229612 )

     PseudoPot. # 1 for Mo read from file:
     ~/pseudo/Mo.pw91-n-van.UPF
     MD5 check sum: Not computed, couldn't open file
     Pseudo is Ultrasoft + core correction, Zval =  6.0
     Generated by new atomic code, or converted to UPF format
     Using radial grid of  965 points,  3 beta functions with:
                l(1) =   1
                l(2) =   2
                l(3) =   2
     Q(r) pseudized with  8 coefficients,  rinner =    1.000   1.000   1.000
                                                       1.200   1.200

     PseudoPot. # 2 for S  read from file:
     ~/pseudo/S.pw91-van_ak.UPF
     MD5 check sum: Not computed, couldn't open file
     Pseudo is Ultrasoft, Zval =  6.0
     Generated by new atomic code, or converted to UPF format
     Using radial grid of  811 points,  6 beta functions with:
                l(1) =   0
                l(2) =   0
                l(3) =   1
                l(4) =   1
                l(5) =   2
                l(6) =   2
     Q(r) pseudized with  8 coefficients,  rinner =    1.100   1.100   1.100
                                                       1.100   1.100

     atomic species   valence    mass     pseudopotential
        Mo             6.00    95.50000     Mo( 1.00)
        S              6.00    32.06500     S ( 1.00)

     No symmetry found

   Cartesian axes

     site n.     atom                  positions (alat units)
         1           Mo  tau(   1) = (   1.4667248   1.0328619   4.2561601  )
         2           Mo  tau(   2) = (   1.2164967   0.5999928   4.2561605  )
         3           Mo  tau(   3) = (   0.9667248   1.0328619   4.2561604  )
         4           Mo  tau(   4) = (   0.7164968   0.5999927   4.2561605  )
         5           Mo  tau(   5) = (   0.3080033   0.3641166   1.0121396  )
         6           Mo  tau(   6) = (   0.5582313   0.7969858   1.0121396  )
         7           Mo  tau(   7) = (   0.8080033   0.3641166   1.0121398  )
         8           Mo  tau(   8) = (   1.0582313   0.7969859   1.0121396  )
         9           Mo  tau(   9) = (   0.9686274   1.0354803   3.4420749  )
        10           Mo  tau(  10) = (   0.7183994   0.6026111   3.4420744  )
        11           Mo  tau(  11) = (   1.4686274   1.0354802   3.4420734  )
        12           Mo  tau(  12) = (   1.2183995   0.6026111   3.4420746  )
        13           S   tau(  13) = (   1.2166508   0.8885365   4.0353159  )
        14           S   tau(  14) = (   0.9664230   0.4556675   4.0353160  )
        15           S   tau(  15) = (   1.7166511   0.8885365   4.0353159  )
        16           S   tau(  16) = (   1.4664229   0.4556674   4.0353171  )
        17           S   tau(  17) = (   0.5579506   0.5082791   0.7572537  )
        18           S   tau(  18) = (   0.3077226   0.0754100   0.7572539  )
        19           S   tau(  19) = (   1.0579504   0.5082791   0.7572540  )
        20           S   tau(  20) = (   0.8077226   0.0754100   0.7572540  )
        21           S   tau(  21) = (   0.7182766   0.3141048   3.2045335  )
        22           S   tau(  22) = (   0.9685053   0.7469740   3.2045337  )
        23           S   tau(  23) = (   1.2182779   0.3141049   3.2045336  )
        24           S   tau(  24) = (   1.4685051   0.7469732   3.2045332  )
        25           S   tau(  25) = (   0.7202952   0.8613069   0.1123364  )
        26           S   tau(  26) = (   0.4700670   0.4284380   0.1123365  )
        27           S   tau(  27) = (   1.2202950   0.8613070   0.1123364  )
        28           S   tau(  28) = (   0.9700671   0.4284380   0.1123365  )
        29           S   tau(  29) = (   0.5580621   0.5083736   1.2639269  )
        30           S   tau(  30) = (   0.3078342   0.0755044   1.2639269  )
        31           S   tau(  31) = (   1.0580622   0.5083736   1.2639270  )
        32           S   tau(  32) = (   0.8078342   0.0755042   1.2639270  )
        33           S   tau(  33) = (   0.7181661   0.3139714   3.6892136  )
        34           S   tau(  34) = (   0.9683933   0.7468407   3.6892136  )
        35           S   tau(  35) = (   1.2181647   0.3139713   3.6892136  )
        36           S   tau(  36) = (   1.4683935   0.7468414   3.6892135  )

     number of k points=     5  Marzari-Vanderbilt smearing, width (Ry)=  0.0200
                       cart. coord. in units 2pi/alat
        k(    1) = (   0.0000000   0.0000000   0.0000000), wk =   0.2222222
        k(    2) = (   0.0000000   0.3850278  -0.0279217), wk =   0.4444444
        k(    3) = (   0.3333333  -0.1926894  -0.0240257), wk =   0.4444444
        k(    4) = (   0.3333333   0.1923384  -0.0519474), wk =   0.4444444
        k(    5) = (   0.3333333  -0.5777172   0.0038960), wk =   0.4444444

     Initial potential from superposition of free atoms

     starting charge  215.98107, renormalised to  216.00000

     negative rho (up, down):  5.433E-04 0.000E+00
     Starting wfcs are  204 randomized atomic wfcs

     Self-consistent Calculation

     iteration #  1     ecut=    45.00 Ry     beta= 0.70
     Davidson diagonalization with overlap
     ethr =  1.00E-02,  avg # of iterations =  2.0

     negative rho (up, down):  6.605E-06 0.000E+00

     total energy              =    -843.67912586 Ry
     Harris-Foulkes estimate   =    -845.71413737 Ry
     estimated scf accuracy    <       5.07012087 Ry

[...]

     total energy              =    -844.64729858 Ry
     Harris-Foulkes estimate   =    -844.64729861 Ry
     estimated scf accuracy    <       0.00000139 Ry

     iteration # 38     ecut=    45.00 Ry     beta= 0.70
     Davidson diagonalization with overlap
     ethr =  6.32E-10,  avg # of iterations =  1.0

[...]

     End of self-consistent calculation

          k = 0.0000 0.0000 0.0000 ( 32289 PWs)   bands (ev):

   -11.9269 -11.0334 -10.1813 -10.0543 -10.0213 -10.0176 -10.0138  -9.2535
    -9.2523  -9.2521  -9.1154  -8.9901  -8.9152  -8.9147  -8.9140  -8.6560
    -8.6440  -8.6374  -8.2197  -8.2180  -8.2178  -8.0482  -8.0449  -8.0444
    -3.7279  -3.7277  -3.7276  -3.4108  -2.9758  -2.9743  -2.9737  -2.1509
    -2.1404  -2.1323  -2.0184  -1.8227  -1.8212  -1.8209  -1.6399  -1.3145
    -1.3120  -1.3102  -1.1822  -1.1769  -0.9338  -0.9337  -0.9282  -0.9052
    -0.9040  -0.8965  -0.8154  -0.8058  -0.8026  -0.4459  -0.4329  -0.4156
    -0.0896  -0.0886  -0.0866  -0.0164  -0.0162  -0.0096   0.5065   0.5142
     0.6151   0.6179   0.6189   0.9016   0.9441   0.9451   0.9527   1.5433
     1.5493   1.7766   1.7809   1.9851   1.9898   1.9956   2.0333   2.0349
     2.0430   2.0966   2.2462   2.2646   2.2647   2.6323   2.6339   2.6353
     2.6775   2.6783   2.6837   2.7036   2.7122   2.8403   2.8461   2.9420
     3.0290   3.0437   3.0529   3.2751   3.2756   3.2821   3.3355   3.3426
     3.3429   3.6541   3.9383   4.0030   4.0136   5.0204   5.0216   5.0216
     5.3191   5.6703   5.6705   5.6707   6.1326   6.1348   6.1353   6.1530
     6.1569   6.3270   6.3278   6.3281   6.3505   6.3522   6.3529   6.8077
     6.8078   6.8090

[...]

          k = 0.3333-0.5777 0.0039 ( 32191 PWs)   bands (ev):

   -10.6929 -10.6925 -10.6913  -9.9198  -9.9195  -9.9181  -9.5837  -9.5836
    -9.5833  -9.3290  -9.1128  -9.0904  -9.0904  -9.0894  -9.0020  -9.0010
    -8.9988  -8.9502  -8.6722  -8.4490  -8.4488  -8.4475  -7.9406  -7.8485
    -2.7992  -2.7981  -2.7970  -2.6387  -2.5686  -2.1842  -2.0295  -1.9161
    -1.9153  -1.9145  -1.4968  -1.4945  -1.4921  -1.4297  -1.3432  -1.2379
    -1.2371  -1.2363  -1.1644  -0.8921  -0.8919  -0.8918  -0.6178  -0.5410
    -0.5386  -0.5375  -0.2982  -0.2974  -0.2969  -0.2953  -0.0796  -0.0511
    -0.0502  -0.0497   0.0646   0.2370   0.2372   0.2398   0.2730   0.2790
     0.2809   0.3277   0.3417   0.3973   0.3985   0.3986   0.4967   0.5164
     0.5214   0.5247   0.8225   0.8237   0.8238   1.0198   1.0452   1.2022
     1.2628   1.2646   1.2664   1.7444   2.1009   2.1107   2.1176   2.1736
     2.1738   2.1756   2.3944   2.4031   2.4143   2.7214   2.7227   2.7232
     2.9326   2.9331   2.9332   3.2213   3.2224   3.2229   3.4265   3.7313
     3.7324   3.7371   4.0433   4.4924   5.0055   5.0074   5.0075   5.1420
     5.1453   5.4288   5.5612   5.5615   5.5635   5.8131   5.8137   5.8149
     5.8681   5.8709   5.8713   5.9102   6.1977   6.1991   6.2003   6.5167
     6.5174   6.5214

     the Fermi energy is     4.2893 ev

!    total energy              =    -844.64729860 Ry
     Harris-Foulkes estimate   =    -844.64729860 Ry
     estimated scf accuracy    <       0.00000073 Ry

     The total energy is the sum of the following terms:

     one-electron contribution =   -5245.89568001 Ry
     hartree contribution      =    2724.73918965 Ry
     xc contribution           =    -337.66478329 Ry
     ewald contribution        =    2014.16108530 Ry
     smearing contrib. (-TS)   =       0.01288975 Ry

     convergence has been achieved in  38 iterations

     negative rho (up, down):  7.871E-04 0.000E+00

     Forces acting on atoms (cartesian axes, Ry/au):

     atom    1 type  1   force =    -0.00027363    0.00030312   -0.05185776
     atom    2 type  1   force =    -0.00027536    0.00030434   -0.05185243
     atom    3 type  1   force =    -0.00027331    0.00030193   -0.05185379
     atom    4 type  1   force =    -0.00027246    0.00030432   -0.05185363
     atom    5 type  1   force =    -0.00061426    0.00019682   -0.01302741
     atom    6 type  1   force =    -0.00061521    0.00019613   -0.01302805
     atom    7 type  1   force =    -0.00061665    0.00019688   -0.01302702
     atom    8 type  1   force =    -0.00061634    0.00019724   -0.01302489
     atom    9 type  1   force =     0.00008703    0.00063860    0.04589414
     atom   10 type  1   force =     0.00008682    0.00063814    0.04589539
     atom   11 type  1   force =     0.00008691    0.00063877    0.04589983
     atom   12 type  1   force =     0.00008690    0.00063812    0.04589372
     atom   13 type  2   force =     0.00089015    0.00041178   -0.17307081
     atom   14 type  2   force =     0.00089094    0.00041067   -0.17307135
     atom   15 type  2   force =     0.00089137    0.00041186   -0.17307032
     atom   16 type  2   force =     0.00089108    0.00041003   -0.17307758
     atom   17 type  2   force =     0.00037740    0.00040191   -0.00279199
     atom   18 type  2   force =     0.00037687    0.00040183   -0.00279376
     atom   19 type  2   force =     0.00037845    0.00040056   -0.00279478
     atom   20 type  2   force =     0.00037901    0.00040140   -0.00279461
     atom   21 type  2   force =    -0.00007400   -0.00061202   -0.09229270
     atom   22 type  2   force =    -0.00007504   -0.00061166   -0.09229232
     atom   23 type  2   force =    -0.00007527   -0.00061242   -0.09229293
     atom   24 type  2   force =    -0.00007431   -0.00061068   -0.09229245
     atom   25 type  2   force =    -0.00031844   -0.00055487    0.26323033
     atom   26 type  2   force =    -0.00031768   -0.00055210    0.26323026
     atom   27 type  2   force =    -0.00031610   -0.00055508    0.26322893
     atom   28 type  2   force =    -0.00031704   -0.00055335    0.26322887
     atom   29 type  2   force =     0.00028441   -0.00012490    0.01569948
     atom   30 type  2   force =     0.00028336   -0.00012492    0.01570066
     atom   31 type  2   force =     0.00028491   -0.00012657    0.01570151
     atom   32 type  2   force =     0.00028621   -0.00012506    0.01570127
     atom   33 type  2   force =    -0.00036091   -0.00065959    0.00821366
     atom   34 type  2   force =    -0.00035936   -0.00065970    0.00821523
     atom   35 type  2   force =    -0.00035740   -0.00065977    0.00821381
     atom   36 type  2   force =    -0.00035905   -0.00066173    0.00821347

     Total force =     0.672465     Total SCF correction =     0.002863

     General routines

     Parallel routines

   This run was terminated on:  23:30:27   2Sep2021

   JOB DONE.