     Program PWSCF v.6.4 starts on  3Sep2021 at  5:43:28

     R & G space division:  proc/nbgrp/npool/nimage =      40
     Waiting for input...
     Reading input from standard input
Warning: card    &IONS ignored
Warning: card      ION_DYNAMICS = 'BFGS' ignored
Warning: card   / ignored
Warning: card    &CELL ignored
Warning: card      CELL_DYNAMICS = 'BFGS', ignored
Warning: card    / ignored

     Current dimensions of program PWSCF are:
     Max number of different atomic species (ntypx) = 10
     Max number of k-points (npk) =  40000
     Max angular momentum in pseudopotentials (lmaxx) =  3

     Found symmetry operation: I + (  0.5000  0.0000 -0.0000)
     This is a supercell, fractional translations are disabled

     bravais-lattice index     =            0
     lattice parameter (alat)  =      12.2068  a.u.
     unit-cell volume          =    5841.2273 (a.u.)^3
     number of atoms/cell      =           36
     number of atomic types    =            2
     number of electrons       =       216.00
     number of Kohn-Sham states=          130
     kinetic-energy cutoff     =      45.0000  Ry
     charge density cutoff     =     360.0000  Ry
     convergence threshold     =      1.0E-06
     mixing beta               =       0.7000
     number of iterations used =            8  local-TF  mixing
     Exchange-correlation      = SLA PW GGX GGC ( 1  4  2  2 0 0)

     celldm(1)=  12.206788  celldm(2)=   0.000000  celldm(3)=   0.000000
     celldm(4)=   0.000000  celldm(5)=   0.000000  celldm(6)=   0.000000

     crystal axes: (cart. coord. in units of alat)
               a(1) = (   1.000000   0.000000   0.000000 )
               a(2) = (  -0.499927   0.866103   0.000000 )
               a(3) = (  -0.176382  -0.371555   3.707920 )

     reciprocal axes: (cart. coord. in units 2 pi/alat)
               b(1) = (  1.000000  0.577215  0.105409 )
               b(2) = (  0.000000  1.154597  0.115697 )
               b(3) = (  0.000000  0.000000  0.269693 )

     PseudoPot. # 1 for Mo read from file:
     ~/pseudo/Mo.pw91-n-van.UPF
     MD5 check sum: Not computed, couldn't open file
     Pseudo is Ultrasoft + core correction, Zval =  6.0
     Generated by new atomic code, or converted to UPF format
     Using radial grid of  965 points,  3 beta functions with:
                l(1) =   1
                l(2) =   2
                l(3) =   2
     Q(r) pseudized with  8 coefficients,  rinner =    1.000   1.000   1.000
                                                       1.200   1.200

     PseudoPot. # 2 for S  read from file:
     ~/pseudo/S.pw91-van_ak.UPF
     MD5 check sum: Not computed, couldn't open file
     Pseudo is Ultrasoft, Zval =  6.0
     Generated by new atomic code, or converted to UPF format
     Using radial grid of  811 points,  6 beta functions with:
                l(1) =   0
                l(2) =   0
                l(3) =   1
                l(4) =   1
                l(5) =   2
                l(6) =   2
     Q(r) pseudized with  8 coefficients,  rinner =    1.100   1.100   1.100
                                                       1.100   1.100

     atomic species   valence    mass     pseudopotential
        Mo             6.00    95.50000     Mo( 1.00)
        S              6.00    32.06500     S ( 1.00)

     No symmetry found

   Cartesian axes

     site n.     atom                  positions (alat units)
         1           Mo  tau(   1) = (  -0.2097701   0.4779410   1.4135945  )
         2           Mo  tau(   2) = (   0.2902296   0.4779413   1.4135941  )
         3           Mo  tau(   3) = (   0.5401937   0.0448904   1.4135950  )
         4           Mo  tau(   4) = (   0.0401935   0.0448907   1.4135980  )
         5           Mo  tau(   5) = (   0.5629861   0.0353860   2.4712065  )
         6           Mo  tau(   6) = (   0.0629856   0.0353854   2.4712089  )
         7           Mo  tau(   7) = (  -0.1869780   0.4684365   2.4712067  )
         8           Mo  tau(   8) = (   0.3130223   0.4684369   2.4712074  )
         9           Mo  tau(   9) = (   0.5396445   0.0440399   3.5294002  )
        10           Mo  tau(  10) = (   0.0396444   0.0440401   3.5294026  )
        11           Mo  tau(  11) = (  -0.2103191   0.4770907   3.5294016  )
        12           Mo  tau(  12) = (   0.2896805   0.4770909   3.5294036  )
        13           S   tau(  13) = (   0.4659057   0.5599958   0.0645545  )
        14           S   tau(  14) = (  -0.0340965   0.5599966   0.0645538  )
        15           S   tau(  15) = (   0.2158691   0.1269455   0.0645544  )
        16           S   tau(  16) = (   0.7158673   0.1269467   0.0645538  )
        17           S   tau(  17) = (  -0.2099254   0.1892999   1.1705241  )
        18           S   tau(  18) = (   0.2900722   0.1892998   1.1705242  )
        19           S   tau(  19) = (   0.0401092   0.6223529   1.1705232  )
        20           S   tau(  20) = (  -0.4598903   0.6223545   1.1705248  )
        21           S   tau(  21) = (  -0.2095364   0.1891483   1.6588471  )
        22           S   tau(  22) = (   0.2904663   0.1891486   1.6588465  )
        23           S   tau(  23) = (   0.0405011   0.6221986   1.6588445  )
        24           S   tau(  24) = (  -0.4594991   0.6221972   1.6588455  )
        25           S   tau(  25) = (  -0.1871332   0.1797974   2.2265150  )
        26           S   tau(  26) = (   0.3128644   0.1797979   2.2265159  )
        27           S   tau(  27) = (   0.0629021   0.6128495   2.2265155  )
        28           S   tau(  28) = (  -0.4370983   0.6128504   2.2265160  )
        29           S   tau(  29) = (  -0.1871377   0.1797896   2.7158991  )
        30           S   tau(  30) = (   0.3128640   0.1797893   2.7158988  )
        31           S   tau(  31) = (   0.5628263  -0.2532617   2.7158975  )
        32           S   tau(  32) = (   0.0628272  -0.2532632   2.7158989  )
        33           S   tau(  33) = (   0.2899102   0.1882917   3.2841516  )
        34           S   tau(  34) = (  -0.2100878   0.1882906   3.2841505  )
        35           S   tau(  35) = (   0.0398740  -0.2447607   3.2841530  )
        36           S   tau(  36) = (   0.5398755  -0.2447618   3.2841517  )

     number of k points=     5  Marzari-Vanderbilt smearing, width (Ry)=  0.0200
                       cart. coord. in units 2pi/alat
        k(    1) = (   0.0000000   0.0000000   0.0000000), wk =   0.2222222
        k(    2) = (   0.0000000   0.3848657   0.0385657), wk =   0.4444444
        k(    3) = (   0.3333333   0.1924049   0.0351364), wk =   0.4444444
        k(    4) = (   0.3333333   0.5772706   0.0737021), wk =   0.4444444
        k(    5) = (   0.3333333  -0.1924608  -0.0034293), wk =   0.4444444

     Initial potential from superposition of free atoms

     starting charge  215.98107, renormalised to  216.00000
     Starting wfcs are  204 randomized atomic wfcs

     Self-consistent Calculation

     iteration #  1     ecut=    45.00 Ry     beta= 0.70
     Davidson diagonalization with overlap
     ethr =  1.00E-02,  avg # of iterations =  2.0

     total energy              =    -844.19109496 Ry
     Harris-Foulkes estimate   =    -846.86551915 Ry
     estimated scf accuracy    <       6.84829117 Ry

[...]

     negative rho (up, down):  1.954E-08 0.000E+00

[...]

     total energy              =    -845.52775178 Ry
     Harris-Foulkes estimate   =    -845.52775191 Ry
     estimated scf accuracy    <       0.00000227 Ry

     iteration # 15     ecut=    45.00 Ry     beta= 0.70
     Davidson diagonalization with overlap
     ethr =  1.05E-09,  avg # of iterations =  2.2

     End of self-consistent calculation

          k = 0.0000 0.0000 0.0000 ( 29723 PWs)   bands (ev):

    -9.4208  -9.3737  -9.3560  -8.2550  -8.1806  -8.1498  -7.7211  -7.7211
    -7.7208  -7.6794  -7.6794  -7.6785  -7.6638  -7.6637  -7.6633  -7.4460
    -7.4459  -7.4445  -7.3921  -7.3920  -7.3917  -7.3772  -7.3771  -7.3770
    -1.0553  -1.0553  -1.0542  -1.0430  -1.0012  -1.0011  -1.0010  -0.9802
    -0.9796  -0.9796  -0.8655  -0.7140  -0.1404  -0.1383  -0.1377  -0.0636
    -0.0628  -0.0595  -0.0204  -0.0191  -0.0190   0.4707   0.4731   0.4742
     0.6023   0.6031   0.6082   0.7017   0.7043   0.7043   1.4507   1.4542
     1.4543   1.4810   1.4812   1.4816   1.4829   1.4830   1.4834   1.9682
     1.9690   1.9856   1.9862   1.9877   1.9883   2.4634   2.4927   2.4937
     2.4945   2.7432   2.7432   2.7436   2.8873   2.9566   2.9568   2.9572
     3.0575   3.0657   3.0888   3.0900   3.0922   3.0930   3.3573   3.5651
     3.5670   3.5674   3.6062   3.6066   3.6070   3.6154   3.6155   3.6157
     3.8243   3.8244   3.8267   3.9578   3.9587   3.9592   4.0381   4.0382
     4.0383   4.3663   4.6672   4.8569   6.5210   6.5212   6.5222   6.5557
     6.5561   6.5563   6.5568   6.5571   6.5573   7.0046   7.0053   7.0057
     7.0705   7.0707   7.0727   7.0950   7.0952   7.0953   7.1872   7.1928
     7.2320   7.2394

[...]

          k = 0.3333-0.1925-0.0034 ( 29755 PWs)   bands (ev):

    -9.0636  -9.0165  -8.9989  -8.2310  -8.1855  -8.1690  -8.0798  -8.0100
    -7.9825  -7.7424  -7.7423  -7.7002  -7.7002  -7.6845  -7.6845  -7.6794
    -7.6205  -7.6006  -7.4344  -7.4344  -7.3797  -7.3796  -7.3644  -7.3643
    -0.6470  -0.6104  -0.6104  -0.5572  -0.5571  -0.5560  -0.5345  -0.5345
    -0.4878  -0.4743  -0.4486  -0.3248  -0.1810  -0.1809  -0.1336  -0.1332
    -0.1170  -0.1169   0.4440   0.5122   0.5959   0.6314   0.6642   0.6649
     0.7597   0.8017   0.8019   0.8459   0.9212   0.9213   1.2439   1.2717
     1.2819   1.3666   1.3666   1.4652   1.4654   1.5100   1.5103   1.6296
     1.7622   1.7929   1.7945   1.8051   1.9178   2.2075   2.2078   2.2690
     2.2691   2.3102   2.3103   2.3618   2.3780   2.3790   2.5345   2.5705
     2.5716   2.6800   2.6805   2.7295   2.8936   2.8938   2.9841   3.0565
     3.0565   3.1766   3.2068   3.2112   3.2145   3.2584   3.4857   3.5655
     3.6583   3.6923   3.7724   4.0275   4.0277   4.0794   4.0794   4.0948
     4.0949   4.1633   4.3357   4.4149   6.5099   6.5100   6.5574   6.5903
     6.5957   6.6034   6.6036   6.6039   6.6103   6.6488   6.6489   6.7351
     6.7664   6.8970   6.9110   6.9759   6.9798   7.0096   7.0096   7.0395
     7.0516   7.0902

     the Fermi energy is     4.7233 ev

!    total energy              =    -845.52775121 Ry
     Harris-Foulkes estimate   =    -845.52775195 Ry
     estimated scf accuracy    <       0.00000084 Ry

     The total energy is the sum of the following terms:

     one-electron contribution =   -1029.88639112 Ry
     hartree contribution      =     624.34682733 Ry
     xc contribution           =    -333.96806877 Ry
     ewald contribution        =    -106.03774397 Ry
     smearing contrib. (-TS)   =       0.01762531 Ry

     convergence has been achieved in  15 iterations

     Forces acting on atoms (cartesian axes, Ry/au):

     atom    1 type  1   force =     0.00050601   -0.00027141    0.00882641
     atom    2 type  1   force =     0.00004755   -0.00050918    0.00889632
     atom    3 type  1   force =     0.00006101    0.00011057    0.00882982
     atom    4 type  1   force =     0.00047097    0.00033805    0.00907658
     atom    5 type  1   force =    -0.00054430    0.00054707    0.00020573
     atom    6 type  1   force =    -0.00057891   -0.00016251    0.00007282
     atom    7 type  1   force =    -0.00111752    0.00025765    0.00013568
     atom    8 type  1   force =     0.00002183    0.00027729    0.00018815
     atom    9 type  1   force =     0.00033490    0.00030861   -0.00882835
     atom   10 type  1   force =     0.00019732   -0.00036594   -0.00890514
     atom   11 type  1   force =    -0.00027264   -0.00024305   -0.00900696
     atom   12 type  1   force =     0.00083558   -0.00017424   -0.00886246
     atom   13 type  2   force =     0.00031704   -0.00027516    0.00221661
     atom   14 type  2   force =     0.00025937   -0.00016939    0.00207665
     atom   15 type  2   force =     0.00048584   -0.00003262    0.00207987
     atom   16 type  2   force =     0.00019066   -0.00018879    0.00238320
     atom   17 type  2   force =     0.00010209   -0.00017577   -0.00211768
     atom   18 type  2   force =     0.00044200   -0.00017083   -0.00238931
     atom   19 type  2   force =     0.00018784   -0.00007041   -0.00233890
     atom   20 type  2   force =     0.00026053   -0.00018117   -0.00222143
     atom   21 type  2   force =    -0.00096915    0.00025639   -0.00897258
     atom   22 type  2   force =    -0.00063224    0.00031037   -0.00915703
     atom   23 type  2   force =    -0.00063819    0.00040474   -0.00924344
     atom   24 type  2   force =    -0.00087666    0.00029757   -0.00905232
     atom   25 type  2   force =     0.00046603   -0.00023661    0.00748937
     atom   26 type  2   force =     0.00056227   -0.00008480    0.00774574
     atom   27 type  2   force =     0.00058655   -0.00029880    0.00759107
     atom   28 type  2   force =     0.00041543   -0.00011849    0.00741969
     atom   29 type  2   force =     0.00045618   -0.00012393   -0.00777385
     atom   30 type  2   force =     0.00051445   -0.00025181   -0.00749533
     atom   31 type  2   force =     0.00041703   -0.00013734   -0.00730846
     atom   32 type  2   force =     0.00056820   -0.00020319   -0.00757661
     atom   33 type  2   force =    -0.00082680    0.00035561    0.00921304
     atom   34 type  2   force =    -0.00071719    0.00027246    0.00902917
     atom   35 type  2   force =    -0.00072545    0.00036787    0.00874662
     atom   36 type  2   force =    -0.00080763    0.00034117    0.00902732

     Total force =     0.042429     Total SCF correction =     0.002108

     General routines

     Parallel routines

   This run was terminated on:   5:45:14   3Sep2021

   JOB DONE.