     Program PWSCF v.6.4 starts on 14Oct2021 at 10:46:59

     R & G space division:  proc/nbgrp/npool/nimage =      40
     Waiting for input...
     Reading input from standard input
Warning: card    &IONS ignored
Warning: card      ION_DYNAMICS = 'BFGS' ignored
Warning: card   / ignored
Warning: card    &CELL ignored
Warning: card      CELL_DYNAMICS = 'BFGS', ignored
Warning: card    / ignored

     Current dimensions of program PWSCF are:
     Max number of different atomic species (ntypx) = 10
     Max number of k-points (npk) =  40000
     Max angular momentum in pseudopotentials (lmaxx) =  3

     bravais-lattice index     =            0
     lattice parameter (alat)  =       6.0841  a.u.
     unit-cell volume          =    4197.9853 (a.u.)^3
     number of atoms/cell      =           24
     number of atomic types    =            2
     number of electrons       =       144.00
     number of Kohn-Sham states=           86
     kinetic-energy cutoff     =      45.0000  Ry
     charge density cutoff     =     360.0000  Ry
     convergence threshold     =      1.0E-06
     mixing beta               =       0.7000
     number of iterations used =            8  local-TF  mixing
     Exchange-correlation      = SLA PW GGX GGC ( 1  4  2  2 0 0)

     celldm(1)=   6.084116  celldm(2)=   0.000000  celldm(3)=   0.000000
     celldm(4)=   0.000000  celldm(5)=   0.000000  celldm(6)=   0.000000

     crystal axes: (cart. coord. in units of alat)
               a(1) = (   1.000000   0.000000   0.000000 )
               a(2) = (   0.002900   1.738966   0.000000 )
               a(3) = (   1.541639  -0.506541  10.719074 )

     reciprocal axes: (cart. coord. in units 2 pi/alat)
               b(1) = (  1.000000 -0.001668 -0.143901 )
               b(2) = (  0.000000  0.575054  0.027175 )
               b(3) = (  0.000000  0.000000  0.093292 )

     PseudoPot. # 1 for Mo read from file:
     ~/pseudo/Mo.pw91-n-van.UPF
     MD5 check sum: Not computed, couldn't open file
     Pseudo is Ultrasoft + core correction, Zval =  6.0
     Generated by new atomic code, or converted to UPF format
     Using radial grid of  965 points,  3 beta functions with:
                l(1) =   1
                l(2) =   2
                l(3) =   2
     Q(r) pseudized with  8 coefficients,  rinner =    1.000   1.000   1.000
                                                       1.200   1.200

     PseudoPot. # 2 for S  read from file:
     ~/pseudo/S.pw91-van_ak.UPF
     MD5 check sum: Not computed, couldn't open file
     Pseudo is Ultrasoft, Zval =  6.0
     Generated by new atomic code, or converted to UPF format
     Using radial grid of  811 points,  6 beta functions with:
                l(1) =   0
                l(2) =   0
                l(3) =   1
                l(4) =   1
                l(5) =   2
                l(6) =   2
     Q(r) pseudized with  8 coefficients,  rinner =    1.100   1.100   1.100
                                                       1.100   1.100

     atomic species   valence    mass     pseudopotential
        Mo             6.00    95.50000     Mo( 1.00)
        S              6.00    32.06500     S ( 1.00)

     No symmetry found

   Cartesian axes

     site n.     atom                  positions (alat units)
         1           Mo  tau(   1) = (   2.0153088  -0.2701813   9.6322085  )
         2           Mo  tau(   2) = (   1.0475227   0.9596468   3.9059798  )
         3           Mo  tau(   3) = (   1.5185130   0.6009801   9.6259678  )
         4           Mo  tau(   4) = (   1.5559931   0.0865793   3.8999982  )
         5           Mo  tau(   5) = (   1.2391151   0.8405940   7.0016860  )
         6           Mo  tau(   6) = (   0.7799287   0.9185244   0.9035078  )
         7           Mo  tau(   7) = (   1.7301751  -0.0297348   6.9990481  )
         8           Mo  tau(   8) = (   0.2782642   0.0537786   0.8959736  )
         9           S   tau(   9) = (   1.5200514   0.0274221   9.1460257  )
        10           S   tau(  10) = (   1.5446825   1.2406462   3.4121829  )
        11           S   tau(  11) = (   2.0215417   0.9014779   9.1414822  )
        12           S   tau(  12) = (   1.0576370   0.3768087   3.4142501  )
        13           S   tau(  13) = (   1.7336448   0.5513483   6.5125061  )
        14           S   tau(  14) = (   0.2873336   0.6310666   0.4067020  )
        15           S   tau(  15) = (   1.2293637   1.4145546   6.5085047  )
        16           S   tau(  16) = (   0.7868629   1.4955613   0.4082092  )
        17           S   tau(  17) = (   1.5122804   0.0166086  10.1219736  )
        18           S   tau(  18) = (   1.5452988   1.2584497   4.3964234  )
        19           S   tau(  19) = (   2.0129251   0.8840850  10.1219809  )
        20           S   tau(  20) = (   1.0583902   0.3845645   4.3876146  )
        21           S   tau(  21) = (   1.7416358   0.5489822   7.4883418  )
        22           S   tau(  22) = (   0.2753291   0.6237900   1.3901345  )
        23           S   tau(  23) = (   1.2390624   1.4235397   7.4932051  )
        24           S   tau(  24) = (   0.7776490   1.4987000   1.3784658  )

     number of k points=     8  Marzari-Vanderbilt smearing, width (Ry)=  0.0200
                       cart. coord. in units 2pi/alat
        k(    1) = (   0.0000000   0.0000000   0.0000000), wk =   0.1333333
        k(    2) = (   0.0000000   0.1916848   0.0090583), wk =   0.2666667
        k(    3) = (   0.2000000  -0.0003336  -0.0287802), wk =   0.2666667
        k(    4) = (   0.2000000   0.1913512  -0.0197219), wk =   0.2666667
        k(    5) = (   0.2000000  -0.1920183  -0.0378384), wk =   0.2666667
        k(    6) = (   0.4000000  -0.0006671  -0.0575603), wk =   0.2666667
        k(    7) = (   0.4000000   0.1910176  -0.0485021), wk =   0.2666667
        k(    8) = (   0.4000000  -0.1923519  -0.0666186), wk =   0.2666667

     Initial potential from superposition of free atoms

     starting charge  143.98738, renormalised to  144.00000
     Starting wfcs are  136 randomized atomic wfcs

     Self-consistent Calculation

     iteration #  1     ecut=    45.00 Ry     beta= 0.70
     Davidson diagonalization with overlap
     ethr =  1.00E-02,  avg # of iterations =  2.0

     total energy              =    -562.79543996 Ry
     Harris-Foulkes estimate   =    -564.56783431 Ry
     estimated scf accuracy    <       4.52962663 Ry

[...]

     total energy              =    -563.68119066 Ry
     Harris-Foulkes estimate   =    -563.68119176 Ry
     estimated scf accuracy    <       0.00000395 Ry

     iteration # 16     ecut=    45.00 Ry     beta= 0.70
     Davidson diagonalization with overlap
     ethr =  2.74E-09,  avg # of iterations =  3.0

     End of self-consistent calculation

          k = 0.0000 0.0000 0.0000 ( 21465 PWs)   bands (ev):

   -10.2711 -10.1757 -10.1402 -10.1315  -9.0929  -8.9410  -8.9406  -8.9392
    -8.5568  -8.4853  -8.4354  -8.4308  -8.2876  -8.1969  -8.1664  -8.1568
    -1.9202  -1.8737  -1.8464  -1.7740  -1.7636  -1.6162  -1.6101  -1.5081
    -0.9466  -0.8195  -0.8108  -0.8094  -0.3362  -0.1459  -0.1443  -0.1381
     0.6770   0.6919   0.7589   0.7591   1.1375   1.1392   1.1569   1.1786
     1.2108   1.2203   1.2454   1.2640   1.6222   1.6442   1.9802   1.9895
     2.1556   2.1652   2.1812   2.1986   2.2278   2.2982   2.3046   2.3179
     2.3311   2.3615   2.3732   2.5957   2.7955   2.8271   2.8905   2.8932
     3.0157   3.1675   3.1746   3.2326   3.6205   3.8139   3.8258   4.1180
     5.7435   5.7536   5.8041   5.8145   6.2291   6.2768   6.3235   6.3240
     6.3647   6.3866   6.4316   6.4656   6.4853   6.4950

[...]

          k = 0.4000-0.1924-0.0666 ( 21320 PWs)   bands (ev):

    -8.8161  -8.7465  -8.6973  -8.6861  -8.4885  -8.4413  -8.3819  -8.3727
    -8.3725  -8.2863  -8.2582  -8.2571  -8.2124  -8.1627  -8.1085  -8.1062
    -1.6260  -1.5972  -1.5368  -1.5180  -1.5099  -1.4934  -1.4589  -1.4554
    -1.0897  -1.0335  -0.9677  -0.9629  -0.6870  -0.5178  -0.5174  -0.5096
    -0.2665  -0.1836  -0.0683  -0.0663  -0.0586  -0.0321  -0.0275  -0.0226
     0.5749   0.7127   0.7151   0.7258   0.7314   0.7637   0.8344   0.8464
     1.6821   1.7905   1.8630   1.8680   1.8734   1.9418   1.9989   2.0195
     2.0208   2.1449   2.1607   2.3280   2.4689   2.4937   2.5597   2.5631
     2.8881   2.9961   3.0056   3.0628   3.3368   3.3687   3.4161   3.4209
     5.7199   5.7427   5.7732   5.8020   5.8099   5.8186   5.8374   5.8519
     5.9923   6.1564   6.1624   6.2120   6.3141   6.4295

     the Fermi energy is     3.8473 ev

!    total energy              =    -563.68119104 Ry
     Harris-Foulkes estimate   =    -563.68119164 Ry
     estimated scf accuracy    <       0.00000065 Ry

     The total energy is the sum of the following terms:

     one-electron contribution =    -819.57464064 Ry
     hartree contribution      =     478.62326583 Ry
     xc contribution           =    -222.70970889 Ry
     ewald contribution        =      -0.03710251 Ry
     smearing contrib. (-TS)   =       0.01699517 Ry

     convergence has been achieved in  16 iterations

     Forces acting on atoms (cartesian axes, Ry/au):

     atom    1 type  1   force =     0.00109533    0.00707357    0.01114026
     atom    2 type  1   force =    -0.00019725    0.00320588   -0.00384965
     atom    3 type  1   force =    -0.00447040    0.00552549    0.02149667
     atom    4 type  1   force =    -0.00239756    0.00609408    0.00204012
     atom    5 type  1   force =    -0.00564767    0.00149773    0.00098632
     atom    6 type  1   force =     0.00411375   -0.00617618   -0.02036639
     atom    7 type  1   force =     0.00655064   -0.00300469   -0.00037116
     atom    8 type  1   force =     0.00397694   -0.01065602   -0.01310687
     atom    9 type  2   force =    -0.00481328   -0.01026593   -0.00950635
     atom   10 type  2   force =     0.00495363    0.00646493    0.00488471
     atom   11 type  2   force =    -0.00341761   -0.01180792   -0.00616030
     atom   12 type  2   force =    -0.00297116    0.00347897   -0.00070770
     atom   13 type  2   force =     0.00528210   -0.00178736   -0.00035703
     atom   14 type  2   force =    -0.00753176    0.00290887    0.01480297
     atom   15 type  2   force =     0.00489410    0.00594786    0.00496289
     atom   16 type  2   force =    -0.00543753    0.00349258    0.00977594
     atom   17 type  2   force =     0.00255091    0.00615916   -0.01200015
     atom   18 type  2   force =     0.00424497   -0.01039041   -0.00472834
     atom   19 type  2   force =     0.00512551    0.00378290   -0.01517065
     atom   20 type  2   force =    -0.00375972   -0.00925329    0.00406272
     atom   21 type  2   force =    -0.00434168    0.00073665    0.00142963
     atom   22 type  2   force =     0.00497956    0.00620174    0.00350168
     atom   23 type  2   force =    -0.00637375   -0.00408554   -0.00817161
     atom   24 type  2   force =     0.00359191    0.00485692    0.01541229

     Total force =     0.062399     Total SCF correction =     0.001976

     General routines

     Parallel routines

   This run was terminated on:  10:48:13  14Oct2021

   JOB DONE.