     Program PWSCF v.6.4 starts on  8Sep2021 at 11:17: 7

     R & G space division:  proc/nbgrp/npool/nimage =      40
     Waiting for input...
     Reading input from standard input
Warning: card    &IONS ignored
Warning: card      ION_DYNAMICS = 'BFGS' ignored
Warning: card   / ignored
Warning: card    &CELL ignored
Warning: card      CELL_DYNAMICS = 'BFGS', ignored
Warning: card    / ignored

     Current dimensions of program PWSCF are:
     Max number of different atomic species (ntypx) = 10
     Max number of k-points (npk) =  40000
     Max angular momentum in pseudopotentials (lmaxx) =  3

     bravais-lattice index     =            0
     lattice parameter (alat)  =      12.0466  a.u.
     unit-cell volume          =    4263.9649 (a.u.)^3
     number of atoms/cell      =           12
     number of atomic types    =            2
     number of electrons       =        72.00
     number of Kohn-Sham states=           43
     kinetic-energy cutoff     =      45.0000  Ry
     charge density cutoff     =     360.0000  Ry
     convergence threshold     =      1.0E-06
     mixing beta               =       0.7000
     number of iterations used =            8  local-TF  mixing
     Exchange-correlation      = SLA PW GGX GGC ( 1  4  2  2 0 0)

     celldm(1)=  12.046584  celldm(2)=   0.000000  celldm(3)=   0.000000
     celldm(4)=   0.000000  celldm(5)=   0.000000  celldm(6)=   0.000000

     crystal axes: (cart. coord. in units of alat)
               a(1) = (   0.999512   0.030728   0.005641 )
               a(2) = (  -0.529844   0.881603   0.001308 )
               a(3) = (   0.231249   0.095563   2.719480 )

     reciprocal axes: (cart. coord. in units 2 pi/alat)
               b(1) = (  0.982912  0.590885 -0.104345 )
               b(2) = ( -0.034040  1.113893 -0.036248 )
               b(3) = ( -0.002023 -0.001761  0.367951 )

     PseudoPot. # 1 for Mo read from file:
     ~/pseudo/Mo.pw91-n-van.UPF
     MD5 check sum: Not computed, couldn't open file
     Pseudo is Ultrasoft + core correction, Zval =  6.0
     Generated by new atomic code, or converted to UPF format
     Using radial grid of  965 points,  3 beta functions with:
                l(1) =   1
                l(2) =   2
                l(3) =   2
     Q(r) pseudized with  8 coefficients,  rinner =    1.000   1.000   1.000
                                                       1.200   1.200

     PseudoPot. # 2 for S  read from file:
     ~/pseudo/S.pw91-van_ak.UPF
     MD5 check sum: Not computed, couldn't open file
     Pseudo is Ultrasoft, Zval =  6.0
     Generated by new atomic code, or converted to UPF format
     Using radial grid of  811 points,  6 beta functions with:
                l(1) =   0
                l(2) =   0
                l(3) =   1
                l(4) =   1
                l(5) =   2
                l(6) =   2
     Q(r) pseudized with  8 coefficients,  rinner =    1.100   1.100   1.100
                                                       1.100   1.100

     atomic species   valence    mass     pseudopotential
        Mo             6.00    95.50000     Mo( 1.00)
        S              6.00    32.06500     S ( 1.00)

     No symmetry found

   Cartesian axes

     site n.     atom                  positions (alat units)
         1           Mo  tau(   1) = (   0.0115752  -0.1211477  -0.0126856  )
         2           Mo  tau(   2) = (  -0.2628625   0.4091696   0.0095376  )
         3           Mo  tau(   3) = (   0.5089165  -0.1084017  -0.0092647  )
         4           Mo  tau(   4) = (   0.2390662   0.4270456   0.0115447  )
         5           S   tau(   5) = (  -0.0168123   0.5175706   0.2763843  )
         6           S   tau(   6) = (  -0.2789192   0.9694738   0.2147009  )
         7           S   tau(   7) = (   0.4832537   0.5347730   0.2781051  )
         8           S   tau(   8) = (   0.2201965   0.9772947   0.2234475  )
         9           S   tau(   9) = (   0.2283608   0.3166486   2.5039701  )
        10           S   tau(  10) = (  -0.0347367   0.7557635   2.4431308  )
        11           S   tau(  11) = (   0.7274991   0.3318789   2.5068543  )
        12           S   tau(  12) = (   0.4641962   0.7827259   2.4463500  )

     number of k points=     5  Marzari-Vanderbilt smearing, width (Ry)=  0.0200
                       cart. coord. in units 2pi/alat
        k(    1) = (   0.0000000   0.0000000   0.0000000), wk =   0.2222222
        k(    2) = (  -0.0113466   0.3712976  -0.0120827), wk =   0.4444444
        k(    3) = (   0.3276372   0.1969618  -0.0347817), wk =   0.4444444
        k(    4) = (   0.3162906   0.5682594  -0.0468644), wk =   0.4444444
        k(    5) = (   0.3389838  -0.1743358  -0.0226990), wk =   0.4444444

     Initial potential from superposition of free atoms

     starting charge   71.99369, renormalised to   72.00000

     negative rho (up, down):  6.533E-04 0.000E+00
     Starting wfcs are   68 randomized atomic wfcs

     Self-consistent Calculation

     iteration #  1     ecut=    45.00 Ry     beta= 0.70
     Davidson diagonalization with overlap
     ethr =  1.00E-02,  avg # of iterations =  2.0

     negative rho (up, down):  3.934E-05 0.000E+00

     total energy              =    -281.20551697 Ry
     Harris-Foulkes estimate   =    -282.11878221 Ry
     estimated scf accuracy    <       2.38816473 Ry

[...]

     total energy              =    -281.68829181 Ry
     Harris-Foulkes estimate   =    -281.68833143 Ry
     estimated scf accuracy    <       0.00018704 Ry

     iteration # 12     ecut=    45.00 Ry     beta= 0.70
     Davidson diagonalization with overlap
     ethr =  1.82E-07,  avg # of iterations =  3.0

[...]

     End of self-consistent calculation

          k = 0.0000 0.0000 0.0000 ( 21751 PWs)   bands (ev):

   -15.0222 -14.0583 -13.5535 -13.5306 -13.3408 -13.1795 -12.8425 -12.8166
    -6.9790  -6.9748  -6.9309  -6.3381  -5.5762  -5.5301  -5.5203  -5.4373
    -4.8817  -4.8728  -4.2989  -4.1569  -4.0956  -4.0694  -3.7419  -3.4060
    -3.3896  -3.3666  -2.9453  -2.8440  -2.8008  -2.2785  -1.9558  -1.9107
    -1.8635  -1.5498  -1.2572  -1.1363  -0.5385  -0.3591   0.6899   0.7154
     0.9330   1.1696   1.5079

          k =-0.0113 0.3713-0.0121 ( 21723 PWs)   bands (ev):

[...]

          k = 0.3390-0.1743-0.0227 ( 21745 PWs)   bands (ev):

   -14.6392 -13.9208 -13.8083 -13.5995 -13.3291 -13.2655 -13.1685 -12.9107
    -6.4563  -6.4033  -5.9829  -5.9625  -5.7834  -5.6948  -5.2749  -5.1732
    -5.0280  -4.6286  -4.5987  -4.5697  -4.3623  -4.0574  -3.9638  -3.5562
    -3.4917  -3.4446  -3.3610  -3.0515  -2.6633  -2.3426  -2.2315  -2.2012
    -2.0160  -1.9059  -1.6584  -1.5326  -0.7085   0.0755   0.1676   0.5569
     1.1571   1.2132   1.3734

     the Fermi energy is    -1.2107 ev

!    total energy              =    -281.68832155 Ry
     Harris-Foulkes estimate   =    -281.68831532 Ry
     estimated scf accuracy    <       0.00000079 Ry

     The total energy is the sum of the following terms:

     one-electron contribution =   -1362.09886844 Ry
     hartree contribution      =     702.33567190 Ry
     xc contribution           =    -111.28709401 Ry
     ewald contribution        =     489.35058124 Ry
     smearing contrib. (-TS)   =       0.01138776 Ry

     convergence has been achieved in  12 iterations

     negative rho (up, down):  9.074E-04 0.000E+00

     Forces acting on atoms (cartesian axes, Ry/au):

     atom    1 type  1   force =    -0.01194705    0.00290319   -0.00762853
     atom    2 type  1   force =     0.00843618   -0.00562229    0.01065367
     atom    3 type  1   force =    -0.00020263    0.01134936   -0.00851395
     atom    4 type  1   force =    -0.00174427   -0.00246160    0.00092814
     atom    5 type  2   force =     0.00193005   -0.00212727    0.00409499
     atom    6 type  2   force =    -0.00079171   -0.00412913   -0.00016974
     atom    7 type  2   force =     0.00201929   -0.00209421    0.01012627
     atom    8 type  2   force =    -0.00134240    0.00809116   -0.00917583
     atom    9 type  2   force =     0.00273733   -0.00676669    0.00226136
     atom   10 type  2   force =    -0.00052275    0.01136803   -0.00229715
     atom   11 type  2   force =     0.00024673   -0.00848861    0.00100147
     atom   12 type  2   force =     0.00118125   -0.00202195   -0.00128069

     Total force =     0.034865     Total SCF correction =     0.001716

     General routines

     Parallel routines

   This run was terminated on:  11:17:35   8Sep2021

   JOB DONE.