     Program PWSCF v.6.4 starts on 23Dec2021 at 22:59: 9

     R & G space division:  proc/nbgrp/npool/nimage =      40
     Waiting for input...
     Reading input from standard input
Warning: card    &IONS ignored
Warning: card      ION_DYNAMICS = 'BFGS' ignored
Warning: card   / ignored
Warning: card    &CELL ignored
Warning: card      CELL_DYNAMICS = 'BFGS', ignored
Warning: card    / ignored

     Current dimensions of program PWSCF are:
     Max number of different atomic species (ntypx) = 10
     Max number of k-points (npk) =  40000
     Max angular momentum in pseudopotentials (lmaxx) =  3

     bravais-lattice index     =            0
     lattice parameter (alat)  =      12.0544  a.u.
     unit-cell volume          =    3170.0763 (a.u.)^3
     number of atoms/cell      =           24
     number of atomic types    =            2
     number of electrons       =       144.00
     number of Kohn-Sham states=           86
     kinetic-energy cutoff     =      45.0000  Ry
     charge density cutoff     =     360.0000  Ry
     convergence threshold     =      1.0E-06
     mixing beta               =       0.7000
     number of iterations used =            8  local-TF  mixing
     Exchange-correlation      = SLA PW GGX GGC ( 1  4  2  2 0 0)

     celldm(1)=  12.054392  celldm(2)=   0.000000  celldm(3)=   0.000000
     celldm(4)=   0.000000  celldm(5)=   0.000000  celldm(6)=   0.000000

     crystal axes: (cart. coord. in units of alat)
               a(1) = (   1.000000   0.000000   0.000000 )
               a(2) = (   0.008390   1.006835   0.000000 )
               a(3) = (   0.453785   0.503502   1.797528 )

     reciprocal axes: (cart. coord. in units 2 pi/alat)
               b(1) = (  1.000000 -0.008333 -0.250115 )
               b(2) = (  0.000000  0.993212 -0.278206 )
               b(3) = (  0.000000  0.000000  0.556320 )

     PseudoPot. # 1 for Mo read from file:
     ~/pseudo/Mo.pw91-n-van.UPF
     MD5 check sum: Not computed, couldn't open file
     Pseudo is Ultrasoft + core correction, Zval =  6.0
     Generated by new atomic code, or converted to UPF format
     Using radial grid of  965 points,  3 beta functions with:
                l(1) =   1
                l(2) =   2
                l(3) =   2
     Q(r) pseudized with  8 coefficients,  rinner =    1.000   1.000   1.000
                                                       1.200   1.200

     PseudoPot. # 2 for S  read from file:
     ~/pseudo/S.pw91-van_ak.UPF
     MD5 check sum: Not computed, couldn't open file
     Pseudo is Ultrasoft, Zval =  6.0
     Generated by new atomic code, or converted to UPF format
     Using radial grid of  811 points,  6 beta functions with:
                l(1) =   0
                l(2) =   0
                l(3) =   1
                l(4) =   1
                l(5) =   2
                l(6) =   2
     Q(r) pseudized with  8 coefficients,  rinner =    1.100   1.100   1.100
                                                       1.100   1.100

     atomic species   valence    mass     pseudopotential
        Mo             6.00    95.50000     Mo( 1.00)
        S              6.00    32.06500     S ( 1.00)

     No symmetry found

   Cartesian axes

     site n.     atom                  positions (alat units)
         1           Mo  tau(   1) = (   0.2865019   0.4067030   0.2278305  )
         2           Mo  tau(   2) = (   0.5254629   0.8789652   0.6077306  )
         3           Mo  tau(   3) = (   1.2173893   0.6249114   1.4065589  )
         4           Mo  tau(   4) = (   0.0447080   1.0253169   0.0298482  )
         5           Mo  tau(   5) = (   0.3020611   0.7646781   1.0132539  )
         6           Mo  tau(   6) = (   0.5161630   1.0143977   0.0413271  )
         7           Mo  tau(   7) = (   1.0356782   0.8501934   0.5907673  )
         8           Mo  tau(   8) = (   0.7989060   0.7657268   1.0236516  )
         9           S   tau(   9) = (   1.0520493   0.9463047   1.2704420  )
        10           S   tau(  10) = (   0.2857522   0.5772170   0.6971006  )
        11           S   tau(  11) = (   0.5281576   0.5455513   1.1952070  )
        12           S   tau(  12) = (   0.7733401   0.6009913   0.6772477  )
        13           S   tau(  13) = (   0.5333552   0.1861507   0.3651754  )
        14           S   tau(  14) = (   1.0211243   0.1686702   0.3629043  )
        15           S   tau(  15) = (   1.0147349   0.4688023   1.1115320  )
        16           S   tau(  16) = (   0.2877283   1.0864987   0.7774612  )
        17           S   tau(  17) = (   0.7372285   1.3124383   1.6275943  )
        18           S   tau(  18) = (   1.2268740   0.7928140   1.7675689  )
        19           S   tau(  19) = (   0.5380848   1.0218512   1.1902267  )
        20           S   tau(  20) = (   0.7973577   1.0782850   0.7943654  )
        21           S   tau(  21) = (   0.7326560   0.7820171   1.6985066  )
        22           S   tau(  22) = (   0.5269422   0.6959700   0.2739955  )
        23           S   tau(  23) = (   1.2400850   1.3334999   1.6344965  )
        24           S   tau(  24) = (   1.0289590   0.6940171   0.2432195  )

     number of k points=    10  Marzari-Vanderbilt smearing, width (Ry)=  0.0200
                       cart. coord. in units 2pi/alat
        k(    1) = (   0.0000000   0.0000000   0.0000000), wk =   0.1111111
        k(    2) = (   0.0000000   0.0000000  -0.2781598), wk =   0.1111111
        k(    3) = (   0.0000000   0.3310706  -0.0927355), wk =   0.2222222
        k(    4) = (   0.0000000   0.3310706  -0.3708953), wk =   0.2222222
        k(    5) = (   0.3333333  -0.0027777  -0.0833718), wk =   0.2222222
        k(    6) = (   0.3333333  -0.0027777  -0.3615316), wk =   0.2222222
        k(    7) = (   0.3333333   0.3282929  -0.1761073), wk =   0.2222222
        k(    8) = (   0.3333333   0.3282929  -0.4542671), wk =   0.2222222
        k(    9) = (   0.3333333  -0.3338483   0.0093637), wk =   0.2222222
        k(   10) = (   0.3333333  -0.3338483  -0.2687961), wk =   0.2222222

     Initial potential from superposition of free atoms

     starting charge  143.98738, renormalised to  144.00000
     Starting wfcs are  136 randomized atomic wfcs

     Self-consistent Calculation

     iteration #  1     ecut=    45.00 Ry     beta= 0.70
     Davidson diagonalization with overlap
     ethr =  1.00E-02,  avg # of iterations =  2.0

     total energy              =    -561.80410122 Ry
     Harris-Foulkes estimate   =    -563.91986304 Ry
     estimated scf accuracy    <       5.48559729 Ry

[...]

     total energy              =    -562.92784739 Ry
     Harris-Foulkes estimate   =    -562.92784820 Ry
     estimated scf accuracy    <       0.00000565 Ry

     iteration # 13     ecut=    45.00 Ry     beta= 0.70
     Davidson diagonalization with overlap
     ethr =  3.92E-09,  avg # of iterations =  1.0

     End of self-consistent calculation

          k = 0.0000 0.0000 0.0000 ( 16145 PWs)   bands (ev):

    -7.0443  -6.4725  -6.0661  -5.7485  -5.6296  -5.4699  -5.3930  -5.3547
    -5.2858  -5.1402  -5.0075  -4.9877  -4.8211  -4.7928  -4.5725  -4.1536
     1.0766   1.2040   1.4690   1.5897   1.7153   1.8471   1.9699   2.0725
     2.3081   2.3396   2.4761   2.6313   2.6704   2.7147   2.7357   2.7590
     2.8770   3.0569   3.1680   3.2786   3.5024   3.7185   3.8451   3.9270
     4.0518   4.2800   4.3198   4.4122   4.4781   4.6181   4.7591   4.8009
     4.8161   4.9592   4.9827   5.1387   5.2373   5.2949   5.4346   5.5114
     5.6898   5.7408   5.9808   6.0586   6.0954   6.1902   6.2737   6.3531
     6.4527   6.6572   6.8237   7.0011   7.1700   7.2567   7.3035   7.4899
     7.6451   7.6927   7.7462   7.8656   7.9878   8.5437   8.6930   8.7852
     8.8717   9.1151   9.2090   9.3163   9.3860   9.5567

[...]

          k = 0.3333-0.3338-0.2688 ( 16187 PWs)   bands (ev):

    -6.5400  -6.2982  -6.0238  -5.8166  -5.7500  -5.6142  -5.5607  -5.3985
    -5.3184  -5.2447  -5.1607  -5.0904  -4.9239  -4.8465  -4.6334  -4.2646
     1.6813   1.7485   1.9405   2.0281   2.0706   2.1692   2.2664   2.3696
     2.4067   2.4538   2.5505   2.7357   2.7942   2.9129   3.0278   3.0847
     3.1401   3.2653   3.3160   3.3841   3.4680   3.6227   3.6956   3.7692
     3.8421   3.9063   3.9835   4.0808   4.1799   4.3198   4.4276   4.5363
     4.5993   4.6704   4.7552   4.9257   4.9553   5.1006   5.2051   5.2487
     5.4156   5.4423   5.6374   5.6844   5.7960   5.8805   6.1720   6.2896
     6.3822   6.6329   6.7035   6.9700   7.0530   7.0884   7.2772   7.3068
     7.5056   7.7968   7.8827   7.9643   8.1508   8.4450   8.6819   8.8268
     8.9383   9.0237   9.1471   9.2221   9.3020   9.3814

     the Fermi energy is     7.4824 ev

!    total energy              =    -562.92784722 Ry
     Harris-Foulkes estimate   =    -562.92784775 Ry
     estimated scf accuracy    <       0.00000075 Ry

     The total energy is the sum of the following terms:

     one-electron contribution =      29.32930927 Ry
     hartree contribution      =      71.52610813 Ry
     xc contribution           =    -222.43384519 Ry
     ewald contribution        =    -441.35251264 Ry
     smearing contrib. (-TS)   =       0.00309321 Ry

     convergence has been achieved in  13 iterations

     Forces acting on atoms (cartesian axes, Ry/au):

     atom    1 type  1   force =    -0.03560323    0.01209608    0.03647643
     atom    2 type  1   force =     0.04481596   -0.04851024   -0.00097354
     atom    3 type  1   force =     0.04508804    0.04370128    0.03484489
     atom    4 type  1   force =    -0.02691498    0.00065011   -0.05335025
     atom    5 type  1   force =    -0.10266118    0.09295242   -0.00506566
     atom    6 type  1   force =     0.04036175    0.01624593   -0.06303882
     atom    7 type  1   force =     0.02978550    0.04251385    0.05201240
     atom    8 type  1   force =    -0.05427039    0.05863318    0.01773066
     atom    9 type  2   force =     0.00496375   -0.03718946   -0.04384757
     atom   10 type  2   force =     0.01031169    0.01345888   -0.04712535
     atom   11 type  2   force =     0.02115164   -0.04513996    0.02195048
     atom   12 type  2   force =     0.00568483   -0.01695569    0.02302446
     atom   13 type  2   force =     0.02915817   -0.03434091    0.06866500
     atom   14 type  2   force =    -0.00292105    0.00821427    0.04198043
     atom   15 type  2   force =     0.04537617    0.02127086    0.01817103
     atom   16 type  2   force =    -0.04936711   -0.01633190    0.04228967
     atom   17 type  2   force =     0.00561622    0.00909585    0.01036061
     atom   18 type  2   force =    -0.01150991   -0.02449301   -0.05896234
     atom   19 type  2   force =     0.01966745   -0.04518427    0.00447589
     atom   20 type  2   force =     0.00559028   -0.03080543    0.00321446
     atom   21 type  2   force =     0.00021099   -0.00513620   -0.06775012
     atom   22 type  2   force =    -0.00108512    0.01980373   -0.02738497
     atom   23 type  2   force =    -0.02331032   -0.02375236   -0.01650255
     atom   24 type  2   force =    -0.00013915   -0.01079702    0.00880476

     Total force =     0.306235     Total SCF correction =     0.001917

     General routines

     Parallel routines

   This run was terminated on:  23: 0: 6  23Dec2021

   JOB DONE.