     Program PWSCF v.6.4 starts on  8Sep2021 at 11:26: 2

     R & G space division:  proc/nbgrp/npool/nimage =      40
     Waiting for input...
     Reading input from standard input
Warning: card    &IONS ignored
Warning: card      ION_DYNAMICS = 'BFGS' ignored
Warning: card   / ignored
Warning: card    &CELL ignored
Warning: card      CELL_DYNAMICS = 'BFGS', ignored
Warning: card    / ignored

     Current dimensions of program PWSCF are:
     Max number of different atomic species (ntypx) = 10
     Max number of k-points (npk) =  40000
     Max angular momentum in pseudopotentials (lmaxx) =  3

     bravais-lattice index     =            0
     lattice parameter (alat)  =      12.4051  a.u.
     unit-cell volume          =    6527.9859 (a.u.)^3
     number of atoms/cell      =           36
     number of atomic types    =            2
     number of electrons       =       216.00
     number of Kohn-Sham states=          130
     kinetic-energy cutoff     =      45.0000  Ry
     charge density cutoff     =     360.0000  Ry
     convergence threshold     =      1.0E-06
     mixing beta               =       0.7000
     number of iterations used =            8  local-TF  mixing
     Exchange-correlation      = SLA PW GGX GGC ( 1  4  2  2 0 0)

     celldm(1)=  12.405068  celldm(2)=   0.000000  celldm(3)=   0.000000
     celldm(4)=   0.000000  celldm(5)=   0.000000  celldm(6)=   0.000000

     crystal axes: (cart. coord. in units of alat)
               a(1) = (   0.999867  -0.015463  -0.005119 )
               a(2) = (  -0.498057   0.868500   0.010048 )
               a(3) = (   0.428164  -0.472801   3.966926 )

     reciprocal axes: (cart. coord. in units 2 pi/alat)
               b(1) = (  1.008883  0.579023 -0.039881 )
               b(2) = (  0.018645  1.160525  0.136305 )
               b(3) = (  0.001255 -0.002192  0.251688 )

     PseudoPot. # 1 for Mo read from file:
     ~/pseudo/Mo.pw91-n-van.UPF
     MD5 check sum: Not computed, couldn't open file
     Pseudo is Ultrasoft + core correction, Zval =  6.0
     Generated by new atomic code, or converted to UPF format
     Using radial grid of  965 points,  3 beta functions with:
                l(1) =   1
                l(2) =   2
                l(3) =   2
     Q(r) pseudized with  8 coefficients,  rinner =    1.000   1.000   1.000
                                                       1.200   1.200

     PseudoPot. # 2 for S  read from file:
     ~/pseudo/S.pw91-van_ak.UPF
     MD5 check sum: Not computed, couldn't open file
     Pseudo is Ultrasoft, Zval =  6.0
     Generated by new atomic code, or converted to UPF format
     Using radial grid of  811 points,  6 beta functions with:
                l(1) =   0
                l(2) =   0
                l(3) =   1
                l(4) =   1
                l(5) =   2
                l(6) =   2
     Q(r) pseudized with  8 coefficients,  rinner =    1.100   1.100   1.100
                                                       1.100   1.100

     atomic species   valence    mass     pseudopotential
        Mo             6.00    95.50000     Mo( 1.00)
        S              6.00    32.06500     S ( 1.00)

     No symmetry found

   Cartesian axes

     site n.     atom                  positions (alat units)
         1           Mo  tau(   1) = (   0.3638514   0.0325821   0.0508113  )
         2           Mo  tau(   2) = (   0.0398695   0.4952164   0.0358667  )
         3           Mo  tau(   3) = (   0.7883958   0.0633387   0.0307608  )
         4           Mo  tau(   4) = (   0.6207942   0.4593470   0.0508177  )
         5           Mo  tau(   5) = (   0.2508566   0.1072200   2.8982779  )
         6           Mo  tau(   6) = (  -0.0399427   0.5287500   2.8880384  )
         7           Mo  tau(   7) = (   0.7481626   0.1464317   2.8815628  )
         8           Mo  tau(   8) = (   0.5342666   0.5238186   2.8874526  )
         9           Mo  tau(   9) = (   0.0193013   0.1732531   1.0547722  )
        10           Mo  tau(  10) = (  -0.1898249   0.5473478   1.0564116  )
        11           Mo  tau(  11) = (   0.5236267   0.1192088   1.0355242  )
        12           Mo  tau(  12) = (   0.2332679   0.5407988   1.0551155  )
        13           S   tau(  13) = (   0.0728639   0.1815314   0.2606449  )
        14           S   tau(  14) = (  -0.1666268   0.6336706   0.3128455  )
        15           S   tau(  15) = (   0.5747234   0.1934839   0.3045229  )
        16           S   tau(  16) = (   0.3340454   0.6138181   0.2502837  )
        17           S   tau(  17) = (   0.4971467  -0.0318043   3.1183262  )
        18           S   tau(  18) = (   0.2448865   0.4097049   3.1106317  )
        19           S   tau(  19) = (   0.9909427  -0.0411637   3.1079413  )
        20           S   tau(  20) = (   0.7434192   0.3961210   3.1580621  )
        21           S   tau(  21) = (   0.5235667  -0.1651745   1.2967423  )
        22           S   tau(  22) = (   0.2810977   0.2669273   1.2973251  )
        23           S   tau(  23) = (   1.0291815  -0.1743678   1.2515792  )
        24           S   tau(  24) = (   0.7698003   0.2612090   1.2980820  )
        25           S   tau(  25) = (   0.2556450  -0.1369145   3.7410249  )
        26           S   tau(  26) = (  -0.0028828   0.3042766   3.8049043  )
        27           S   tau(  27) = (   0.7519736  -0.1353619   3.8010570  )
        28           S   tau(  28) = (   0.5084627   0.2924343   3.7567272  )
        29           S   tau(  29) = (   0.7414463  -0.1724075   2.6699786  )
        30           S   tau(  30) = (   0.4893110   0.2581209   2.6395046  )
        31           S   tau(  31) = (   1.2390078  -0.1804825   2.6291152  )
        32           S   tau(  32) = (   0.9944597   0.2496608   2.6330699  )
        33           S   tau(  33) = (   0.2638286  -0.0152422   0.8199443  )
        34           S   tau(  34) = (   0.0202267   0.4173905   0.7819784  )
        35           S   tau(  35) = (   0.7739655  -0.0247203   0.8167754  )
        36           S   tau(  36) = (   0.5176394   0.4186330   0.8260532  )

     number of k points=     5  Marzari-Vanderbilt smearing, width (Ry)=  0.0200
                       cart. coord. in units 2pi/alat
        k(    1) = (   0.0000000   0.0000000   0.0000000), wk =   0.2222222
        k(    2) = (   0.0062151   0.3868418   0.0454352), wk =   0.4444444
        k(    3) = (   0.3362943   0.1930078  -0.0132937), wk =   0.4444444
        k(    4) = (   0.3425094   0.5798496   0.0321415), wk =   0.4444444
        k(    5) = (   0.3300793  -0.1938340  -0.0587288), wk =   0.4444444

     Initial potential from superposition of free atoms

     starting charge  215.98107, renormalised to  216.00000

     negative rho (up, down):  7.285E-05 0.000E+00
     Starting wfcs are  204 randomized atomic wfcs

     Self-consistent Calculation

     iteration #  1     ecut=    45.00 Ry     beta= 0.70
     Davidson diagonalization with overlap
     ethr =  1.00E-02,  avg # of iterations =  2.0

     negative rho (up, down):  1.091E-06 0.000E+00

     total energy              =    -843.43511431 Ry
     Harris-Foulkes estimate   =    -846.45131370 Ry
     estimated scf accuracy    <       8.10538563 Ry

[...]

     iteration #  7     ecut=    45.00 Ry     beta= 0.70
     Davidson diagonalization with overlap
     c_bands:  1 eigenvalues not converged
     c_bands:  1 eigenvalues not converged
     c_bands:  1 eigenvalues not converged
     ethr =  8.47E-06,  avg # of iterations = 15.4

[...]

     total energy              =    -844.98582594 Ry
     Harris-Foulkes estimate   =    -844.98582652 Ry
     estimated scf accuracy    <       0.00000100 Ry

     iteration # 18     ecut=    45.00 Ry     beta= 0.70
     Davidson diagonalization with overlap
     ethr =  4.65E-10,  avg # of iterations =  2.6

[...]

     End of self-consistent calculation

          k = 0.0000 0.0000 0.0000 ( 33209 PWs)   bands (ev):

   -10.3739 -10.3385 -10.2457  -9.3781  -9.3298  -9.2734  -9.0499  -9.0337
    -9.0275  -9.0110  -8.8706  -8.8247  -8.6668  -8.6141  -8.5897  -8.5135
    -8.4739  -8.4516  -8.4429  -8.4017  -8.1726  -8.1504  -7.8907  -7.8702
    -2.4432  -2.4222  -2.2565  -2.2481  -2.2160  -2.2096  -2.1917  -2.1714
    -2.1419  -1.8460  -1.7351  -1.5361  -0.9586  -0.9055  -0.8529  -0.8275
    -0.7923  -0.7632  -0.7559  -0.7363  -0.7240  -0.6027  -0.4574  -0.4331
    -0.4094  -0.3940  -0.3614  -0.2552  -0.1168  -0.0644   0.0646   0.1278
     0.1426   0.1703   0.2838   0.4045   0.4148   0.4240   0.5615   0.7059
     0.7665   0.7799   0.8765   0.9428   0.9680   1.2160   1.2298   1.2741
     1.2869   1.3054   1.3400   1.3844   1.4046   1.4208   1.4673   1.4953
     1.8974   1.9401   1.9567   1.9671   2.0510   2.0877   2.2291   2.2631
     2.2803   2.4474   2.5492   2.5766   2.6645   2.6801   2.7168   2.7265
     2.7911   2.8445   2.8636   3.1960   3.3385   3.3525   3.3606   3.4092
     3.4307   3.4924   3.5101   3.5922   3.6936   3.7735   3.7777   3.9334
     3.9959   4.2858   5.0911   5.0945   5.1226   5.1262   5.1726   5.2567
     5.2658   5.2992   5.4951   5.7601   5.8527   5.8920   6.0961   6.1357
     6.1597   6.1651

[...]

          k = 0.3301-0.1938-0.0587 ( 33274 PWs)   bands (ev):

   -10.0257  -9.9946  -9.9047  -9.3422  -9.3125  -9.2940  -9.1315  -9.1281
    -8.9502  -8.9299  -8.9137  -8.8949  -8.8811  -8.8186  -8.7530  -8.6682
    -8.5961  -8.5908  -8.5864  -8.5843  -8.2707  -8.2302  -7.9773  -7.9631
    -1.8948  -1.8785  -1.7164  -1.6864  -1.6490  -1.6423  -1.6069  -1.5987
    -1.5588  -1.4843  -1.3098  -1.2493  -1.1052  -1.0546  -1.0112  -0.9717
    -0.9525  -0.9347  -0.9244  -0.8869  -0.6935  -0.3764  -0.3525  -0.3116
    -0.2252  -0.2202  -0.1909  -0.1864  -0.0972  -0.0597   0.0187   0.0569
     0.1144   0.1604   0.2884   0.3754   0.4188   0.4236   0.4525   0.4706
     0.5097   0.5360   0.6577   0.7578   0.7589   0.8556   0.8768   0.9412
     1.0777   1.1121   1.1563   1.1794   1.1907   1.3873   1.4186   1.4233
     1.5778   1.6389   1.6887   1.7371   1.8009   1.8594   1.8858   2.2333
     2.2534   2.2728   2.2939   2.3579   2.4211   2.4800   2.6652   2.7210
     2.7468   2.7505   2.7789   2.8307   2.8661   2.9055   2.9522   3.0314
     3.0895   3.1397   3.3284   3.3514   3.9262   4.1437   4.1736   4.1808
     4.2898   4.3345   4.7872   4.7892   4.9132   4.9154   5.2966   5.3553
     5.3678   5.4337   5.6218   5.8142   5.8340   5.8593   5.8872   5.9721
     6.0017   6.0477

     the Fermi energy is     3.6489 ev

!    total energy              =    -844.98582588 Ry
     Harris-Foulkes estimate   =    -844.98582601 Ry
     estimated scf accuracy    <       0.00000036 Ry

     The total energy is the sum of the following terms:

     one-electron contribution =   -1850.37639412 Ry
     hartree contribution      =    1025.96744042 Ry
     xc contribution           =    -333.52888075 Ry
     ewald contribution        =     312.93515449 Ry
     smearing contrib. (-TS)   =       0.01685408 Ry

     convergence has been achieved in  18 iterations

     negative rho (up, down):  1.641E-04 0.000E+00

     Forces acting on atoms (cartesian axes, Ry/au):

     atom    1 type  1   force =     0.00790163   -0.02217532    0.00062661
     atom    2 type  1   force =    -0.00235776    0.02111936    0.00334272
     atom    3 type  1   force =    -0.00309452   -0.00654993   -0.01127771
     atom    4 type  1   force =    -0.00958675   -0.01327951    0.00193954
     atom    5 type  1   force =     0.00374873    0.00628064   -0.01066896
     atom    6 type  1   force =     0.00717471    0.00752109    0.00226460
     atom    7 type  1   force =    -0.00695132    0.01164386    0.00089516
     atom    8 type  1   force =    -0.00814672   -0.01268461    0.00540007
     atom    9 type  1   force =     0.00304558   -0.00562928    0.00279454
     atom   10 type  1   force =    -0.00929696   -0.00591902   -0.00420639
     atom   11 type  1   force =    -0.00328405    0.00443488    0.00886624
     atom   12 type  1   force =     0.01449309   -0.00246367    0.00010383
     atom   13 type  2   force =     0.01147214    0.01636544   -0.01937265
     atom   14 type  2   force =    -0.00788514   -0.00952541   -0.00140778
     atom   15 type  2   force =    -0.00008028   -0.00280768    0.00607100
     atom   16 type  2   force =    -0.00381362    0.00464805   -0.00072483
     atom   17 type  2   force =     0.00594578   -0.00743203   -0.00793604
     atom   18 type  2   force =    -0.00365495    0.00422269   -0.00158308
     atom   19 type  2   force =    -0.01183883   -0.00340551    0.00260644
     atom   20 type  2   force =     0.00360811   -0.00272946   -0.00373568
     atom   21 type  2   force =     0.00254375    0.01150612    0.00159934
     atom   22 type  2   force =    -0.00459557   -0.00094524   -0.00230250
     atom   23 type  2   force =    -0.01036485    0.00206697   -0.00925816
     atom   24 type  2   force =     0.00066926   -0.00652134   -0.00439309
     atom   25 type  2   force =     0.00421104    0.00707836    0.01689337
     atom   26 type  2   force =     0.01123166    0.00403876    0.01338301
     atom   27 type  2   force =    -0.00113545   -0.00293664    0.00426591
     atom   28 type  2   force =    -0.00788442    0.00272395   -0.01731161
     atom   29 type  2   force =     0.00060491   -0.00787468    0.01271393
     atom   30 type  2   force =    -0.00245874   -0.00334699   -0.00016477
     atom   31 type  2   force =     0.00822373    0.00948742   -0.00576685
     atom   32 type  2   force =     0.00391205   -0.00047410    0.00523878
     atom   33 type  2   force =    -0.00384457   -0.00441460    0.00509832
     atom   34 type  2   force =    -0.00074366    0.00680438    0.00143022
     atom   35 type  2   force =     0.00689055   -0.00209881    0.00200912
     atom   36 type  2   force =     0.00534146    0.00327184    0.00256738

     Total force =     0.079257     Total SCF correction =     0.001574

     General routines

     Parallel routines

   This run was terminated on:  11:28:21   8Sep2021

   JOB DONE.