     Program PWSCF v.6.4 starts on 24Dec2021 at 20:39:27

     R & G space division:  proc/nbgrp/npool/nimage =      40
     Waiting for input...
     Reading input from standard input
Warning: card    &IONS ignored
Warning: card      ION_DYNAMICS = 'BFGS' ignored
Warning: card   / ignored
Warning: card    &CELL ignored
Warning: card      CELL_DYNAMICS = 'BFGS', ignored
Warning: card    / ignored

     Current dimensions of program PWSCF are:
     Max number of different atomic species (ntypx) = 10
     Max number of k-points (npk) =  40000
     Max angular momentum in pseudopotentials (lmaxx) =  3

     bravais-lattice index     =            0
     lattice parameter (alat)  =      18.0065  a.u.
     unit-cell volume          =    7298.8218 (a.u.)^3
     number of atoms/cell      =           48
     number of atomic types    =            2
     number of electrons       =       288.00
     number of Kohn-Sham states=          173
     kinetic-energy cutoff     =      45.0000  Ry
     charge density cutoff     =     360.0000  Ry
     convergence threshold     =      1.0E-06
     mixing beta               =       0.7000
     number of iterations used =            8  local-TF  mixing
     Exchange-correlation      = SLA PW GGX GGC ( 1  4  2  2 0 0)

     celldm(1)=  18.006495  celldm(2)=   0.000000  celldm(3)=   0.000000
     celldm(4)=   0.000000  celldm(5)=   0.000000  celldm(6)=   0.000000

     crystal axes: (cart. coord. in units of alat)
               a(1) = (   1.000000   0.000000   0.000000 )
               a(2) = (  -0.022535   1.039578   0.000000 )
               a(3) = (   0.062227   0.003672   1.202563 )

     reciprocal axes: (cart. coord. in units 2 pi/alat)
               b(1) = (  1.000000  0.021677 -0.051812 )
               b(2) = (  0.000000  0.961928 -0.002937 )
               b(3) = (  0.000000  0.000000  0.831557 )

     PseudoPot. # 1 for Mo read from file:
     ~/pseudo/Mo.pw91-n-van.UPF
     MD5 check sum: Not computed, couldn't open file
     Pseudo is Ultrasoft + core correction, Zval =  6.0
     Generated by new atomic code, or converted to UPF format
     Using radial grid of  965 points,  3 beta functions with:
                l(1) =   1
                l(2) =   2
                l(3) =   2
     Q(r) pseudized with  8 coefficients,  rinner =    1.000   1.000   1.000
                                                       1.200   1.200

     PseudoPot. # 2 for S  read from file:
     ~/pseudo/S.pw91-van_ak.UPF
     MD5 check sum: Not computed, couldn't open file
     Pseudo is Ultrasoft, Zval =  6.0
     Generated by new atomic code, or converted to UPF format
     Using radial grid of  811 points,  6 beta functions with:
                l(1) =   0
                l(2) =   0
                l(3) =   1
                l(4) =   1
                l(5) =   2
                l(6) =   2
     Q(r) pseudized with  8 coefficients,  rinner =    1.100   1.100   1.100
                                                       1.100   1.100

     atomic species   valence    mass     pseudopotential
        Mo             6.00    95.50000     Mo( 1.00)
        S              6.00    32.06500     S ( 1.00)

     No symmetry found

   Cartesian axes

     site n.     atom                  positions (alat units)
         1           Mo  tau(   1) = (   0.1602533   0.6279202   0.4476523  )
         2           Mo  tau(   2) = (   0.3802211   0.8618982   0.4520771  )
         3           Mo  tau(   3) = (   0.1622512   0.8480486   0.2481033  )
         4           Mo  tau(   4) = (   0.3883646   0.6340773   0.2418856  )
         5           Mo  tau(   5) = (   0.6676503   0.6753162   0.9951976  )
         6           Mo  tau(   6) = (   0.8597249   0.0047706   0.9117258  )
         7           Mo  tau(   7) = (   0.6430691   0.8796168   0.7676156  )
         8           Mo  tau(   8) = (   0.8634949   0.6328152   0.7604843  )
         9           Mo  tau(   9) = (   0.1485729   0.1573044   0.9574372  )
        10           Mo  tau(  10) = (   0.4036812   0.3204282   0.9478799  )
        11           Mo  tau(  11) = (   0.1686984   0.3530995   0.7456084  )
        12           Mo  tau(  12) = (   0.3879973   0.1124525   0.7590678  )
        13           Mo  tau(  13) = (   0.6635814   0.1383266   0.4760319  )
        14           Mo  tau(  14) = (   0.6465673   0.3694559   0.2641826  )
        15           Mo  tau(  15) = (   0.8598381   0.1404129   0.2548054  )
        16           Mo  tau(  16) = (   0.8870287   0.3560412   0.4559038  )
        17           S   tau(  17) = (   0.1307248   0.8801452   0.4877351  )
        18           S   tau(  18) = (   0.1383630   0.1036393   0.7181274  )
        19           S   tau(  19) = (   0.4075228   0.6177109   0.4916382  )
        20           S   tau(  20) = (   0.4730934   0.6517688   1.1643511  )
        21           S   tau(  21) = (   1.0298817   0.9863424   1.0595787  )
        22           S   tau(  22) = (   0.3846767   0.8899451   0.7302366  )
        23           S   tau(  23) = (   0.1402712   0.6134790   0.7160232  )
        24           S   tau(  24) = (   0.4168576   0.3606335   0.7091743  )
        25           S   tau(  25) = (   0.6530351   0.9243564   1.0168823  )
        26           S   tau(  26) = (   0.9129766   0.1029829   0.4901738  )
        27           S   tau(  27) = (   0.9086215   0.6435233   1.0052125  )
        28           S   tau(  28) = (   0.9001229   0.6151012   0.4921943  )
        29           S   tau(  29) = (   0.6318713   0.9070353   0.5027264  )
        30           S   tau(  30) = (   0.9174644   0.9327625   0.1816635  )
        31           S   tau(  31) = (   0.6472069   0.6231395   0.2094928  )
        32           S   tau(  32) = (   0.8888723   0.3765073   0.1958888  )
        33           S   tau(  33) = (   0.1808966   0.4057485   0.9989625  )
        34           S   tau(  34) = (   0.1391256   0.6104307   0.1931992  )
        35           S   tau(  35) = (   0.3895449   0.0870498   1.0119734  )
        36           S   tau(  36) = (   0.4112598   0.0831695   0.4944800  )
        37           S   tau(  37) = (   0.1486517   0.3686283   0.4789447  )
        38           S   tau(  38) = (   0.4003836   0.3776804   0.1903391  )
        39           S   tau(  39) = (   0.0937767   0.0488759   0.1667070  )
        40           S   tau(  40) = (   0.3997682   0.8862457   0.2011122  )
        41           S   tau(  41) = (   0.6194719   0.1199916   0.2220655  )
        42           S   tau(  42) = (   0.6158817   0.6275969   0.7640670  )
        43           S   tau(  43) = (   0.6417932   0.3874603   0.5042973  )
        44           S   tau(  44) = (   0.8997249   0.2413014   0.9810231  )
        45           S   tau(  45) = (   0.5997743   0.4298812   1.0564693  )
        46           S   tau(  46) = (   0.9080861   0.3810901   0.7175834  )
        47           S   tau(  47) = (   0.6554389   0.1070472   0.7417131  )
        48           S   tau(  48) = (   0.8949345   0.8827771   0.7296395  )

     number of k points=     8  Marzari-Vanderbilt smearing, width (Ry)=  0.0200
                       cart. coord. in units 2pi/alat
        k(    1) = (   0.0000000   0.0000000   0.0000000), wk =   0.2500000
        k(    2) = (   0.0000000   0.0000000  -0.4157786), wk =   0.2500000
        k(    3) = (   0.0000000  -0.4809642   0.0014686), wk =   0.2500000
        k(    4) = (   0.0000000  -0.4809642  -0.4143100), wk =   0.2500000
        k(    5) = (  -0.5000000  -0.0108385   0.0259059), wk =   0.2500000
        k(    6) = (  -0.5000000  -0.0108385  -0.3898727), wk =   0.2500000
        k(    7) = (  -0.5000000  -0.4918027   0.0273744), wk =   0.2500000
        k(    8) = (  -0.5000000  -0.4918027  -0.3884041), wk =   0.2500000

     Initial potential from superposition of free atoms

     starting charge  287.97477, renormalised to  288.00000
     Starting wfcs are  272 randomized atomic wfcs

     Self-consistent Calculation

     iteration #  1     ecut=    45.00 Ry     beta= 0.70
     Davidson diagonalization with overlap
     ethr =  1.00E-02,  avg # of iterations =  2.0

     total energy              =   -1123.90167821 Ry
     Harris-Foulkes estimate   =   -1127.88067684 Ry
     estimated scf accuracy    <      10.50054991 Ry

[...]

     iteration #  7     ecut=    45.00 Ry     beta= 0.70
     Davidson diagonalization with overlap
     c_bands:  1 eigenvalues not converged
     ethr =  9.18E-06,  avg # of iterations = 11.6

[...]

     total energy              =   -1125.95727714 Ry
     Harris-Foulkes estimate   =   -1125.95727728 Ry
     estimated scf accuracy    <       0.00000143 Ry

     iteration # 15     ecut=    45.00 Ry     beta= 0.70
     Davidson diagonalization with overlap
     ethr =  4.96E-10,  avg # of iterations =  1.0

     End of self-consistent calculation

          k = 0.0000 0.0000 0.0000 ( 37187 PWs)   bands (ev):

    -9.6737  -8.3727  -7.8242  -7.7393  -7.6877  -7.5614  -7.5494  -7.5176
    -7.3745  -7.3303  -7.2825  -7.2415  -7.2239  -7.2043  -7.1428  -7.1290
    -7.0888  -7.0368  -6.9807  -6.7439  -6.6980  -6.6071  -6.4571  -6.3316
    -6.2147  -6.1773  -6.1602  -6.1352  -5.9756  -5.9496  -5.8223  -5.3246
    -0.3115  -0.1754  -0.0456   0.0058   0.0647   0.1530   0.2091   0.4372
     0.4730   0.5331   0.5881   0.6443   0.7185   0.7796   0.8016   0.8505
     0.8778   0.9140   1.0043   1.0146   1.0339   1.1157   1.1761   1.1867
     1.2307   1.3649   1.4249   1.4844   1.5424   1.5647   1.5808   1.6364
     1.7070   1.7333   1.7586   1.7831   1.7978   1.8322   1.8804   1.8872
     1.9229   1.9478   2.0141   2.0284   2.0601   2.0834   2.0988   2.1323
     2.1639   2.2168   2.2215   2.2714   2.2836   2.3258   2.3941   2.4127
     2.4256   2.4967   2.5454   2.5703   2.6431   2.6669   2.6978   2.7439
     2.8166   2.8469   2.8996   3.0381   3.0682   3.0810   3.1857   3.2375
     3.3073   3.3929   3.4021   3.4606   3.5026   3.5337   3.6090   3.6798
     3.7498   3.8859   3.9323   3.9477   4.0488   4.1402   4.1533   4.2607
     4.2982   4.3499   4.4558   4.4753   4.5345   4.6511   4.7015   4.7210
     4.7728   4.8219   4.8982   4.9665   5.0115   5.1591   5.2173   5.2600
     5.2929   5.3398   5.3715   5.4426   5.5140   5.5752   5.6013   5.6992
     5.7460   5.8002   5.8688   5.8943   6.0182   6.1263   6.1825   6.2044
     6.5245   6.6228   6.7179   6.7844   6.9682   6.9855   7.0014   7.0856
     7.2139   7.2321   7.3198   7.3304   7.3791   7.4995   7.5099   7.5611
     7.5723   7.6185   7.7166   7.7707   7.8276

[...]

          k = 0.0000-0.4810-0.4143 ( 37260 PWs)   bands (ev):

[...]

          k =-0.5000-0.0108 0.0259 ( 37206 PWs)   bands (ev):

[...]

          k =-0.5000-0.4918-0.3884 ( 37246 PWs)   bands (ev):

    -9.6719  -8.0602  -7.9768  -7.9091  -7.8550  -7.6427  -7.5066  -7.4641
    -7.3768  -7.3519  -7.2961  -7.2535  -7.2291  -7.1807  -7.1746  -7.1504
    -7.0477  -7.0126  -6.8670  -6.7611  -6.6376  -6.5946  -6.4633  -6.3336
    -6.2271  -6.1899  -6.1311  -6.0950  -5.9799  -5.9474  -5.8260  -5.3251
    -0.0924  -0.0290   0.1084   0.1252   0.2079   0.3096   0.3930   0.4457
     0.4747   0.5229   0.5779   0.6168   0.6471   0.6517   0.7623   0.7734
     0.8240   0.8580   0.8846   0.9711   0.9868   1.0864   1.1095   1.1663
     1.2264   1.2618   1.2722   1.3309   1.3630   1.3920   1.4513   1.5136
     1.5658   1.5970   1.6389   1.6857   1.7325   1.7690   1.8173   1.8541
     1.8789   1.9228   1.9450   1.9719   2.0284   2.0440   2.0716   2.1033
     2.1132   2.1543   2.2220   2.2702   2.2895   2.3459   2.4124   2.4380
     2.4693   2.5313   2.5491   2.6430   2.7011   2.7342   2.7687   2.8426
     2.8910   2.9592   3.0166   3.0736   3.1563   3.1871   3.2698   3.3243
     3.3882   3.4523   3.5023   3.5168   3.6083   3.6749   3.7009   3.7897
     3.8478   3.9743   3.9963   4.0125   4.0850   4.1169   4.2304   4.2460
     4.2876   4.3524   4.4169   4.5618   4.5702   4.6858   4.7290   4.7874
     4.8236   4.9220   4.9346   4.9459   5.0163   5.1200   5.1589   5.1838
     5.2167   5.2872   5.3191   5.4325   5.4988   5.5449   5.6064   5.6274
     5.7673   5.7920   5.8228   5.8938   5.9591   5.9996   6.0502   6.3180
     6.5155   6.5831   6.7184   6.7275   6.8587   6.9279   7.0149   7.1443
     7.1691   7.2362   7.2665   7.3142   7.3758   7.4444   7.5009   7.5425
     7.6387   7.7001   7.7103   7.7782   7.8436

     the Fermi energy is     5.7122 ev

!    total energy              =   -1125.95727692 Ry
     Harris-Foulkes estimate   =   -1125.95727720 Ry
     estimated scf accuracy    <       0.00000035 Ry

     The total energy is the sum of the following terms:

     one-electron contribution =    -195.32066421 Ry
     hartree contribution      =     252.57244153 Ry
     xc contribution           =    -444.44309581 Ry
     ewald contribution        =    -738.76666351 Ry
     smearing contrib. (-TS)   =       0.00070509 Ry

     convergence has been achieved in  15 iterations

     Forces acting on atoms (cartesian axes, Ry/au):

     atom    1 type  1   force =    -0.01008124    0.01189723    0.01249096
     atom    2 type  1   force =    -0.02440004   -0.00399675    0.02667049
     atom    3 type  1   force =    -0.01830381    0.01997364    0.01912890
     atom    4 type  1   force =     0.03251601   -0.03273647   -0.02972567
     atom    5 type  1   force =     0.01321576   -0.01345728   -0.00179374
     atom    6 type  1   force =     0.05038410    0.03284555    0.02193270
     atom    7 type  1   force =     0.00932215   -0.02640458   -0.01447773
     atom    8 type  1   force =     0.01582106    0.02901521    0.01959995
     atom    9 type  1   force =    -0.02161683   -0.00819376    0.02030278
     atom   10 type  1   force =     0.00635365    0.05537971    0.02472180
     atom   11 type  1   force =     0.02318957    0.02644028   -0.01234617
     atom   12 type  1   force =    -0.01856053   -0.02451085   -0.03302775
     atom   13 type  1   force =     0.02381311   -0.01907030   -0.03877219
     atom   14 type  1   force =    -0.06089381    0.05497938   -0.02456734
     atom   15 type  1   force =     0.03071119   -0.02312815    0.02610717
     atom   16 type  1   force =     0.00653180   -0.02448549   -0.01074774
     atom   17 type  2   force =     0.00625840   -0.00218106   -0.00265101
     atom   18 type  2   force =    -0.02096160    0.00526312   -0.00296348
     atom   19 type  2   force =     0.00772592   -0.00336328   -0.00066004
     atom   20 type  2   force =     0.01335940   -0.00978391   -0.00384458
     atom   21 type  2   force =    -0.02574491   -0.01710272   -0.02918180
     atom   22 type  2   force =    -0.00172944    0.00511875   -0.00834673
     atom   23 type  2   force =    -0.00704213   -0.00774136   -0.00132434
     atom   24 type  2   force =     0.01418670   -0.00014776   -0.00500757
     atom   25 type  2   force =    -0.01881523    0.01665045    0.04163133
     atom   26 type  2   force =    -0.00122352    0.00972027    0.00018821
     atom   27 type  2   force =    -0.01148040    0.00305340   -0.01144164
     atom   28 type  2   force =    -0.00745851    0.00965696    0.00120705
     atom   29 type  2   force =     0.00152440   -0.00215567   -0.00700390
     atom   30 type  2   force =    -0.01177836   -0.00774156   -0.00761002
     atom   31 type  2   force =    -0.00340847   -0.03002280    0.01218383
     atom   32 type  2   force =     0.01327276    0.01179422    0.00414774
     atom   33 type  2   force =    -0.01168943    0.00093724    0.00222203
     atom   34 type  2   force =    -0.01001908   -0.01189711   -0.00297864
     atom   35 type  2   force =     0.00908727   -0.02508766    0.01667242
     atom   36 type  2   force =    -0.01145386    0.00912303    0.01259943
     atom   37 type  2   force =     0.00810223   -0.00121478   -0.00400104
     atom   38 type  2   force =     0.02466708    0.00703890    0.02122474
     atom   39 type  2   force =     0.01387569    0.01024708   -0.00252302
     atom   40 type  2   force =     0.01683160    0.01716959   -0.00820701
     atom   41 type  2   force =    -0.00979875   -0.01021390    0.00164208
     atom   42 type  2   force =    -0.02436793   -0.01813545   -0.03299938
     atom   43 type  2   force =    -0.01071808    0.00562474    0.00813651
     atom   44 type  2   force =    -0.00369358   -0.03853004   -0.01450763
     atom   45 type  2   force =    -0.01894701    0.00502842    0.00577145
     atom   46 type  2   force =    -0.00040631    0.00888875    0.01922831
     atom   47 type  2   force =     0.00732833    0.00317624    0.01100417
     atom   48 type  2   force =     0.01651468    0.00228055   -0.01810387

     Total force =     0.225718     Total SCF correction =     0.001059

     General routines

     Parallel routines

   This run was terminated on:  20:43:59  24Dec2021

   JOB DONE.