     Program PWSCF v.6.4 starts on  3Dec2021 at 15:58:15

     R & G space division:  proc/nbgrp/npool/nimage =      40
     Waiting for input...
     Reading input from standard input
Warning: card    &IONS ignored
Warning: card      ION_DYNAMICS = 'BFGS' ignored
Warning: card   / ignored
Warning: card    &CELL ignored
Warning: card      CELL_DYNAMICS = 'BFGS', ignored
Warning: card    / ignored

     Current dimensions of program PWSCF are:
     Max number of different atomic species (ntypx) = 10
     Max number of k-points (npk) =  40000
     Max angular momentum in pseudopotentials (lmaxx) =  3

     bravais-lattice index     =            0
     lattice parameter (alat)  =      14.6165  a.u.
     unit-cell volume          =    6349.9699 (a.u.)^3
     number of atoms/cell      =           33
     number of atomic types    =            2
     number of electrons       =       198.00
     number of Kohn-Sham states=          119
     kinetic-energy cutoff     =      45.0000  Ry
     charge density cutoff     =     360.0000  Ry
     convergence threshold     =      1.0E-06
     mixing beta               =       0.7000
     number of iterations used =            8  local-TF  mixing
     Exchange-correlation      = SLA PW GGX GGC ( 1  4  2  2 0 0)

     celldm(1)=  14.616540  celldm(2)=   0.000000  celldm(3)=   0.000000
     celldm(4)=   0.000000  celldm(5)=   0.000000  celldm(6)=   0.000000

     crystal axes: (cart. coord. in units of alat)
               a(1) = (   1.000000   0.000000   0.000000 )
               a(2) = (  -0.421365   1.430977   0.000000 )
               a(3) = (  -0.038350  -0.882145   1.421037 )

     reciprocal axes: (cart. coord. in units 2 pi/alat)
               b(1) = (  1.000000  0.294460  0.209781 )
               b(2) = (  0.000000  0.698823  0.433813 )
               b(3) = (  0.000000  0.000000  0.703712 )

     PseudoPot. # 1 for Mo read from file:
     ~/pseudo/Mo.pw91-n-van.UPF
     MD5 check sum: Not computed, couldn't open file
     Pseudo is Ultrasoft + core correction, Zval =  6.0
     Generated by new atomic code, or converted to UPF format
     Using radial grid of  965 points,  3 beta functions with:
                l(1) =   1
                l(2) =   2
                l(3) =   2
     Q(r) pseudized with  8 coefficients,  rinner =    1.000   1.000   1.000
                                                       1.200   1.200

     PseudoPot. # 2 for S  read from file:
     ~/pseudo/S.pw91-van_ak.UPF
     MD5 check sum: Not computed, couldn't open file
     Pseudo is Ultrasoft, Zval =  6.0
     Generated by new atomic code, or converted to UPF format
     Using radial grid of  811 points,  6 beta functions with:
                l(1) =   0
                l(2) =   0
                l(3) =   1
                l(4) =   1
                l(5) =   2
                l(6) =   2
     Q(r) pseudized with  8 coefficients,  rinner =    1.100   1.100   1.100
                                                       1.100   1.100

     atomic species   valence    mass     pseudopotential
        Mo             6.00    95.50000     Mo( 1.00)
        S              6.00    32.06500     S ( 1.00)

     No symmetry found

   Cartesian axes

     site n.     atom                  positions (alat units)
         1           Mo  tau(   1) = (   0.2975036   0.4884467   0.3677253  )
         2           Mo  tau(   2) = (   0.6065611   0.7260316   0.6355455  )
         3           Mo  tau(   3) = (  -0.0513858   0.0635328   0.5739233  )
         4           Mo  tau(   4) = (   0.2316928   0.1497166   0.7655817  )
         5           Mo  tau(   5) = (   0.0741643   0.2537676   0.2583140  )
         6           Mo  tau(   6) = (   0.6793013  -0.1114391   0.7971351  )
         7           Mo  tau(   7) = (   0.2871373   0.5403378   0.7419391  )
         8           Mo  tau(   8) = (  -0.0021531   0.6465891   0.5637049  )
         9           Mo  tau(   9) = (   0.3783813   0.9413265   0.7943232  )
        10           Mo  tau(  10) = (   0.3614091   0.3288220   0.0197569  )
        11           Mo  tau(  11) = (   0.0342189  -0.1786144   0.8285303  )
        12           S   tau(  12) = (   0.1031041   0.7809740   0.8469473  )
        13           S   tau(  13) = (   0.2952506   0.7622519   0.5231406  )
        14           S   tau(  14) = (   0.5312366   0.4274342   0.5754367  )
        15           S   tau(  15) = (  -0.1929279   0.8616312   0.4444781  )
        16           S   tau(  16) = (   0.1242504  -0.4796264   0.8366864  )
        17           S   tau(  17) = (   0.2444571  -0.0326642   1.0231868  )
        18           S   tau(  18) = (   0.8324483  -0.2550788   0.5775181  )
        19           S   tau(  19) = (   0.4257652  -0.2167875   0.9362902  )
        20           S   tau(  20) = (   0.0089042   0.5612842   0.2460307  )
        21           S   tau(  21) = (   0.8061169  -0.2896323   1.0354166  )
        22           S   tau(  22) = (   0.0478133  -0.6054351   1.3621202  )
        23           S   tau(  23) = (   0.4063155   0.6102423   0.0989118  )
        24           S   tau(  24) = (  -0.1005525   0.1084437   0.8719635  )
        25           S   tau(  25) = (   0.8135578   0.0995478   0.2978714  )
        26           S   tau(  26) = (   0.2037391  -0.0973374   0.5761770  )
        27           S   tau(  27) = (   0.5292329   0.1282898   0.6799325  )
        28           S   tau(  28) = (   0.1768622   0.3741298   0.9788819  )
        29           S   tau(  29) = (   0.4801257   0.6777317   0.9416385  )
        30           S   tau(  30) = (   0.0940382   0.3477165   0.5616108  )
        31           S   tau(  31) = (  -0.1773952   0.5658396   0.7960782  )
        32           S   tau(  32) = (   0.3754890   0.1802117   0.2843588  )
        33           S   tau(  33) = (   0.5218485  -0.6449708   1.2693447  )

     number of k points=     8  Marzari-Vanderbilt smearing, width (Ry)=  0.0200
                       cart. coord. in units 2pi/alat
        k(    1) = (   0.0000000   0.0000000   0.0000000), wk =   0.2500000
        k(    2) = (   0.0000000   0.0000000  -0.3518558), wk =   0.2500000
        k(    3) = (   0.0000000  -0.3494117  -0.2169063), wk =   0.2500000
        k(    4) = (   0.0000000  -0.3494117  -0.5687621), wk =   0.2500000
        k(    5) = (  -0.5000000  -0.1472300  -0.1048905), wk =   0.2500000
        k(    6) = (  -0.5000000  -0.1472300  -0.4567463), wk =   0.2500000
        k(    7) = (  -0.5000000  -0.4966416  -0.3217968), wk =   0.2500000
        k(    8) = (  -0.5000000  -0.4966416  -0.6736526), wk =   0.2500000

     Initial potential from superposition of free atoms

     starting charge  197.98265, renormalised to  198.00000
     Starting wfcs are  187 randomized atomic wfcs

     Self-consistent Calculation

     iteration #  1     ecut=    45.00 Ry     beta= 0.70
     Davidson diagonalization with overlap
     ethr =  1.00E-02,  avg # of iterations =  2.0

     total energy              =    -772.40990628 Ry
     Harris-Foulkes estimate   =    -774.87750762 Ry
     estimated scf accuracy    <       6.68982938 Ry

[...]

     iteration #  7     ecut=    45.00 Ry     beta= 0.70
     Davidson diagonalization with overlap
     c_bands:  1 eigenvalues not converged
     ethr =  8.50E-06,  avg # of iterations = 14.6

[...]

     negative rho (up, down):  4.580E-07 0.000E+00

[...]

     total energy              =    -773.69649327 Ry
     Harris-Foulkes estimate   =    -773.69649312 Ry
     estimated scf accuracy    <       0.00000211 Ry

     iteration # 15     ecut=    45.00 Ry     beta= 0.70
     Davidson diagonalization with overlap
     ethr =  1.07E-09,  avg # of iterations =  2.2

[...]

     End of self-consistent calculation

          k = 0.0000 0.0000 0.0000 ( 32377 PWs)   bands (ev):

   -11.7631 -11.5417 -10.9744 -10.5274 -10.2375 -10.0392  -9.9814  -9.7473
    -9.5461  -9.4428  -9.2974  -9.1437  -9.0314  -8.9205  -8.8503  -8.8317
    -8.7300  -8.7066  -8.6687  -8.6170  -8.1287  -7.9022  -3.5029  -3.1670
    -2.8518  -2.8100  -2.6868  -2.3605  -2.2849  -2.1930  -2.0642  -1.9198
    -1.7950  -1.6595  -1.5804  -1.5170  -1.4196  -1.3477  -1.3291  -1.1583
    -1.0886  -1.0257  -1.0002  -0.9779  -0.8488  -0.7259  -0.6853  -0.6437
    -0.5990  -0.5012  -0.3984  -0.3662  -0.3240  -0.2408  -0.1616  -0.0988
    -0.0420   0.0097   0.0971   0.1448   0.1824   0.2403   0.2918   0.3371
     0.4369   0.4673   0.5402   0.6265   0.7357   0.7870   0.8811   0.9361
     1.0654   1.1078   1.2277   1.3346   1.3826   1.4029   1.5339   1.5803
     1.6729   1.8290   1.9209   1.9405   2.0417   2.0651   2.2041   2.4165
     2.4801   2.5989   2.6486   2.8177   2.8749   3.0190   3.0819   3.1240
     3.2195   3.3415   3.4066   3.4893   3.5650   3.6268   3.8114   3.8301
     3.9226   4.1081   4.3042   4.5313   4.5754   4.7346   4.7717   4.8381
     4.9720   5.0183   5.0457   5.1052   5.1782   5.2480   5.2837

[...]

          k = 0.0000-0.3494-0.5688 ( 32408 PWs)   bands (ev):

[...]

          k =-0.5000-0.1472-0.1049 ( 32362 PWs)   bands (ev):

[...]

          k =-0.5000-0.4966-0.6737 ( 32366 PWs)   bands (ev):

   -11.7041 -11.5342 -10.9246 -10.5835 -10.3072 -10.0032  -9.9453  -9.7327
    -9.6111  -9.5520  -9.4246  -9.1456  -8.9623  -8.9515  -8.8792  -8.8371
    -8.7569  -8.6983  -8.6239  -8.4824  -8.1387  -7.8233  -3.5205  -3.1561
    -2.9536  -2.7653  -2.6691  -2.5815  -2.3965  -2.1127  -1.9337  -1.8976
    -1.8260  -1.7576  -1.5823  -1.5237  -1.3543  -1.3250  -1.2261  -1.1395
    -1.1263  -1.0134  -0.9685  -0.8589  -0.7996  -0.7131  -0.6944  -0.5990
    -0.5118  -0.4373  -0.4010  -0.3477  -0.2788  -0.2017  -0.1075  -0.0685
    -0.0048   0.0300   0.0593   0.1289   0.1861   0.2731   0.2898   0.3516
     0.4171   0.4625   0.6681   0.6870   0.7282   0.8081   0.8561   0.9099
     0.9523   1.0068   1.1105   1.1814   1.4037   1.4247   1.5625   1.6704
     1.7508   1.8498   1.8740   1.8873   2.0080   2.1201   2.1846   2.2842
     2.4475   2.4775   2.5868   2.6514   2.7659   2.9436   3.0358   3.1567
     3.2963   3.3741   3.4245   3.4890   3.6316   3.7124   3.7927   3.8750
     3.9967   4.0399   4.2666   4.3636   4.5559   4.6346   4.7412   4.8625
     4.8900   4.9934   5.0261   5.1366   5.1920   5.2613   5.3021

     the Fermi energy is     3.4737 ev

!    total energy              =    -773.69649308 Ry
     Harris-Foulkes estimate   =    -773.69649351 Ry
     estimated scf accuracy    <       0.00000091 Ry

     The total energy is the sum of the following terms:

     one-electron contribution =    -671.14819850 Ry
     hartree contribution      =     424.45137486 Ry
     xc contribution           =    -305.95958857 Ry
     ewald contribution        =    -221.03528199 Ry
     smearing contrib. (-TS)   =      -0.00479888 Ry

     convergence has been achieved in  15 iterations

     negative rho (up, down):  2.716E-06 0.000E+00

     Forces acting on atoms (cartesian axes, Ry/au):

     atom    1 type  1   force =     0.06941488    0.00247028   -0.03022794
     atom    2 type  1   force =     0.06365016   -0.00142623   -0.00244585
     atom    3 type  1   force =    -0.04079120   -0.02963827   -0.05329725
     atom    4 type  1   force =     0.03110993    0.01919780    0.04975454
     atom    5 type  1   force =    -0.04662145   -0.00362665   -0.09631866
     atom    6 type  1   force =     0.03265823    0.01799660    0.02555602
     atom    7 type  1   force =     0.01222919   -0.04109749    0.05816513
     atom    8 type  1   force =    -0.02759131   -0.00580787   -0.00382559
     atom    9 type  1   force =     0.01088540   -0.01222333    0.00188090
     atom   10 type  1   force =     0.01920871   -0.00453394    0.05336993
     atom   11 type  1   force =    -0.00315205    0.03025294   -0.01483580
     atom   12 type  2   force =    -0.00252977    0.02631513    0.01475873
     atom   13 type  2   force =     0.01117701    0.07263856   -0.04037248
     atom   14 type  2   force =     0.00109248    0.03843137   -0.00772857
     atom   15 type  2   force =    -0.02802599   -0.01243228    0.00961844
     atom   16 type  2   force =    -0.01633032    0.01113185    0.02428286
     atom   17 type  2   force =     0.01416386   -0.02505091   -0.00230757
     atom   18 type  2   force =    -0.02014748    0.01673240   -0.00844190
     atom   19 type  2   force =     0.00716232   -0.01210594    0.02152279
     atom   20 type  2   force =    -0.01678602   -0.01741796    0.02164582
     atom   21 type  2   force =     0.00002093    0.00860727   -0.01398731
     atom   22 type  2   force =    -0.03739537   -0.00180953    0.00260997
     atom   23 type  2   force =    -0.00304566    0.01239959    0.00088978
     atom   24 type  2   force =    -0.04724924   -0.00103161    0.03495018
     atom   25 type  2   force =     0.02167340   -0.00111555    0.00316610
     atom   26 type  2   force =     0.02746340   -0.02762945   -0.02737437
     atom   27 type  2   force =    -0.03208561   -0.04717445    0.02544204
     atom   28 type  2   force =     0.02204530    0.00643085   -0.01977920
     atom   29 type  2   force =    -0.00163427    0.00728413   -0.00912614
     atom   30 type  2   force =    -0.04082521   -0.01736130    0.01732040
     atom   31 type  2   force =     0.00695624   -0.00819820   -0.01550541
     atom   32 type  2   force =     0.00051055    0.01326004   -0.00731835
     atom   33 type  2   force =     0.01278898   -0.01346787   -0.01204123

     Total force =     0.272651     Total SCF correction =     0.001916

     General routines

     Parallel routines

   This run was terminated on:  16: 0:30   3Dec2021

   JOB DONE.