     Program PWSCF v.6.4 starts on 10Nov2021 at 18:23:31

     R & G space division:  proc/nbgrp/npool/nimage =      40
     Waiting for input...
     Reading input from standard input
Warning: card    &IONS ignored
Warning: card      ION_DYNAMICS = 'BFGS' ignored
Warning: card   / ignored
Warning: card    &CELL ignored
Warning: card      CELL_DYNAMICS = 'BFGS', ignored
Warning: card    / ignored

     Current dimensions of program PWSCF are:
     Max number of different atomic species (ntypx) = 10
     Max number of k-points (npk) =  40000
     Max angular momentum in pseudopotentials (lmaxx) =  3

     bravais-lattice index     =            0
     lattice parameter (alat)  =       6.1250  a.u.
     unit-cell volume          =    2506.4971 (a.u.)^3
     number of atoms/cell      =           12
     number of atomic types    =            2
     number of electrons       =        72.00
     number of Kohn-Sham states=           43
     kinetic-energy cutoff     =      45.0000  Ry
     charge density cutoff     =     360.0000  Ry
     convergence threshold     =      1.0E-06
     mixing beta               =       0.7000
     number of iterations used =            8  local-TF  mixing
     Exchange-correlation      = SLA PW GGX GGC ( 1  4  2  2 0 0)

     celldm(1)=   6.125009  celldm(2)=   0.000000  celldm(3)=   0.000000
     celldm(4)=   0.000000  celldm(5)=   0.000000  celldm(6)=   0.000000

     crystal axes: (cart. coord. in units of alat)
               a(1) = (   1.000000   0.000000   0.000000 )
               a(2) = (  -0.504726   0.857732   0.000000 )
               a(3) = (  -0.205772  -0.360001  12.717316 )

     reciprocal axes: (cart. coord. in units 2 pi/alat)
               b(1) = (  1.000000  0.588442  0.032838 )
               b(2) = (  0.000000  1.165865  0.033003 )
               b(3) = (  0.000000  0.000000  0.078633 )

     PseudoPot. # 1 for Mo read from file:
     ~/pseudo/Mo.pw91-n-van.UPF
     MD5 check sum: Not computed, couldn't open file
     Pseudo is Ultrasoft + core correction, Zval =  6.0
     Generated by new atomic code, or converted to UPF format
     Using radial grid of  965 points,  3 beta functions with:
                l(1) =   1
                l(2) =   2
                l(3) =   2
     Q(r) pseudized with  8 coefficients,  rinner =    1.000   1.000   1.000
                                                       1.200   1.200

     PseudoPot. # 2 for S  read from file:
     ~/pseudo/S.pw91-van_ak.UPF
     MD5 check sum: Not computed, couldn't open file
     Pseudo is Ultrasoft, Zval =  6.0
     Generated by new atomic code, or converted to UPF format
     Using radial grid of  811 points,  6 beta functions with:
                l(1) =   0
                l(2) =   0
                l(3) =   1
                l(4) =   1
                l(5) =   2
                l(6) =   2
     Q(r) pseudized with  8 coefficients,  rinner =    1.100   1.100   1.100
                                                       1.100   1.100

     atomic species   valence    mass     pseudopotential
        Mo             6.00    95.50000     Mo( 1.00)
        S              6.00    32.06500     S ( 1.00)

     No symmetry found

   Cartesian axes

     site n.     atom                  positions (alat units)
         1           Mo  tau(   1) = (   0.7834696   0.2177791   1.3987511  )
         2           Mo  tau(   2) = (   0.2561865   0.4609231   8.7192043  )
         3           Mo  tau(   3) = (   0.2494946   0.3310584   3.5773090  )
         4           Mo  tau(   4) = (   0.2898116  -0.0142707  11.7393459  )
         5           S   tau(   5) = (  -0.2202151   0.7885910   0.9144576  )
         6           S   tau(   6) = (  -0.2376738   0.1814032   8.2316493  )
         7           S   tau(   7) = (  -0.2519599   0.6169326   3.0899348  )
         8           S   tau(   8) = (  -0.2159639   0.2729011  11.2524254  )
         9           S   tau(   9) = (   0.2847348  -0.0654270   1.8854058  )
        10           S   tau(  10) = (  -0.2474130   0.1698426   9.2067536  )
        11           S   tau(  11) = (  -0.2516156   0.6154897   4.0625558  )
        12           S   tau(  12) = (  -0.2068519   0.2690645  12.2260951  )

     number of k points=    20  Marzari-Vanderbilt smearing, width (Ry)=  0.0200
                       cart. coord. in units 2pi/alat
        k(    1) = (   0.0000000   0.0000000   0.0000000), wk =   0.0555556
        k(    2) = (   0.0000000   0.1943109   0.0055005), wk =   0.1111111
        k(    3) = (   0.0000000   0.3886217   0.0110011), wk =   0.1111111
        k(    4) = (   0.0000000  -0.5829326  -0.0165016), wk =   0.0555556
        k(    5) = (   0.1666667   0.0980737   0.0054730), wk =   0.1111111
        k(    6) = (   0.1666667   0.2923845   0.0109735), wk =   0.1111111
        k(    7) = (   0.1666667   0.4866954   0.0164741), wk =   0.1111111
        k(    8) = (   0.1666667  -0.4848589  -0.0110286), wk =   0.1111111
        k(    9) = (   0.1666667  -0.2905481  -0.0055281), wk =   0.1111111
        k(   10) = (   0.1666667  -0.0962372  -0.0000275), wk =   0.1111111
        k(   11) = (   0.3333333   0.1961473   0.0109460), wk =   0.1111111
        k(   12) = (   0.3333333   0.3904582   0.0164466), wk =   0.1111111
        k(   13) = (   0.3333333   0.5847691   0.0219471), wk =   0.1111111
        k(   14) = (   0.3333333  -0.3867853  -0.0055556), wk =   0.1111111
        k(   15) = (   0.3333333  -0.1924744  -0.0000551), wk =   0.1111111
        k(   16) = (   0.3333333   0.0018365   0.0054455), wk =   0.1111111
        k(   17) = (  -0.5000000  -0.2942210  -0.0164190), wk =   0.0555556
        k(   18) = (  -0.5000000  -0.0999102  -0.0109185), wk =   0.1111111
        k(   19) = (  -0.5000000   0.0944007  -0.0054179), wk =   0.1111111
        k(   20) = (  -0.5000000  -0.8771536  -0.0329206), wk =   0.0555556

     Initial potential from superposition of free atoms

     starting charge   71.99369, renormalised to   72.00000

     negative rho (up, down):  1.681E-04 0.000E+00
     Starting wfcs are   68 randomized atomic wfcs

     Self-consistent Calculation

     iteration #  1     ecut=    45.00 Ry     beta= 0.70
     Davidson diagonalization with overlap
     ethr =  1.00E-02,  avg # of iterations =  2.0

     negative rho (up, down):  9.608E-06 0.000E+00

     total energy              =    -281.39690135 Ry
     Harris-Foulkes estimate   =    -282.28827797 Ry
     estimated scf accuracy    <       2.28294692 Ry

[...]

     total energy              =    -281.84543399 Ry
     Harris-Foulkes estimate   =    -281.84543444 Ry
     estimated scf accuracy    <       0.00000163 Ry

     iteration # 18     ecut=    45.00 Ry     beta= 0.70
     Davidson diagonalization with overlap
     ethr =  2.26E-09,  avg # of iterations =  2.0

[...]

     End of self-consistent calculation

          k = 0.0000 0.0000 0.0000 ( 12919 PWs)   bands (ev):

   -11.8066 -11.7755 -11.7446 -11.7194 -10.6094 -10.5674 -10.5505 -10.5335
    -3.3543  -3.2309  -3.2000  -3.1834  -0.4924  -0.4669  -0.4316  -0.4023
    -0.3809  -0.3541  -0.3173  -0.2915   0.2727   0.5409   0.5724   0.6447
     0.6697   0.7050   0.7087   0.7281   0.7353   0.7652   0.7905   0.8003
     2.0608   2.2127   2.2296   2.3674   4.8240   4.8418   4.8596   4.8693
     4.8850   4.9211   4.9229

[...]

          k = 0.3333 0.0018 0.0054 ( 12815 PWs)   bands (ev):

[...]

          k =-0.5000-0.2942-0.0164 ( 12686 PWs)   bands (ev):

[...]

          k =-0.5000-0.8772-0.0329 ( 12694 PWs)   bands (ev):

   -10.1171 -10.0898 -10.0571 -10.0320  -9.8372  -9.8094  -9.7826  -9.7611
    -3.4408  -3.4119  -3.3811  -3.3583  -2.4668  -2.4502  -2.4185  -2.3984
    -1.8613  -1.7701  -1.7510  -1.7421  -0.8764  -0.8540  -0.8177  -0.7896
     0.2606   0.3699   0.3838   0.4175   1.2572   1.2776   1.3124   1.3381
     1.4741   1.5473   1.5546   1.5657   4.1598   4.1728   4.1998   4.2166
     4.6560   4.6926   4.7159

     the Fermi energy is     2.2977 ev

!    total energy              =    -281.84543400 Ry
     Harris-Foulkes estimate   =    -281.84543414 Ry
     estimated scf accuracy    <       0.00000051 Ry

     The total energy is the sum of the following terms:

     one-electron contribution =   -1582.12148868 Ry
     hartree contribution      =     821.27543060 Ry
     xc contribution           =    -111.33723880 Ry
     ewald contribution        =     590.33071631 Ry
     smearing contrib. (-TS)   =       0.00714657 Ry

     convergence has been achieved in  18 iterations

     negative rho (up, down):  2.401E-04 0.000E+00

     Forces acting on atoms (cartesian axes, Ry/au):

     atom    1 type  1   force =     0.00001415   -0.00048511    0.00588312
     atom    2 type  1   force =     0.00113512   -0.00103379   -0.00056792
     atom    3 type  1   force =    -0.00098667    0.00039384   -0.00464581
     atom    4 type  1   force =    -0.00003029    0.00110634   -0.00037350
     atom    5 type  2   force =    -0.00019531    0.00239531   -0.00383557
     atom    6 type  2   force =    -0.00596440   -0.00607991    0.00297431
     atom    7 type  2   force =     0.00027971   -0.00151865    0.00350010
     atom    8 type  2   force =     0.00517163   -0.00276866    0.00139329
     atom    9 type  2   force =    -0.00018472   -0.00152990   -0.00174222
     atom   10 type  2   force =     0.00554013    0.00742298   -0.00293635
     atom   11 type  2   force =    -0.00032037    0.00059946    0.00175898
     atom   12 type  2   force =    -0.00445899    0.00149807   -0.00140841

     Total force =     0.018492     Total SCF correction =     0.001944
     SCF correction compared to forces is large: reduce conv_thr to get better values

     General routines

     Parallel routines

   This run was terminated on:  18:24:27  10Nov2021

   JOB DONE.