     Program PWSCF v.6.4 starts on 24Dec2021 at 20:57:24

     R & G space division:  proc/nbgrp/npool/nimage =      40
     Waiting for input...
     Reading input from standard input
Warning: card    &IONS ignored
Warning: card      ION_DYNAMICS = 'BFGS' ignored
Warning: card   / ignored
Warning: card    &CELL ignored
Warning: card      CELL_DYNAMICS = 'BFGS', ignored
Warning: card    / ignored

     Current dimensions of program PWSCF are:
     Max number of different atomic species (ntypx) = 10
     Max number of k-points (npk) =  40000
     Max angular momentum in pseudopotentials (lmaxx) =  3

     bravais-lattice index     =            0
     lattice parameter (alat)  =      18.4270  a.u.
     unit-cell volume          =    6268.8273 (a.u.)^3
     number of atoms/cell      =           42
     number of atomic types    =            2
     number of electrons       =       252.00
     number of Kohn-Sham states=          151
     kinetic-energy cutoff     =      45.0000  Ry
     charge density cutoff     =     360.0000  Ry
     convergence threshold     =      1.0E-06
     mixing beta               =       0.7000
     number of iterations used =            8  local-TF  mixing
     Exchange-correlation      = SLA PW GGX GGC ( 1  4  2  2 0 0)

     celldm(1)=  18.426997  celldm(2)=   0.000000  celldm(3)=   0.000000
     celldm(4)=   0.000000  celldm(5)=   0.000000  celldm(6)=   0.000000

     crystal axes: (cart. coord. in units of alat)
               a(1) = (   1.000000   0.000000   0.000000 )
               a(2) = (   0.035913   0.997918   0.000000 )
               a(3) = (   0.007949   0.013552   1.003987 )

     reciprocal axes: (cart. coord. in units 2 pi/alat)
               b(1) = (  1.000000 -0.035987 -0.007432 )
               b(2) = (  0.000000  1.002087 -0.013526 )
               b(3) = (  0.000000  0.000000  0.996029 )

     PseudoPot. # 1 for Mo read from file:
     ~/pseudo/Mo.pw91-n-van.UPF
     MD5 check sum: Not computed, couldn't open file
     Pseudo is Ultrasoft + core correction, Zval =  6.0
     Generated by new atomic code, or converted to UPF format
     Using radial grid of  965 points,  3 beta functions with:
                l(1) =   1
                l(2) =   2
                l(3) =   2
     Q(r) pseudized with  8 coefficients,  rinner =    1.000   1.000   1.000
                                                       1.200   1.200

     PseudoPot. # 2 for S  read from file:
     ~/pseudo/S.pw91-van_ak.UPF
     MD5 check sum: Not computed, couldn't open file
     Pseudo is Ultrasoft, Zval =  6.0
     Generated by new atomic code, or converted to UPF format
     Using radial grid of  811 points,  6 beta functions with:
                l(1) =   0
                l(2) =   0
                l(3) =   1
                l(4) =   1
                l(5) =   2
                l(6) =   2
     Q(r) pseudized with  8 coefficients,  rinner =    1.100   1.100   1.100
                                                       1.100   1.100

     atomic species   valence    mass     pseudopotential
        Mo             6.00    95.50000     Mo( 1.00)
        S              6.00    32.06500     S ( 1.00)

     No symmetry found

   Cartesian axes

     site n.     atom                  positions (alat units)
         1           Mo  tau(   1) = (   0.9084878   0.4196101   0.6156716  )
         2           Mo  tau(   2) = (   0.6215157   0.3912953   0.8820574  )
         3           Mo  tau(   3) = (   0.8768455   0.1495066   0.8406331  )
         4           Mo  tau(   4) = (   0.6373467   0.1622631   0.6689742  )
         5           Mo  tau(   5) = (   0.3945719   0.8912680   0.6138414  )
         6           Mo  tau(   6) = (   0.1575344   0.8860005   0.8150032  )
         7           Mo  tau(   7) = (   0.4113469   0.6035224   0.8870204  )
         8           Mo  tau(   8) = (   0.1243132   0.6242278   0.6021544  )
         9           Mo  tau(   9) = (   0.6259116   0.8834776   0.4300164  )
        10           Mo  tau(  10) = (   0.8932853   0.6187068   0.3946939  )
        11           Mo  tau(  11) = (   0.6141483   0.5796713   0.1164253  )
        12           Mo  tau(  12) = (   0.4063817   0.3872605   0.1115732  )
        13           Mo  tau(  13) = (   0.1151414   0.4223516   0.3993590  )
        14           Mo  tau(  14) = (   0.4063249   0.1158006   0.4136786  )
        15           S   tau(  15) = (   0.8847973   0.3937086   0.8624112  )
        16           S   tau(  16) = (   0.6473517   0.4016387   0.6394174  )
        17           S   tau(  17) = (   0.6465609   0.8967294   0.6664353  )
        18           S   tau(  18) = (   0.9311922   0.9130443   0.9117065  )
        19           S   tau(  19) = (   0.6624478   0.6478540   0.8766786  )
        20           S   tau(  20) = (   0.8815419   0.6678326   0.6466215  )
        21           S   tau(  21) = (   0.6375628   0.6411897   0.3592062  )
        22           S   tau(  22) = (   0.3975121   0.8642340   0.8653293  )
        23           S   tau(  23) = (   0.1429459   0.8844981   0.5847616  )
        24           S   tau(  24) = (   0.1504328   0.3734066   0.6372802  )
        25           S   tau(  25) = (   0.3757720   0.3584120   0.8804429  )
        26           S   tau(  26) = (   0.1226886   0.1268485   0.8858631  )
        27           S   tau(  27) = (   0.3836909   0.1451885   0.6501256  )
        28           S   tau(  28) = (   0.8734136   0.8795264   0.3521857  )
        29           S   tau(  29) = (   0.8811338   0.1495443   0.6018909  )
        30           S   tau(  30) = (   0.8655634   0.6247943   0.1427530  )
        31           S   tau(  31) = (   0.6467042   0.3400615   0.1336871  )
        32           S   tau(  32) = (   0.8805566   0.3750133   0.3628513  )
        33           S   tau(  33) = (   0.6442742   0.1337948   0.3998647  )
        34           S   tau(  34) = (   0.6358782   0.1355995   0.9172661  )
        35           S   tau(  35) = (   0.3608689   0.3646085   0.3783011  )
        36           S   tau(  36) = (   0.3817634   0.6408775   0.6316922  )
        37           S   tau(  37) = (   0.1382128   0.3678468   0.1475002  )
        38           S   tau(  38) = (   0.3630117   0.1374442   0.1608467  )
        39           S   tau(  39) = (   0.3908914   0.8742973   0.3634165  )
        40           S   tau(  40) = (   0.1341883   0.6585398   0.3647259  )
        41           S   tau(  41) = (   0.3830242   0.6375846   0.1227829  )
        42           S   tau(  42) = (   0.1549901   0.6349555   0.8647309  )

     number of k points=     8  Marzari-Vanderbilt smearing, width (Ry)=  0.0200
                       cart. coord. in units 2pi/alat
        k(    1) = (   0.0000000   0.0000000   0.0000000), wk =   0.2500000
        k(    2) = (   0.0000000   0.0000000  -0.4980146), wk =   0.2500000
        k(    3) = (   0.0000000  -0.5010433   0.0067629), wk =   0.2500000
        k(    4) = (   0.0000000  -0.5010433  -0.4912517), wk =   0.2500000
        k(    5) = (  -0.5000000   0.0179937   0.0037159), wk =   0.2500000
        k(    6) = (  -0.5000000   0.0179937  -0.4942987), wk =   0.2500000
        k(    7) = (  -0.5000000  -0.4830496   0.0104789), wk =   0.2500000
        k(    8) = (  -0.5000000  -0.4830496  -0.4875358), wk =   0.2500000

     Initial potential from superposition of free atoms

     starting charge  251.97792, renormalised to  252.00000
     Starting wfcs are  238 randomized atomic wfcs

     Self-consistent Calculation

     iteration #  1     ecut=    45.00 Ry     beta= 0.70
     Davidson diagonalization with overlap
     ethr =  1.00E-02,  avg # of iterations =  2.0

     total energy              =    -983.26212673 Ry
     Harris-Foulkes estimate   =    -987.13050670 Ry
     estimated scf accuracy    <      10.52076112 Ry

[...]

     iteration #  7     ecut=    45.00 Ry     beta= 0.70
     Davidson diagonalization with overlap
     c_bands:  2 eigenvalues not converged
     ethr =  8.55E-06,  avg # of iterations =  9.9

[...]

     total energy              =    -985.27695987 Ry
     Harris-Foulkes estimate   =    -985.27696024 Ry
     estimated scf accuracy    <       0.00000253 Ry

     iteration # 14     ecut=    45.00 Ry     beta= 0.70
     Davidson diagonalization with overlap
     ethr =  1.00E-09,  avg # of iterations =  2.0

     End of self-consistent calculation

          k = 0.0000 0.0000 0.0000 ( 31969 PWs)   bands (ev):

    -8.2194  -7.7061  -7.5065  -7.4812  -7.3884  -7.3498  -7.2229  -7.1005
    -7.0104  -6.9901  -6.9389  -6.8754  -6.8625  -6.8312  -6.7820  -6.7304
    -6.6976  -6.6748  -6.6253  -6.4352  -6.3711  -6.3160  -6.1522  -5.8246
    -5.7723  -5.6274  -5.4597  -5.3912  -0.1105   0.0394   0.0473   0.1021
     0.4408   0.4589   0.5746   0.6861   0.7317   0.7954   0.8560   0.8890
     1.0084   1.0675   1.1535   1.1850   1.3109   1.3427   1.4091   1.4517
     1.5254   1.5907   1.6016   1.6500   1.6614   1.7461   1.8193   1.8494
     1.8817   1.9414   1.9451   1.9997   2.0719   2.0946   2.1538   2.1984
     2.2210   2.2504   2.2988   2.3635   2.3733   2.4139   2.4787   2.4950
     2.5452   2.5523   2.6039   2.6384   2.6729   2.7246   2.7867   2.8123
     2.8594   2.9318   2.9388   2.9488   3.0414   3.0743   3.1284   3.1701
     3.2447   3.3482   3.4431   3.5262   3.5841   3.5930   3.7153   3.8461
     3.8759   3.9535   4.0539   4.1742   4.1881   4.2268   4.2915   4.3297
     4.3896   4.4181   4.4376   4.4605   4.6211   4.7224   4.8100   4.8328
     4.8605   4.9916   5.0226   5.0459   5.2274   5.2952   5.3315   5.3604
     5.4117   5.4523   5.6146   5.6719   5.7277   5.7842   5.9079   5.9783
     6.0039   6.1640   6.4168   6.4447   6.4683   6.6136   6.8188   6.8703
     6.9792   7.0658   7.1258   7.1847   7.2808   7.3288   7.3860   7.4606
     7.6087   7.6116   7.6795   7.6890   7.7799   7.8460   7.8924

[...]

          k = 0.0000-0.5010-0.4913 ( 31968 PWs)   bands (ev):

[...]

          k =-0.5000 0.0180 0.0037 ( 31960 PWs)   bands (ev):

[...]

          k =-0.5000-0.4830-0.4875 ( 31960 PWs)   bands (ev):

    -7.9230  -7.8126  -7.6980  -7.6210  -7.4065  -7.3240  -7.2628  -7.0791
    -7.0396  -7.0146  -6.9241  -6.9101  -6.8767  -6.8649  -6.7774  -6.7500
    -6.6999  -6.6218  -6.5234  -6.3968  -6.3375  -6.2778  -6.1190  -5.8451
    -5.7295  -5.6359  -5.4583  -5.3878   0.2983   0.3713   0.3927   0.4398
     0.4668   0.5276   0.6293   0.7173   0.7572   0.7769   0.8176   0.9098
     0.9880   1.0173   1.0591   1.1286   1.1611   1.1659   1.1835   1.2290
     1.2674   1.3281   1.3523   1.3983   1.4756   1.4979   1.6136   1.6741
     1.7587   1.8132   1.8479   1.8648   1.9901   1.9989   2.0185   2.1179
     2.2053   2.2158   2.2700   2.3416   2.3738   2.3875   2.4289   2.4569
     2.4754   2.5001   2.6220   2.6694   2.7146   2.7356   2.7936   2.8791
     2.9169   2.9466   3.0064   3.0736   3.1261   3.2368   3.3577   3.4029
     3.4399   3.4909   3.6030   3.6570   3.7285   3.7551   3.7800   3.8816
     3.9168   3.9982   4.1020   4.1619   4.1843   4.2598   4.3419   4.4298
     4.4324   4.4829   4.5469   4.5692   4.6037   4.7022   4.8518   4.9658
     4.9893   5.0174   5.1040   5.1681   5.2018   5.2431   5.3619   5.3914
     5.4182   5.6350   5.6992   5.7370   5.7793   5.7894   5.8841   5.9006
     6.0075   6.0387   6.2657   6.2901   6.4535   6.6260   6.7092   6.7622
     6.8555   6.9290   7.0219   7.1095   7.2056   7.2933   7.4629   7.5092
     7.5977   7.6136   7.6677   7.7373   7.7661   7.8160   7.8572

     the Fermi energy is     5.8581 ev

!    total energy              =    -985.27695962 Ry
     Harris-Foulkes estimate   =    -985.27696017 Ry
     estimated scf accuracy    <       0.00000078 Ry

     The total energy is the sum of the following terms:

     one-electron contribution =    -125.86849226 Ry
     hartree contribution      =     200.27346268 Ry
     xc contribution           =    -388.44453883 Ry
     ewald contribution        =    -671.23358043 Ry
     smearing contrib. (-TS)   =      -0.00381077 Ry

     convergence has been achieved in  14 iterations

     Forces acting on atoms (cartesian axes, Ry/au):

     atom    1 type  1   force =     0.00970847   -0.01509818   -0.03069064
     atom    2 type  1   force =     0.02572157   -0.02626516    0.04420558
     atom    3 type  1   force =     0.00033994   -0.00794792   -0.03064647
     atom    4 type  1   force =     0.00495476   -0.00017838   -0.02045653
     atom    5 type  1   force =     0.01671101    0.02662735   -0.01918481
     atom    6 type  1   force =    -0.01486501    0.01644409    0.05157721
     atom    7 type  1   force =     0.02417124   -0.01098173    0.03125767
     atom    8 type  1   force =    -0.01350425   -0.01335222    0.07855169
     atom    9 type  1   force =     0.06084560    0.04174376   -0.00809184
     atom   10 type  1   force =    -0.00708198    0.01981956    0.01431021
     atom   11 type  1   force =     0.08072638   -0.00991773   -0.03876460
     atom   12 type  1   force =    -0.04981826    0.01600246    0.01436513
     atom   13 type  1   force =     0.01480068   -0.01106243   -0.05996144
     atom   14 type  1   force =     0.02153362   -0.01814890   -0.07503510
     atom   15 type  2   force =     0.00893960    0.00269750    0.04402164
     atom   16 type  2   force =    -0.01184098    0.01127415   -0.03095675
     atom   17 type  2   force =    -0.01107955   -0.01866539   -0.02484265
     atom   18 type  2   force =    -0.00085922   -0.00527746    0.00470113
     atom   19 type  2   force =    -0.03797269   -0.03983706    0.03567610
     atom   20 type  2   force =     0.01294864   -0.04348098   -0.04014659
     atom   21 type  2   force =    -0.00238766    0.01012854    0.01254854
     atom   22 type  2   force =    -0.02349390    0.01394637    0.01128836
     atom   23 type  2   force =    -0.00250766    0.01695244   -0.02697085
     atom   24 type  2   force =    -0.01235015    0.03512266   -0.00678548
     atom   25 type  2   force =    -0.00633864    0.01600801   -0.01931301
     atom   26 type  2   force =     0.00071915   -0.02367308   -0.00832045
     atom   27 type  2   force =    -0.02063361   -0.01275382    0.02579051
     atom   28 type  2   force =    -0.04284263   -0.02381303    0.00878259
     atom   29 type  2   force =    -0.01130677   -0.00095961    0.02695785
     atom   30 type  2   force =    -0.01881190   -0.00067761   -0.00410540
     atom   31 type  2   force =    -0.00427169    0.03647105   -0.00754597
     atom   32 type  2   force =    -0.00545914    0.01675682    0.03162875
     atom   33 type  2   force =    -0.02430975   -0.03082630    0.01390322
     atom   34 type  2   force =     0.01323149    0.00307286   -0.03416846
     atom   35 type  2   force =     0.01208802    0.00393572   -0.01931276
     atom   36 type  2   force =     0.00814281   -0.02024553   -0.00256172
     atom   37 type  2   force =     0.02168591    0.00725342    0.03335448
     atom   38 type  2   force =    -0.00191659    0.00481088    0.03546675
     atom   39 type  2   force =     0.01304790    0.01760029    0.01978846
     atom   40 type  2   force =     0.01568978   -0.00865183   -0.04096502
     atom   41 type  2   force =    -0.03558462   -0.00663915    0.01485841
     atom   42 type  2   force =    -0.00676994    0.03178559   -0.00420776

     Total force =     0.289389     Total SCF correction =     0.001814

     General routines

     Parallel routines

   This run was terminated on:  21: 0: 7  24Dec2021

   JOB DONE.