     Program PWSCF v.6.4 starts on  8Sep2021 at 11:24: 3

     R & G space division:  proc/nbgrp/npool/nimage =      40
     Waiting for input...
     Reading input from standard input
Warning: card    &IONS ignored
Warning: card      ION_DYNAMICS = 'BFGS' ignored
Warning: card   / ignored
Warning: card    &CELL ignored
Warning: card      CELL_DYNAMICS = 'BFGS', ignored
Warning: card    / ignored

     Current dimensions of program PWSCF are:
     Max number of different atomic species (ntypx) = 10
     Max number of k-points (npk) =  40000
     Max angular momentum in pseudopotentials (lmaxx) =  3

     bravais-lattice index     =            0
     lattice parameter (alat)  =      12.4868  a.u.
     unit-cell volume          =    3526.1699 (a.u.)^3
     number of atoms/cell      =           24
     number of atomic types    =            2
     number of electrons       =       144.00
     number of Kohn-Sham states=           86
     kinetic-energy cutoff     =      45.0000  Ry
     charge density cutoff     =     360.0000  Ry
     convergence threshold     =      1.0E-06
     mixing beta               =       0.7000
     number of iterations used =            8  local-TF  mixing
     Exchange-correlation      = SLA PW GGX GGC ( 1  4  2  2 0 0)

     celldm(1)=  12.486840  celldm(2)=   0.000000  celldm(3)=   0.000000
     celldm(4)=   0.000000  celldm(5)=   0.000000  celldm(6)=   0.000000

     crystal axes: (cart. coord. in units of alat)
               a(1) = (   0.999888   0.014967  -0.000115 )
               a(2) = (  -0.243017   0.421487  -0.000353 )
               a(3) = (  -0.249297  -0.148575   4.260830 )

     reciprocal axes: (cart. coord. in units 2 pi/alat)
               b(1) = (  0.991563  0.571770  0.077953 )
               b(2) = ( -0.035201  2.352324  0.079966 )
               b(3) = (  0.000024  0.000210  0.234705 )

     PseudoPot. # 1 for Mo read from file:
     ~/pseudo/Mo.pw91-n-van.UPF
     MD5 check sum: Not computed, couldn't open file
     Pseudo is Ultrasoft + core correction, Zval =  6.0
     Generated by new atomic code, or converted to UPF format
     Using radial grid of  965 points,  3 beta functions with:
                l(1) =   1
                l(2) =   2
                l(3) =   2
     Q(r) pseudized with  8 coefficients,  rinner =    1.000   1.000   1.000
                                                       1.200   1.200

     PseudoPot. # 2 for S  read from file:
     ~/pseudo/S.pw91-van_ak.UPF
     MD5 check sum: Not computed, couldn't open file
     Pseudo is Ultrasoft, Zval =  6.0
     Generated by new atomic code, or converted to UPF format
     Using radial grid of  811 points,  6 beta functions with:
                l(1) =   0
                l(2) =   0
                l(3) =   1
                l(4) =   1
                l(5) =   2
                l(6) =   2
     Q(r) pseudized with  8 coefficients,  rinner =    1.100   1.100   1.100
                                                       1.100   1.100

     atomic species   valence    mass     pseudopotential
        Mo             6.00    95.50000     Mo( 1.00)
        S              6.00    32.06500     S ( 1.00)

     No symmetry found

   Cartesian axes

     site n.     atom                  positions (alat units)
         1           Mo  tau(   1) = (   0.0994559   0.1420212   1.5527828  )
         2           Mo  tau(   2) = (  -0.3075975  -0.0047812   3.7963998  )
         3           Mo  tau(   3) = (   0.5162245   0.1013625   1.5742249  )
         4           Mo  tau(   4) = (   0.2672080   0.0445834   3.7668208  )
         5           Mo  tau(   5) = (  -0.0937633  -0.2002917   0.5348044  )
         6           Mo  tau(   6) = (  -0.1937730  -0.2260978   2.6380861  )
         7           Mo  tau(   7) = (   0.4847084  -0.1479058   0.5253132  )
         8           Mo  tau(   8) = (   0.2251293  -0.2648667   2.6550874  )
         9           S   tau(   9) = (   0.3145581   0.2665152   1.8286701  )
        10           S   tau(  10) = (  -0.0230494   0.1584627   3.9834055  )
        11           S   tau(  11) = (   0.8081853   0.2697236   1.7669136  )
        12           S   tau(  12) = (   0.4826122   0.1699645   4.0458252  )
        13           S   tau(  13) = (  -0.0446935   0.1090249   0.3150370  )
        14           S   tau(  14) = (  -0.2359230   0.0308380   2.3834254  )
        15           S   tau(  15) = (   0.4473129   0.1112325   0.2701268  )
        16           S   tau(  16) = (   0.2701708   0.0412934   2.4357960  )
        17           S   tau(  17) = (  -0.0504196   0.3860917   0.7448671  )
        18           S   tau(  18) = (  -0.2203474   0.3210114   2.9093860  )
        19           S   tau(  19) = (   0.4581000   0.3986419   0.7889303  )
        20           S   tau(  20) = (   0.2740985   0.3246666   2.8562798  )
        21           S   tau(  21) = (   0.3007819  -0.0226348   1.2990684  )
        22           S   tau(  22) = (  -0.0184084  -0.1188082   3.5823760  )
        23           S   tau(  23) = (   0.8063093  -0.0113531   1.3581274  )
        24           S   tau(  24) = (   0.4754829  -0.1152607   3.5167965  )

     number of k points=     8  Marzari-Vanderbilt smearing, width (Ry)=  0.0200
                       cart. coord. in units 2pi/alat
        k(    1) = (   0.0000000   0.0000000   0.0000000), wk =   0.1333333
        k(    2) = (  -0.0070402   0.4704647   0.0159931), wk =   0.2666667
        k(    3) = (  -0.0140804   0.9409294   0.0319863), wk =   0.2666667
        k(    4) = (   0.3305209   0.1905901   0.0259843), wk =   0.2666667
        k(    5) = (   0.3234807   0.6610548   0.0419774), wk =   0.2666667
        k(    6) = (   0.3164404   1.1315195   0.0579705), wk =   0.2666667
        k(    7) = (   0.3446013  -0.7503394  -0.0060020), wk =   0.2666667
        k(    8) = (   0.3375611  -0.2798747   0.0099911), wk =   0.2666667

     Initial potential from superposition of free atoms

     starting charge  143.98738, renormalised to  144.00000
     Starting wfcs are  136 randomized atomic wfcs

     Self-consistent Calculation

     iteration #  1     ecut=    45.00 Ry     beta= 0.70
     Davidson diagonalization with overlap
     ethr =  1.00E-02,  avg # of iterations =  2.0

     total energy              =    -562.36277694 Ry
     Harris-Foulkes estimate   =    -564.26740206 Ry
     estimated scf accuracy    <       5.01887010 Ry

[...]

     iteration #  7     ecut=    45.00 Ry     beta= 0.70
     Davidson diagonalization with overlap
     c_bands:  1 eigenvalues not converged
     ethr =  2.76E-06,  avg # of iterations =  7.0

[...]

     iteration #  8     ecut=    45.00 Ry     beta= 0.70
     Davidson diagonalization with overlap
     c_bands:  1 eigenvalues not converged
     ethr =  5.28E-07,  avg # of iterations =  6.9

[...]

     total energy              =    -563.36964498 Ry
     Harris-Foulkes estimate   =    -563.36964515 Ry
     estimated scf accuracy    <       0.00000120 Ry

     iteration # 15     ecut=    45.00 Ry     beta= 0.70
     Davidson diagonalization with overlap
     ethr =  8.31E-10,  avg # of iterations =  3.2

     End of self-consistent calculation

          k = 0.0000 0.0000 0.0000 ( 18095 PWs)   bands (ev):

    -8.1595  -8.1161  -8.0868  -8.0641  -7.2646  -7.1879  -7.1610  -7.1275
    -6.4533  -6.4407  -6.4025  -6.3886  -6.3671  -6.3219  -6.2891  -6.2662
    -0.0731  -0.0015   0.0189   0.0243   0.3431   0.5267   0.5761   0.7231
     1.3121   1.3360   1.3500   1.3864   1.4065   1.4453   1.4795   1.5287
     2.4664   2.4799   2.4833   2.5018   2.6005   2.6224   2.6262   2.6621
     2.9619   3.0851   3.1251   3.1883   3.3271   3.4350   3.5372   3.5916
     3.6880   3.9720   4.0592   4.2389   4.4803   4.5644   4.6154   4.7241
     4.7448   4.7806   4.8429   4.8573   5.1532   5.3595   5.4396   5.4700
     5.5995   5.6492   5.6726   5.6739   5.6791   5.6853   5.6957   5.7322
     6.1690   6.2082   6.2258   6.2667   6.2993   6.5113   6.5409   6.6148
     7.6609   7.6774   7.7229   7.7564   7.7959   7.9298

          k =-0.0070 0.4705 0.0160 ( 18009 PWs)   bands (ev):

[...]

          k =-0.0141 0.9409 0.0320 ( 17922 PWs)   bands (ev):

[...]

          k = 0.3376-0.2799 0.0100 ( 18002 PWs)   bands (ev):

    -7.6981  -7.6547  -7.6281  -7.6057  -7.0865  -7.0139  -6.9893  -6.9568
    -6.4081  -6.3585  -6.3223  -6.3044  -6.2361  -6.2250  -6.1841  -6.1742
     0.5120   0.5428   0.5667   0.5932   0.7703   0.8646   0.9299   0.9660
     1.1350   1.1823   1.2556   1.3190   1.4835   1.5288   1.5904   1.6004
     2.1913   2.2485   2.2996   2.3182   2.4460   2.5484   2.5608   2.5848
     2.6328   2.6424   2.6558   2.6897   3.1122   3.1587   3.2235   3.2437
     3.3330   3.3989   3.4191   3.4654   3.5248   3.5668   3.5870   3.6032
     4.3005   4.3461   4.3986   4.4107   4.8153   4.9253   4.9442   4.9816
     5.0736   5.1066   5.1094   5.1765   5.2836   5.3535   5.4791   5.5504
     6.1054   6.2077   6.2753   6.3138   6.9447   7.0279   7.0600   7.1087
     7.9764   8.0449   8.0787   8.1350   8.1625   8.1957

     the Fermi energy is     5.7921 ev

!    total energy              =    -563.36964491 Ry
     Harris-Foulkes estimate   =    -563.36964521 Ry
     estimated scf accuracy    <       0.00000033 Ry

     The total energy is the sum of the following terms:

     one-electron contribution =    -117.32697782 Ry
     hartree contribution      =     137.50125553 Ry
     xc contribution           =    -222.43309081 Ry
     ewald contribution        =    -361.12128278 Ry
     smearing contrib. (-TS)   =       0.01045097 Ry

     convergence has been achieved in  15 iterations

     Forces acting on atoms (cartesian axes, Ry/au):

     atom    1 type  1   force =    -0.02351159   -0.01352702    0.00269306
     atom    2 type  1   force =    -0.01192699   -0.00831170   -0.01829591
     atom    3 type  1   force =     0.02256291    0.01411469   -0.00245134
     atom    4 type  1   force =     0.00905698    0.00773863    0.02335971
     atom    5 type  1   force =     0.02235953    0.01310801    0.01855245
     atom    6 type  1   force =    -0.02069040   -0.01123417    0.00045629
     atom    7 type  1   force =    -0.02288389   -0.01291324   -0.01854799
     atom    8 type  1   force =     0.01825263    0.01048109    0.00160150
     atom    9 type  2   force =    -0.00584689   -0.00359703    0.00566248
     atom   10 type  2   force =     0.00274833    0.00278499    0.00154177
     atom   11 type  2   force =    -0.00609934   -0.00304625   -0.00363819
     atom   12 type  2   force =    -0.00895647   -0.00444687    0.00805369
     atom   13 type  2   force =    -0.00258733   -0.00194016    0.02296526
     atom   14 type  2   force =     0.00497999    0.00159346   -0.00958418
     atom   15 type  2   force =    -0.00704676   -0.00441258   -0.01516806
     atom   16 type  2   force =     0.00776780    0.00529211    0.01444887
     atom   17 type  2   force =     0.00264341    0.00183092   -0.02500670
     atom   18 type  2   force =    -0.00286489   -0.00243500    0.00826776
     atom   19 type  2   force =     0.00590056    0.00429512    0.01547169
     atom   20 type  2   force =    -0.00725309   -0.00302826   -0.01441152
     atom   21 type  2   force =     0.00618548    0.00242560   -0.00755045
     atom   22 type  2   force =    -0.00092458   -0.00174213   -0.00847969
     atom   23 type  2   force =     0.00769468    0.00324692    0.00811420
     atom   24 type  2   force =     0.01043991    0.00372286   -0.00805470

     Total force =     0.095378     Total SCF correction =     0.001435

     General routines

     Parallel routines

   This run was terminated on:  11:25: 2   8Sep2021

   JOB DONE.