     Program PWSCF v.6.4 starts on 28Nov2021 at 10:14:44

     R & G space division:  proc/nbgrp/npool/nimage =      40
     Waiting for input...
     Reading input from standard input
Warning: card    &IONS ignored
Warning: card      ION_DYNAMICS = 'BFGS' ignored
Warning: card   / ignored
Warning: card    &CELL ignored
Warning: card      CELL_DYNAMICS = 'BFGS', ignored
Warning: card    / ignored

     Current dimensions of program PWSCF are:
     Max number of different atomic species (ntypx) = 10
     Max number of k-points (npk) =  40000
     Max angular momentum in pseudopotentials (lmaxx) =  3

     bravais-lattice index     =            0
     lattice parameter (alat)  =      12.3615  a.u.
     unit-cell volume          =    3365.3410 (a.u.)^3
     number of atoms/cell      =           24
     number of atomic types    =            2
     number of electrons       =       144.00
     number of Kohn-Sham states=           86
     kinetic-energy cutoff     =      45.0000  Ry
     charge density cutoff     =     360.0000  Ry
     convergence threshold     =      1.0E-06
     mixing beta               =       0.7000
     number of iterations used =            8  local-TF  mixing
     Exchange-correlation      = SLA PW GGX GGC ( 1  4  2  2 0 0)

     celldm(1)=  12.361528  celldm(2)=   0.000000  celldm(3)=   0.000000
     celldm(4)=   0.000000  celldm(5)=   0.000000  celldm(6)=   0.000000

     crystal axes: (cart. coord. in units of alat)
               a(1) = (   1.000000   0.000173   0.000763 )
               a(2) = (   0.500659   0.866454   0.000016 )
               a(3) = (   0.783037  -0.454692   2.057203 )

     reciprocal axes: (cart. coord. in units 2 pi/alat)
               b(1) = (  1.000488 -0.578098 -0.508591 )
               b(2) = ( -0.000394  1.154352  0.255290 )
               b(3) = ( -0.000371  0.000206  0.486284 )

     PseudoPot. # 1 for Mo read from file:
     ~/pseudo/Mo.pw91-n-van.UPF
     MD5 check sum: Not computed, couldn't open file
     Pseudo is Ultrasoft + core correction, Zval =  6.0
     Generated by new atomic code, or converted to UPF format
     Using radial grid of  965 points,  3 beta functions with:
                l(1) =   1
                l(2) =   2
                l(3) =   2
     Q(r) pseudized with  8 coefficients,  rinner =    1.000   1.000   1.000
                                                       1.200   1.200

     PseudoPot. # 2 for S  read from file:
     ~/pseudo/S.pw91-van_ak.UPF
     MD5 check sum: Not computed, couldn't open file
     Pseudo is Ultrasoft, Zval =  6.0
     Generated by new atomic code, or converted to UPF format
     Using radial grid of  811 points,  6 beta functions with:
                l(1) =   0
                l(2) =   0
                l(3) =   1
                l(4) =   1
                l(5) =   2
                l(6) =   2
     Q(r) pseudized with  8 coefficients,  rinner =    1.100   1.100   1.100
                                                       1.100   1.100

     atomic species   valence    mass     pseudopotential
        Mo             6.00    95.50000     Mo( 1.00)
        S              6.00    32.06500     S ( 1.00)

     No symmetry found

   Cartesian axes

     site n.     atom                  positions (alat units)
         1           Mo  tau(   1) = (   1.1256886   0.2761214   0.5680009  )
         2           Mo  tau(   2) = (   1.3441110   0.4056598   0.9467619  )
         3           Mo  tau(   3) = (   1.0923646  -0.3152551   1.5108892  )
         4           Mo  tau(   4) = (   1.3466757   0.6587272   0.5679986  )
         5           Mo  tau(   5) = (   1.5910736  -0.3152492   1.5110410  )
         6           Mo  tau(   6) = (   0.5626157   0.2789525   0.5698735  )
         7           Mo  tau(   7) = (   1.3419700   0.1167682   1.5108733  )
         8           Mo  tau(   8) = (   1.8421373   0.1174804   1.4988198  )
         9           S   tau(   9) = (   1.0872394   0.2593437   1.7437054  )
        10           S   tau(  10) = (   1.1029387   0.2680079   1.2640301  )
        11           S   tau(  11) = (   1.3417093  -0.1712454   1.7515248  )
        12           S   tau(  12) = (   1.3419414  -0.1712355   1.2742770  )
        13           S   tau(  13) = (   0.8441901   0.4027275   0.3589591  )
        14           S   tau(  14) = (   1.6214070   0.5654818   0.8003871  )
        15           S   tau(  15) = (   0.8415101  -0.1659105   1.7437389  )
        16           S   tau(  16) = (   0.8419966  -0.1837587   1.2640325  )
        17           S   tau(  17) = (   1.3438259   0.4053796   0.2983357  )
        18           S   tau(  18) = (   1.0686620   0.5645459   0.7968693  )
        19           S   tau(  19) = (   1.5966257   0.2593568   1.7441385  )
        20           S   tau(  20) = (   1.5816375   0.2681019   1.2648183  )
        21           S   tau(  21) = (   0.0970702  -0.0300086   0.3579392  )
        22           S   tau(  22) = (   1.3440713   0.0853400   0.8007212  )
        23           S   tau(  23) = (   0.5960019  -0.0266932   0.3588669  )
        24           S   tau(  24) = (   0.8438301   0.1165094   0.7739022  )

     number of k points=    10  Marzari-Vanderbilt smearing, width (Ry)=  0.0200
                       cart. coord. in units 2pi/alat
        k(    1) = (   0.0000000   0.0000000   0.0000000), wk =   0.1111111
        k(    2) = (   0.0001856  -0.0001028  -0.2431418), wk =   0.1111111
        k(    3) = (  -0.0001313   0.3847840   0.0850967), wk =   0.2222222
        k(    4) = (   0.0000543   0.3846811  -0.1580451), wk =   0.2222222
        k(    5) = (   0.3334961  -0.1926992  -0.1695305), wk =   0.2222222
        k(    6) = (   0.3336817  -0.1928020  -0.4126723), wk =   0.2222222
        k(    7) = (   0.3333647   0.1920848  -0.0844337), wk =   0.2222222
        k(    8) = (   0.3335504   0.1919819  -0.3275756), wk =   0.2222222
        k(    9) = (   0.3336274  -0.5774832  -0.2546272), wk =   0.2222222
        k(   10) = (   0.3338130  -0.5775860  -0.4977690), wk =   0.2222222

     Initial potential from superposition of free atoms

     starting charge  143.98738, renormalised to  144.00000
     Starting wfcs are  136 randomized atomic wfcs

     Self-consistent Calculation

     iteration #  1     ecut=    45.00 Ry     beta= 0.70
     Davidson diagonalization with overlap
     ethr =  1.00E-02,  avg # of iterations =  2.0

     total energy              =    -562.26609118 Ry
     Harris-Foulkes estimate   =    -564.28153973 Ry
     estimated scf accuracy    <       6.32337619 Ry

[...]

     total energy              =    -563.27454340 Ry
     Harris-Foulkes estimate   =    -563.27454380 Ry
     estimated scf accuracy    <       0.00000227 Ry

     iteration # 14     ecut=    45.00 Ry     beta= 0.70
     Davidson diagonalization with overlap
     ethr =  1.58E-09,  avg # of iterations =  2.5

     End of self-consistent calculation

          k = 0.0000 0.0000 0.0000 ( 17149 PWs)   bands (ev):

    -8.3332  -7.3478  -7.0404  -6.7808  -6.7762  -6.6557  -6.3098  -6.3054
    -6.2562  -6.0603  -6.0437  -5.9205  -5.0832  -4.8603  -4.6432  -4.6187
    -0.2306   0.1372   0.1418   0.1877   0.7347   0.8456   0.8486   1.0547
     1.0992   1.1074   1.6027   1.6040   1.6299   1.7543   2.3700   2.5006
     2.5068   2.5300   2.6154   2.6167   2.9698   2.9714   3.0585   3.0636
     3.1585   3.2621   3.2647   3.5690   3.6435   3.7050   3.7159   4.0816
     4.0877   4.1206   4.1241   4.1308   4.4899   4.4960   4.5122   4.5727
     4.7491   4.7978   5.0370   5.0374   5.0451   5.1576   5.5610   5.7345
     5.8375   5.8803   6.0783   6.0939   6.1087   6.6979   6.7155   6.8751
     7.2530   7.2560   7.5417   7.5621   7.5634   7.9605   8.0440   8.0456
     8.0756   8.0779   8.3967   8.4201   8.4324   8.4394

[...]

          k =-0.0001 0.3848 0.0851 ( 17156 PWs)   bands (ev):

[...]

          k = 0.3338-0.5776-0.4978 ( 17162 PWs)   bands (ev):

    -7.6142  -7.3482  -7.3396  -6.8483  -6.6841  -6.6532  -6.5765  -6.4789
    -6.3397  -6.2292  -6.1347  -5.5277  -5.3513  -5.1268  -4.8691  -4.5208
     0.3693   0.6729   0.7026   0.8048   1.1674   1.1967   1.5245   1.5412
     1.6797   1.7349   1.9353   1.9521   1.9814   2.0157   2.0746   2.1908
     2.2065   2.4375   2.4600   2.4732   2.5464   2.6851   2.6897   2.7040
     2.8741   3.1907   3.2017   3.2601   3.3062   3.4776   3.6112   3.6448
     3.6583   3.7075   3.8592   4.0659   4.0940   4.1674   4.4526   4.6074
     4.6522   4.7341   4.9138   4.9346   4.9470   5.0163   5.0297   5.3384
     5.5744   5.6173   5.7818   5.8913   6.3382   6.5230   6.5562   6.8081
     7.0383   7.0554   7.2062   7.3977   7.4574   7.6060   7.6315   7.8460
     7.8709   8.1463   8.1484   8.2096   8.3490   8.4519

     the Fermi energy is     6.9114 ev

!    total energy              =    -563.27454315 Ry
     Harris-Foulkes estimate   =    -563.27454367 Ry
     estimated scf accuracy    <       0.00000064 Ry

     The total energy is the sum of the following terms:

     one-electron contribution =    -115.71061052 Ry
     hartree contribution      =     139.57456761 Ry
     xc contribution           =    -222.57751890 Ry
     ewald contribution        =    -364.56484035 Ry
     smearing contrib. (-TS)   =       0.00385900 Ry

     convergence has been achieved in  14 iterations

     Forces acting on atoms (cartesian axes, Ry/au):

     atom    1 type  1   force =     0.00040388   -0.00011139    0.00037415
     atom    2 type  1   force =    -0.00005805    0.00019376   -0.00041586
     atom    3 type  1   force =     0.00024736    0.00011137    0.00075945
     atom    4 type  1   force =     0.00039726   -0.00008028    0.00029246
     atom    5 type  1   force =    -0.00030474    0.00008191    0.00090393
     atom    6 type  1   force =    -0.00097220    0.00075404    0.00057425
     atom    7 type  1   force =    -0.00005923   -0.00042025    0.00077809
     atom    8 type  1   force =     0.00003604   -0.00019471    0.00116454
     atom    9 type  2   force =     0.00071046    0.00066116    0.00029136
     atom   10 type  2   force =    -0.00041063   -0.00034326    0.00089728
     atom   11 type  2   force =     0.00008614    0.00013618    0.00001715
     atom   12 type  2   force =     0.00025587   -0.00010750   -0.00049133
     atom   13 type  2   force =    -0.00020664   -0.00042739   -0.00130406
     atom   14 type  2   force =     0.00055037    0.00034059   -0.00050344
     atom   15 type  2   force =    -0.00014759   -0.00067233    0.00009924
     atom   16 type  2   force =     0.00002306    0.00031255    0.00091359
     atom   17 type  2   force =    -0.00024958    0.00004949   -0.00116524
     atom   18 type  2   force =    -0.00021293   -0.00003703   -0.00124319
     atom   19 type  2   force =    -0.00076475    0.00037211    0.00036048
     atom   20 type  2   force =     0.00038182   -0.00017716    0.00078896
     atom   21 type  2   force =     0.00026362   -0.00019680   -0.00177111
     atom   22 type  2   force =     0.00004489   -0.00051513   -0.00058295
     atom   23 type  2   force =     0.00030245    0.00015205   -0.00134622
     atom   24 type  2   force =    -0.00031689    0.00011802    0.00060846

     Total force =     0.004876     Total SCF correction =     0.001753
     SCF correction compared to forces is large: reduce conv_thr to get better values

     General routines

     Parallel routines

   This run was terminated on:  10:15:54  28Nov2021

   JOB DONE.