     Program PWSCF v.6.4 starts on  2Dec2021 at 10:36:44

     R & G space division:  proc/nbgrp/npool/nimage =      40
     Waiting for input...
     Reading input from standard input
Warning: card    &IONS ignored
Warning: card      ION_DYNAMICS = 'BFGS' ignored
Warning: card   / ignored
Warning: card    &CELL ignored
Warning: card      CELL_DYNAMICS = 'BFGS', ignored
Warning: card    / ignored

     Current dimensions of program PWSCF are:
     Max number of different atomic species (ntypx) = 10
     Max number of k-points (npk) =  40000
     Max angular momentum in pseudopotentials (lmaxx) =  3

     bravais-lattice index     =            0
     lattice parameter (alat)  =      13.1141  a.u.
     unit-cell volume          =    3332.5913 (a.u.)^3
     number of atoms/cell      =           24
     number of atomic types    =            2
     number of electrons       =       144.00
     number of Kohn-Sham states=           86
     kinetic-energy cutoff     =      45.0000  Ry
     charge density cutoff     =     360.0000  Ry
     convergence threshold     =      1.0E-06
     mixing beta               =       0.7000
     number of iterations used =            8  local-TF  mixing
     Exchange-correlation      = SLA PW GGX GGC ( 1  4  2  2 0 0)

     celldm(1)=  13.114145  celldm(2)=   0.000000  celldm(3)=   0.000000
     celldm(4)=   0.000000  celldm(5)=   0.000000  celldm(6)=   0.000000

     crystal axes: (cart. coord. in units of alat)
               a(1) = (   1.000000   0.000000   0.000000 )
               a(2) = (   0.480828   0.878519   0.000000 )
               a(3) = (  -0.007380   0.354801   1.681943 )

     reciprocal axes: (cart. coord. in units 2 pi/alat)
               b(1) = (  1.000000 -0.547317  0.119843 )
               b(2) = (  0.000000  1.138280 -0.240117 )
               b(3) = (  0.000000  0.000000  0.594551 )

     PseudoPot. # 1 for Mo read from file:
     ~/pseudo/Mo.pw91-n-van.UPF
     MD5 check sum: Not computed, couldn't open file
     Pseudo is Ultrasoft + core correction, Zval =  6.0
     Generated by new atomic code, or converted to UPF format
     Using radial grid of  965 points,  3 beta functions with:
                l(1) =   1
                l(2) =   2
                l(3) =   2
     Q(r) pseudized with  8 coefficients,  rinner =    1.000   1.000   1.000
                                                       1.200   1.200

     PseudoPot. # 2 for S  read from file:
     ~/pseudo/S.pw91-van_ak.UPF
     MD5 check sum: Not computed, couldn't open file
     Pseudo is Ultrasoft, Zval =  6.0
     Generated by new atomic code, or converted to UPF format
     Using radial grid of  811 points,  6 beta functions with:
                l(1) =   0
                l(2) =   0
                l(3) =   1
                l(4) =   1
                l(5) =   2
                l(6) =   2
     Q(r) pseudized with  8 coefficients,  rinner =    1.100   1.100   1.100
                                                       1.100   1.100

     atomic species   valence    mass     pseudopotential
        Mo             6.00    95.50000     Mo( 1.00)
        S              6.00    32.06500     S ( 1.00)

     No symmetry found

   Cartesian axes

     site n.     atom                  positions (alat units)
         1           Mo  tau(   1) = (   0.3395867   0.5734889   0.1907745  )
         2           Mo  tau(   2) = (   0.6195322   0.1900361   0.4973162  )
         3           Mo  tau(   3) = (   0.6237731   0.7570954   1.2095435  )
         4           Mo  tau(   4) = (   0.1641673   0.2377009   0.3885760  )
         5           Mo  tau(   5) = (   0.6160188   0.9889307   0.8885840  )
         6           Mo  tau(   6) = (   0.9399858   0.5175775   0.1342340  )
         7           Mo  tau(   7) = (   0.8276270   0.6402653   0.8865757  )
         8           Mo  tau(   8) = (   0.4149767   0.6433347   0.8887711  )
         9           S   tau(   9) = (   0.8867288   0.9160089   1.0834629  )
        10           S   tau(  10) = (   1.1188887   0.7836576   0.7101072  )
        11           S   tau(  11) = (   1.1248518   0.4646942   1.0369997  )
        12           S   tau(  12) = (   0.3685717   0.3244588   0.6911054  )
        13           S   tau(  13) = (   0.6989814   0.8318489   1.5411674  )
        14           S   tau(  14) = (   1.3663555   0.9164386   0.3123932  )
        15           S   tau(  15) = (   0.6232527   0.4480628   1.0806326  )
        16           S   tau(  16) = (   0.8894120   0.3211190   0.6897790  )
        17           S   tau(  17) = (   1.0955682   1.0614754   1.6301779  )
        18           S   tau(  18) = (   0.8878400   0.9071324   0.3115042  )
        19           S   tau(  19) = (   1.3530542   0.9128853   1.0962379  )
        20           S   tau(  20) = (   0.6227985   0.7506916   0.6475826  )
        21           S   tau(  21) = (   0.4129272   0.7120074   1.6035698  )
        22           S   tau(  22) = (   0.6433561   0.4842402   0.3300465  )
        23           S   tau(  23) = (   0.1479211   0.2550449   0.0299910  )
        24           S   tau(  24) = (   1.1061311   0.5617486   0.4288770  )

     number of k points=    10  Marzari-Vanderbilt smearing, width (Ry)=  0.0200
                       cart. coord. in units 2pi/alat
        k(    1) = (   0.0000000   0.0000000   0.0000000), wk =   0.1111111
        k(    2) = (   0.0000000   0.0000000  -0.2972753), wk =   0.1111111
        k(    3) = (   0.0000000   0.3794266  -0.0800390), wk =   0.2222222
        k(    4) = (   0.0000000   0.3794266  -0.3773143), wk =   0.2222222
        k(    5) = (   0.3333333  -0.1824389   0.0399476), wk =   0.2222222
        k(    6) = (   0.3333333  -0.1824389  -0.2573276), wk =   0.2222222
        k(    7) = (   0.3333333   0.1969878  -0.0400914), wk =   0.2222222
        k(    8) = (   0.3333333   0.1969878  -0.3373666), wk =   0.2222222
        k(    9) = (   0.3333333  -0.5618655   0.1199866), wk =   0.2222222
        k(   10) = (   0.3333333  -0.5618655  -0.1772887), wk =   0.2222222

     Initial potential from superposition of free atoms

     starting charge  143.98738, renormalised to  144.00000
     Starting wfcs are  136 randomized atomic wfcs

     Self-consistent Calculation

     iteration #  1     ecut=    45.00 Ry     beta= 0.70
     Davidson diagonalization with overlap
     ethr =  1.00E-02,  avg # of iterations =  2.0

     total energy              =    -561.93013973 Ry
     Harris-Foulkes estimate   =    -563.65223554 Ry
     estimated scf accuracy    <       4.96168349 Ry

[...]

     total energy              =    -562.80437603 Ry
     Harris-Foulkes estimate   =    -562.80437648 Ry
     estimated scf accuracy    <       0.00000244 Ry

     iteration # 16     ecut=    45.00 Ry     beta= 0.70
     Davidson diagonalization with overlap
     ethr =  1.48E-09,  avg # of iterations =  3.0

     End of self-consistent calculation

          k = 0.0000 0.0000 0.0000 ( 16947 PWs)   bands (ev):

    -8.4669  -7.9340  -6.9034  -6.7453  -6.5745  -6.1521  -6.0798  -5.9782
    -5.9654  -5.9603  -5.7745  -5.7110  -5.6282  -5.5770  -4.6375  -4.1272
     0.2740   0.3643   0.5883   0.6698   0.9016   1.0682   1.1857   1.2803
     1.4801   1.6795   1.9193   2.0064   2.3209   2.4160   2.5523   2.5857
     2.7175   2.8235   2.9030   2.9649   2.9829   3.0610   3.0917   3.1828
     3.2186   3.3739   3.4351   3.5103   3.5557   3.6721   3.8035   3.8184
     3.8732   3.9744   4.2257   4.3077   4.3885   4.5925   4.6311   4.7686
     4.8621   5.0437   5.1598   5.3840   5.5410   5.6092   5.7503   5.9067
     5.9459   6.1999   6.2893   6.3974   6.5282   6.6998   6.8851   6.9777
     7.1317   7.4137   7.4843   7.5308   7.5976   7.6920   8.0154   8.1885
     8.3101   8.5018   8.6343   8.8217   8.8887   9.1089

[...]

          k = 0.3333-0.5619-0.1773 ( 16989 PWs)   bands (ev):

    -8.3453  -7.7454  -6.9141  -6.8030  -6.6341  -6.3735  -6.2530  -6.1606
    -6.0430  -5.8869  -5.8089  -5.6807  -5.6002  -5.4890  -4.6291  -3.9899
     0.4225   0.6476   0.8455   1.0948   1.2158   1.3344   1.4263   1.5376
     1.6148   1.7823   1.7956   1.9526   2.0885   2.1948   2.2668   2.3842
     2.4535   2.5901   2.6141   2.7359   2.8638   2.8998   2.9776   3.1001
     3.1560   3.2828   3.3894   3.4812   3.5883   3.7017   3.7738   3.8262
     3.9528   4.1093   4.1733   4.3108   4.4055   4.5238   4.6599   4.7590
     4.9061   5.0888   5.2160   5.3651   5.4716   5.5433   5.6656   5.7577
     5.8950   6.0458   6.2687   6.4853   6.5678   6.6860   6.7423   6.9322
     7.0858   7.1588   7.4273   7.5488   7.6923   7.8007   7.9127   8.1672
     8.3014   8.5122   8.5685   8.7177   8.9256   8.9884

     the Fermi energy is     7.0177 ev

!    total energy              =    -562.80437616 Ry
     Harris-Foulkes estimate   =    -562.80437624 Ry
     estimated scf accuracy    <       0.00000010 Ry

     The total energy is the sum of the following terms:

     one-electron contribution =     -94.91632332 Ry
     hartree contribution      =     130.49672475 Ry
     xc contribution           =    -223.11474082 Ry
     ewald contribution        =    -375.27185794 Ry
     smearing contrib. (-TS)   =       0.00182117 Ry

     convergence has been achieved in  16 iterations

     Forces acting on atoms (cartesian axes, Ry/au):

     atom    1 type  1   force =    -0.00247587    0.05382192   -0.03717319
     atom    2 type  1   force =     0.01217270    0.00494476    0.01724155
     atom    3 type  1   force =     0.00567830    0.00082323    0.07077353
     atom    4 type  1   force =    -0.02167552    0.00645274    0.04507052
     atom    5 type  1   force =    -0.01041109    0.10181842   -0.01799505
     atom    6 type  1   force =    -0.06644823   -0.07311164    0.00217062
     atom    7 type  1   force =     0.07280840   -0.02579970   -0.00847666
     atom    8 type  1   force =    -0.08450720   -0.03689587   -0.03486411
     atom    9 type  2   force =     0.02753459    0.01308820    0.01482676
     atom   10 type  2   force =    -0.00024574   -0.00507652    0.01924033
     atom   11 type  2   force =    -0.00067130   -0.00133547    0.00077492
     atom   12 type  2   force =    -0.00258942   -0.00871268    0.02068819
     atom   13 type  2   force =     0.04719237    0.01395442   -0.00915254
     atom   14 type  2   force =    -0.00635763   -0.03778666   -0.01651451
     atom   15 type  2   force =     0.00056388   -0.03164837    0.02877317
     atom   16 type  2   force =     0.00952418   -0.02280721    0.01394286
     atom   17 type  2   force =     0.06964847    0.05222623   -0.03180306
     atom   18 type  2   force =     0.00038095   -0.05742064   -0.05127140
     atom   19 type  2   force =    -0.01587391    0.01351444    0.01007161
     atom   20 type  2   force =    -0.00204842    0.00986914   -0.04887674
     atom   21 type  2   force =     0.02985130   -0.00540480   -0.01668818
     atom   22 type  2   force =    -0.01648517    0.01893549   -0.02171447
     atom   23 type  2   force =    -0.07114562   -0.00686063    0.04345350
     atom   24 type  2   force =     0.02557995    0.02341120    0.00750235

     Total force =     0.292746     Total SCF correction =     0.000760

     General routines

     Parallel routines

   This run was terminated on:  10:38: 0   2Dec2021

   JOB DONE.