     Program PWSCF v.6.4 starts on  4Aug2021 at 17:33: 6

     R & G space division:  proc/nbgrp/npool/nimage =      40
     Waiting for input...
     Reading input from standard input
Warning: card    &IONS ignored
Warning: card      ION_DYNAMICS = 'BFGS' ignored
Warning: card   / ignored
Warning: card    &CELL ignored
Warning: card      CELL_DYNAMICS = 'BFGS', ignored
Warning: card    / ignored

     Current dimensions of program PWSCF are:
     Max number of different atomic species (ntypx) = 10
     Max number of k-points (npk) =  40000
     Max angular momentum in pseudopotentials (lmaxx) =  3

     bravais-lattice index     =            0
     lattice parameter (alat)  =      13.1921  a.u.
     unit-cell volume          =    7075.3407 (a.u.)^3
     number of atoms/cell      =           24
     number of atomic types    =            2
     number of electrons       =       144.00
     number of Kohn-Sham states=           86
     kinetic-energy cutoff     =      45.0000  Ry
     charge density cutoff     =     360.0000  Ry
     convergence threshold     =      1.0E-06
     mixing beta               =       0.7000
     number of iterations used =            8  local-TF  mixing
     Exchange-correlation      = SLA PW GGX GGC ( 1  4  2  2 0 0)

     celldm(1)=  13.192096  celldm(2)=   0.000000  celldm(3)=   0.000000
     celldm(4)=   0.000000  celldm(5)=   0.000000  celldm(6)=   0.000000

     crystal axes: (cart. coord. in units of alat)
               a(1) = (   0.999770  -0.005367  -0.020756 )
               a(2) = (  -0.540174   0.878017   0.009004 )
               a(3) = (  -0.077816  -0.297661   3.524774 )

     reciprocal axes: (cart. coord. in units 2 pi/alat)
               b(1) = (  1.005089  0.617588  0.074343 )
               b(2) = (  0.008143  1.142948  0.096700 )
               b(3) = (  0.005898  0.000717  0.283897 )

     PseudoPot. # 1 for Mo read from file:
     ~/pseudo/Mo.pw91-n-van.UPF
     MD5 check sum: Not computed, couldn't open file
     Pseudo is Ultrasoft + core correction, Zval =  6.0
     Generated by new atomic code, or converted to UPF format
     Using radial grid of  965 points,  3 beta functions with:
                l(1) =   1
                l(2) =   2
                l(3) =   2
     Q(r) pseudized with  8 coefficients,  rinner =    1.000   1.000   1.000
                                                       1.200   1.200

     PseudoPot. # 2 for S  read from file:
     ~/pseudo/S.pw91-van_ak.UPF
     MD5 check sum: Not computed, couldn't open file
     Pseudo is Ultrasoft, Zval =  6.0
     Generated by new atomic code, or converted to UPF format
     Using radial grid of  811 points,  6 beta functions with:
                l(1) =   0
                l(2) =   0
                l(3) =   1
                l(4) =   1
                l(5) =   2
                l(6) =   2
     Q(r) pseudized with  8 coefficients,  rinner =    1.100   1.100   1.100
                                                       1.100   1.100

     atomic species   valence    mass     pseudopotential
        Mo             6.00    95.50000     Mo( 1.00)
        S              6.00    32.06500     S ( 1.00)

     No symmetry found

   Cartesian axes

     site n.     atom                  positions (alat units)
         1           Mo  tau(   1) = (   0.2409834   0.1396407   0.6205014  )
         2           Mo  tau(   2) = (  -0.0435012   0.5442474   0.5008766  )
         3           Mo  tau(   3) = (   0.7342836   0.1159644   0.4790886  )
         4           Mo  tau(   4) = (   0.5642847   0.5378260   0.6319767  )
         5           Mo  tau(   5) = (  -0.0686047   0.0757662   2.9718276  )
         6           Mo  tau(   6) = (  -0.3453819   0.5200671   2.9865359  )
         7           Mo  tau(   7) = (   0.4094268   0.0676929   2.9402088  )
         8           Mo  tau(   8) = (   0.1310754   0.5391140   2.9482499  )
         9           S   tau(   9) = (  -0.0182954  -0.0169668   0.7550180  )
        10           S   tau(  10) = (  -0.1546821   0.5920786   0.8284530  )
        11           S   tau(  11) = (   0.5540707   0.2134275   0.7714324  )
        12           S   tau(  12) = (   0.2275595   0.4627361   0.7050879  )
        13           S   tau(  13) = (  -0.0770237  -0.2186832   3.1791627  )
        14           S   tau(  14) = (  -0.3446400   0.2174392   3.1799775  )
        15           S   tau(  15) = (   0.4340682  -0.2135150   3.1735892  )
        16           S   tau(  16) = (   0.1655157   0.2298451   3.1626001  )
        17           S   tau(  17) = (   0.0470028   0.2345868   0.3403104  )
        18           S   tau(  18) = (  -0.1099833   0.8698694   0.3687143  )
        19           S   tau(  19) = (   0.6629520   0.4225977   0.3172682  )
        20           S   tau(  20) = (   0.2560048   0.6867556   0.3463112  )
        21           S   tau(  21) = (   0.1640312  -0.0829841   2.7498194  )
        22           S   tau(  22) = (  -0.1104194   0.3657070   2.7554217  )
        23           S   tau(  23) = (   0.6668869  -0.0665303   2.7180286  )
        24           S   tau(  24) = (   0.3912229   0.3680121   2.7430629  )

     number of k points=     5  Marzari-Vanderbilt smearing, width (Ry)=  0.0200
                       cart. coord. in units 2pi/alat
        k(    1) = (   0.0000000   0.0000000   0.0000000), wk =   0.2222222
        k(    2) = (   0.0027143   0.3809827   0.0322332), wk =   0.4444444
        k(    3) = (   0.3350295   0.2058627   0.0247811), wk =   0.4444444
        k(    4) = (   0.3377439   0.5868454   0.0570144), wk =   0.4444444
        k(    5) = (   0.3323152  -0.1751200  -0.0074521), wk =   0.4444444

     Initial potential from superposition of free atoms

     starting charge  143.98738, renormalised to  144.00000

     negative rho (up, down):  7.570E-04 0.000E+00
     Starting wfcs are  136 randomized atomic wfcs

     Self-consistent Calculation

     iteration #  1     ecut=    45.00 Ry     beta= 0.70
     Davidson diagonalization with overlap
     ethr =  1.00E-02,  avg # of iterations =  2.0

     negative rho (up, down):  3.488E-04 0.000E+00

     total energy              =    -561.59656345 Ry
     Harris-Foulkes estimate   =    -564.02136360 Ry
     estimated scf accuracy    <       6.58397794 Ry

[...]

     total energy              =    -562.89778396 Ry
     Harris-Foulkes estimate   =    -562.89778346 Ry
     estimated scf accuracy    <       0.00000245 Ry

     iteration # 21     ecut=    45.00 Ry     beta= 0.70
     Davidson diagonalization with overlap
     ethr =  1.70E-09,  avg # of iterations =  1.0

[...]

     End of self-consistent calculation

          k = 0.0000 0.0000 0.0000 ( 36017 PWs)   bands (ev):

   -13.8582 -13.2475 -12.9536 -12.5194 -12.5137 -12.4373 -12.3304 -12.2345
   -12.1852 -12.0981 -12.0708 -12.0071 -11.7978 -11.7415 -11.7004 -11.5665
    -5.7007  -5.1307  -5.1088  -5.0854  -5.0776  -4.9337  -4.7518  -4.6672
    -4.6318  -4.3890  -4.3770  -4.0233  -3.9649  -3.7080  -3.6541  -3.6449
    -3.6258  -3.5665  -3.4800  -3.4399  -3.3630  -3.3255  -3.2826  -3.2714
    -3.2450  -3.2376  -3.1808  -3.1152  -3.0263  -2.6374  -2.4874  -2.4321
    -2.2920  -2.1948  -1.8670  -1.8602  -1.7904  -1.6643  -1.6565  -1.5693
    -1.4022  -1.3706  -1.2310  -1.1464  -1.1190  -0.7597  -0.6320  -0.5288
    -0.5004  -0.4532  -0.3090  -0.2222  -0.1136  -0.0320   0.0072   0.1971
     0.3113   0.6234   0.6741   0.7621   0.7832   0.8718   0.9641   1.1016
     1.1820   1.4785   1.4822   1.5422   1.5936   1.6351

[...]

          k = 0.3323-0.1751-0.0075 ( 36052 PWs)   bands (ev):

   -13.6138 -13.0480 -12.9917 -12.6882 -12.5996 -12.5239 -12.4561 -12.2527
   -12.1915 -12.0804 -12.0134 -12.0129 -11.8784 -11.7990 -11.6849 -11.6429
    -5.3812  -5.2912  -4.9478  -4.7084  -4.6737  -4.6485  -4.4914  -4.4763
    -4.4103  -4.3011  -4.1992  -4.0870  -4.0259  -4.0188  -3.9696  -3.8796
    -3.8502  -3.7464  -3.4050  -3.3578  -3.2652  -3.1889  -3.1836  -3.1206
    -3.1111  -2.9967  -2.9918  -2.8421  -2.8144  -2.7549  -2.6786  -2.6031
    -2.4568  -2.4025  -2.2919  -2.1627  -2.0902  -2.0242  -1.9080  -1.7987
    -1.7309  -1.6473  -1.4582  -1.4409  -1.2098  -1.1072  -1.0050  -0.9566
    -0.4461  -0.4096  -0.3028  -0.1591   0.0848   0.1531   0.2016   0.4391
     0.6345   0.6912   0.7563   0.9304   0.9957   1.1888   1.2325   1.2648
     1.3249   1.3586   1.4417   1.4878   1.5422   1.6928

     the Fermi energy is     0.4216 ev

!    total energy              =    -562.89778312 Ry
     Harris-Foulkes estimate   =    -562.89778419 Ry
     estimated scf accuracy    <       0.00000074 Ry

     The total energy is the sum of the following terms:

     one-electron contribution =   -2504.21068484 Ry
     hartree contribution      =    1300.61827956 Ry
     xc contribution           =    -221.17393641 Ry
     ewald contribution        =     861.86720813 Ry
     smearing contrib. (-TS)   =       0.00135045 Ry

     convergence has been achieved in  21 iterations

     negative rho (up, down):  1.080E-03 0.000E+00

     Forces acting on atoms (cartesian axes, Ry/au):

     atom    1 type  1   force =     0.02046649   -0.02064774   -0.01656741
     atom    2 type  1   force =     0.01350687    0.02011184   -0.00923150
     atom    3 type  1   force =     0.01263789   -0.00530560    0.00796148
     atom    4 type  1   force =    -0.01526216   -0.02371662   -0.04273065
     atom    5 type  1   force =    -0.01224373   -0.02019351   -0.01213872
     atom    6 type  1   force =     0.01125282    0.01162146   -0.01859622
     atom    7 type  1   force =     0.00912896   -0.03436385    0.00475433
     atom    8 type  1   force =    -0.03388737    0.02444001   -0.01311147
     atom    9 type  2   force =    -0.00504956    0.00821340    0.00147986
     atom   10 type  2   force =    -0.01709614    0.02108848   -0.03298326
     atom   11 type  2   force =     0.00663376    0.00050085   -0.01734889
     atom   12 type  2   force =    -0.00811422   -0.01606969    0.01931311
     atom   13 type  2   force =     0.01254124    0.00656453   -0.01527213
     atom   14 type  2   force =     0.01469551    0.00260441   -0.02398147
     atom   15 type  2   force =     0.00042083    0.00983229   -0.00057717
     atom   16 type  2   force =     0.00905110    0.00372216   -0.01421801
     atom   17 type  2   force =    -0.00733128    0.01117274    0.02352452
     atom   18 type  2   force =    -0.00869225   -0.00240719    0.01360888
     atom   19 type  2   force =     0.00272648    0.00992524    0.03568072
     atom   20 type  2   force =     0.00549570   -0.00260233    0.01619335
     atom   21 type  2   force =    -0.00786134   -0.00050011    0.00085453
     atom   22 type  2   force =     0.00123930   -0.00205296    0.02306111
     atom   23 type  2   force =    -0.00013622    0.00050733    0.03237824
     atom   24 type  2   force =    -0.00412269   -0.00244515    0.03794676

     Total force =     0.139853     Total SCF correction =     0.001491

     General routines

     Parallel routines

   This run was terminated on:  17:34:43   4Aug2021

   JOB DONE.