     Program PWSCF v.6.4 starts on 17Nov2021 at 10:33:57

     R & G space division:  proc/nbgrp/npool/nimage =      40
     Waiting for input...
     Reading input from standard input
Warning: card    &IONS ignored
Warning: card      ION_DYNAMICS = 'BFGS' ignored
Warning: card   / ignored
Warning: card    &CELL ignored
Warning: card      CELL_DYNAMICS = 'BFGS', ignored
Warning: card    / ignored

     Current dimensions of program PWSCF are:
     Max number of different atomic species (ntypx) = 10
     Max number of k-points (npk) =  40000
     Max angular momentum in pseudopotentials (lmaxx) =  3

     bravais-lattice index     =            0
     lattice parameter (alat)  =      11.8619  a.u.
     unit-cell volume          =    4042.3756 (a.u.)^3
     number of atoms/cell      =           18
     number of atomic types    =            2
     number of electrons       =       108.00
     number of Kohn-Sham states=           65
     kinetic-energy cutoff     =      45.0000  Ry
     charge density cutoff     =     360.0000  Ry
     convergence threshold     =      1.0E-06
     mixing beta               =       0.7000
     number of iterations used =            8  local-TF  mixing
     Exchange-correlation      = SLA PW GGX GGC ( 1  4  2  2 0 0)

     celldm(1)=  11.861947  celldm(2)=   0.000000  celldm(3)=   0.000000
     celldm(4)=   0.000000  celldm(5)=   0.000000  celldm(6)=   0.000000

     crystal axes: (cart. coord. in units of alat)
               a(1) = (   1.000000   0.000000   0.000000 )
               a(2) = (  -0.501940   0.900251   0.000000 )
               a(3) = (  -0.323921  -0.288977   2.690328 )

     reciprocal axes: (cart. coord. in units 2 pi/alat)
               b(1) = (  1.000000  0.557555  0.180291 )
               b(2) = (  0.000000  1.110802  0.119315 )
               b(3) = (  0.000000  0.000000  0.371702 )

     PseudoPot. # 1 for Mo read from file:
     ~/pseudo/Mo.pw91-n-van.UPF
     MD5 check sum: Not computed, couldn't open file
     Pseudo is Ultrasoft + core correction, Zval =  6.0
     Generated by new atomic code, or converted to UPF format
     Using radial grid of  965 points,  3 beta functions with:
                l(1) =   1
                l(2) =   2
                l(3) =   2
     Q(r) pseudized with  8 coefficients,  rinner =    1.000   1.000   1.000
                                                       1.200   1.200

     PseudoPot. # 2 for S  read from file:
     ~/pseudo/S.pw91-van_ak.UPF
     MD5 check sum: Not computed, couldn't open file
     Pseudo is Ultrasoft, Zval =  6.0
     Generated by new atomic code, or converted to UPF format
     Using radial grid of  811 points,  6 beta functions with:
                l(1) =   0
                l(2) =   0
                l(3) =   1
                l(4) =   1
                l(5) =   2
                l(6) =   2
     Q(r) pseudized with  8 coefficients,  rinner =    1.100   1.100   1.100
                                                       1.100   1.100

     atomic species   valence    mass     pseudopotential
        Mo             6.00    95.50000     Mo( 1.00)
        S              6.00    32.06500     S ( 1.00)

     No symmetry found

   Cartesian axes

     site n.     atom                  positions (alat units)
         1           Mo  tau(   1) = (   0.2275283  -0.1114285   1.7301541  )
         2           Mo  tau(   2) = (  -0.0236470   0.3386172   1.7301629  )
         3           Mo  tau(   3) = (   0.7275215  -0.1114386   1.7300872  )
         4           Mo  tau(   4) = (   0.4763317   0.3386158   1.7301710  )
         5           Mo  tau(   5) = (  -0.5630987   0.6951222   0.5941462  )
         6           Mo  tau(   6) = (  -0.0730832   0.6951119   0.5941951  )
         7           S   tau(   7) = (  -0.0226971   0.0405856   1.9826187  )
         8           S   tau(   8) = (  -0.2739282   0.4907873   1.9825313  )
         9           S   tau(   9) = (   0.4773428   0.0405859   1.9826256  )
        10           S   tau(  10) = (   0.2260526   0.4908154   1.9824950  )
        11           S   tau(  11) = (  -0.3181278   0.6312717   0.8684331  )
        12           S   tau(  12) = (   0.1819325   0.6725671   0.8680484  )
        13           S   tau(  13) = (  -0.0227611   0.0405603   1.4776102  )
        14           S   tau(  14) = (  -0.2738108   0.4906827   1.4778749  )
        15           S   tau(  15) = (   0.4772121   0.0405663   1.4776070  )
        16           S   tau(  16) = (   0.2261959   0.4906558   1.4777343  )
        17           S   tau(  17) = (  -0.3181581   0.4864448   0.4022643  )
        18           S   tau(  18) = (   0.1817636   0.5150769   0.3865798  )

     number of k points=     5  Marzari-Vanderbilt smearing, width (Ry)=  0.0200
                       cart. coord. in units 2pi/alat
        k(    1) = (   0.0000000   0.0000000   0.0000000), wk =   0.2222222
        k(    2) = (   0.0000000   0.3702672   0.0397716), wk =   0.4444444
        k(    3) = (   0.3333333   0.1858518   0.0600969), wk =   0.4444444
        k(    4) = (   0.3333333   0.5561190   0.0998686), wk =   0.4444444
        k(    5) = (   0.3333333  -0.1844154   0.0203253), wk =   0.4444444

     Initial potential from superposition of free atoms

     starting charge  107.99054, renormalised to  108.00000
     Starting wfcs are  102 randomized atomic wfcs

     Self-consistent Calculation

     iteration #  1     ecut=    45.00 Ry     beta= 0.70
     Davidson diagonalization with overlap
     ethr =  1.00E-02,  avg # of iterations =  2.0

     total energy              =    -421.57711619 Ry
     Harris-Foulkes estimate   =    -423.08133897 Ry
     estimated scf accuracy    <       3.96785093 Ry

[...]

     negative rho (up, down):  2.384E-05 0.000E+00

[...]

     iteration # 14     ecut=    45.00 Ry     beta= 0.70
     Davidson diagonalization with overlap
     c_bands:  1 eigenvalues not converged
     ethr =  2.80E-06,  avg # of iterations = 17.6

[...]

     iteration # 18     ecut=    45.00 Ry     beta= 0.70
     Davidson diagonalization with overlap
     c_bands:  1 eigenvalues not converged
     ethr =  1.45E-06,  avg # of iterations = 10.0

[...]

     total energy              =    -422.31681531 Ry
     Harris-Foulkes estimate   =    -422.31681747 Ry
     estimated scf accuracy    <       0.00000945 Ry

     iteration # 28     ecut=    45.00 Ry     beta= 0.70
     Davidson diagonalization with overlap
     ethr =  8.75E-09,  avg # of iterations =  1.0

[...]

     End of self-consistent calculation

          k = 0.0000 0.0000 0.0000 ( 20561 PWs)   bands (ev):

   -12.2045 -11.0505 -11.0138 -10.5062 -10.3747 -10.3665 -10.2818 -10.1244
   -10.1166 -10.1152  -9.8568  -9.8255  -3.8750  -3.8232  -3.8185  -3.6879
    -2.9308  -2.9275  -2.8623  -2.8241  -2.7499  -2.2100  -2.1800  -2.1705
    -2.0977  -1.4605  -1.4021  -1.3782  -1.3551  -1.3268  -0.9816  -0.9165
    -0.7392  -0.5108  -0.4642  -0.1657  -0.0631  -0.0087  -0.0050   0.0816
     0.2851   0.4747   0.5396   0.7138   0.8069   0.8295   1.0395   1.1744
     1.2291   1.2435   1.4570   1.6095   1.8181   1.9169   2.2131   2.7399
     2.9486   3.2714   3.7922   3.8611   3.8695   3.9084   4.0552   4.3630
     4.4835

[...]

          k = 0.3333-0.1844 0.0203 ( 20579 PWs)   bands (ev):

   -11.8232 -10.9288 -10.8322 -10.7780 -10.4977 -10.4294 -10.3879 -10.2279
   -10.1798 -10.1426 -10.0442  -9.9104  -3.3792  -3.3334  -3.2842  -3.2713
    -2.9583  -2.9047  -2.3771  -2.2831  -2.2695  -2.2192  -1.9992  -1.9843
    -1.9306  -1.6512  -1.4052  -1.3824  -1.3659  -1.2214  -1.1518  -1.0464
    -0.9576  -0.6679  -0.5777  -0.4752  -0.3959  -0.3783  -0.2213  -0.0751
     0.0399   0.0713   0.0919   0.2309   0.4332   0.5602   0.7901   0.8744
     0.9165   1.3570   1.4050   1.4221   1.5093   1.5650   2.2793   2.5778
     3.2223   3.5249   3.8424   3.9009   3.9039   3.9869   4.0469   4.1155
     4.1712

     the Fermi energy is     1.9100 ev

!    total energy              =    -422.31681585 Ry
     Harris-Foulkes estimate   =    -422.31681658 Ry
     estimated scf accuracy    <       0.00000081 Ry

     The total energy is the sum of the following terms:

     one-electron contribution =    -698.15818081 Ry
     hartree contribution      =     393.16188235 Ry
     xc contribution           =    -166.64462610 Ry
     ewald contribution        =      49.30871925 Ry
     smearing contrib. (-TS)   =       0.01538947 Ry

     convergence has been achieved in  28 iterations

     negative rho (up, down):  8.409E-08 0.000E+00

     Forces acting on atoms (cartesian axes, Ry/au):

     atom    1 type  1   force =     0.00002919   -0.00003002    0.00007365
     atom    2 type  1   force =    -0.00000307   -0.00014351    0.00037616
     atom    3 type  1   force =     0.00004906   -0.00002528    0.00009759
     atom    4 type  1   force =     0.00001894   -0.00012504    0.00037082
     atom    5 type  1   force =    -0.00161449    0.00085115   -0.00114794
     atom    6 type  1   force =     0.00165607    0.00076828   -0.00112980
     atom    7 type  2   force =     0.00008291   -0.00019782    0.00000735
     atom    8 type  2   force =     0.00002967    0.00006468    0.00025394
     atom    9 type  2   force =     0.00007464   -0.00018408    0.00000768
     atom   10 type  2   force =     0.00004757    0.00004806    0.00029519
     atom   11 type  2   force =    -0.00018977    0.00417924   -0.00113548
     atom   12 type  2   force =    -0.00010191   -0.00237544   -0.00220078
     atom   13 type  2   force =     0.00002020   -0.00012629   -0.00001068
     atom   14 type  2   force =    -0.00003629   -0.00013071    0.00047555
     atom   15 type  2   force =     0.00001156   -0.00012289    0.00004383
     atom   16 type  2   force =    -0.00005513   -0.00014386    0.00056433
     atom   17 type  2   force =     0.00001566    0.00154819    0.00058594
     atom   18 type  2   force =    -0.00003481   -0.00385465    0.00247263

     Total force =     0.007966     Total SCF correction =     0.001803
     SCF correction compared to forces is large: reduce conv_thr to get better values

     General routines

     Parallel routines

   This run was terminated on:  10:35: 8  17Nov2021

   JOB DONE.