     Program PWSCF v.6.4 starts on  8Sep2021 at 12: 6:53

     R & G space division:  proc/nbgrp/npool/nimage =      40
     Waiting for input...
     Reading input from standard input
Warning: card    &IONS ignored
Warning: card      ION_DYNAMICS = 'BFGS' ignored
Warning: card   / ignored
Warning: card    &CELL ignored
Warning: card      CELL_DYNAMICS = 'BFGS', ignored
Warning: card    / ignored

     Current dimensions of program PWSCF are:
     Max number of different atomic species (ntypx) = 10
     Max number of k-points (npk) =  40000
     Max angular momentum in pseudopotentials (lmaxx) =  3

     bravais-lattice index     =            0
     lattice parameter (alat)  =      13.2147  a.u.
     unit-cell volume          =    6503.9350 (a.u.)^3
     number of atoms/cell      =           24
     number of atomic types    =            2
     number of electrons       =       144.00
     number of Kohn-Sham states=           86
     kinetic-energy cutoff     =      45.0000  Ry
     charge density cutoff     =     360.0000  Ry
     convergence threshold     =      1.0E-06
     mixing beta               =       0.7000
     number of iterations used =            8  local-TF  mixing
     Exchange-correlation      = SLA PW GGX GGC ( 1  4  2  2 0 0)

     celldm(1)=  13.214721  celldm(2)=   0.000000  celldm(3)=   0.000000
     celldm(4)=   0.000000  celldm(5)=   0.000000  celldm(6)=   0.000000

     crystal axes: (cart. coord. in units of alat)
               a(1) = (   0.999330   0.000870   0.036602 )
               a(2) = (  -0.474832   0.768661   0.035876 )
               a(3) = (   0.136747  -0.185649   3.659260 )

     reciprocal axes: (cart. coord. in units 2 pi/alat)
               b(1) = (  1.000353  0.618238 -0.006018 )
               b(2) = ( -0.003540  1.295702  0.065868 )
               b(3) = ( -0.009971 -0.018887  0.272694 )

     PseudoPot. # 1 for Mo read from file:
     ~/pseudo/Mo.pw91-n-van.UPF
     MD5 check sum: Not computed, couldn't open file
     Pseudo is Ultrasoft + core correction, Zval =  6.0
     Generated by new atomic code, or converted to UPF format
     Using radial grid of  965 points,  3 beta functions with:
                l(1) =   1
                l(2) =   2
                l(3) =   2
     Q(r) pseudized with  8 coefficients,  rinner =    1.000   1.000   1.000
                                                       1.200   1.200

     PseudoPot. # 2 for S  read from file:
     ~/pseudo/S.pw91-van_ak.UPF
     MD5 check sum: Not computed, couldn't open file
     Pseudo is Ultrasoft, Zval =  6.0
     Generated by new atomic code, or converted to UPF format
     Using radial grid of  811 points,  6 beta functions with:
                l(1) =   0
                l(2) =   0
                l(3) =   1
                l(4) =   1
                l(5) =   2
                l(6) =   2
     Q(r) pseudized with  8 coefficients,  rinner =    1.100   1.100   1.100
                                                       1.100   1.100

     atomic species   valence    mass     pseudopotential
        Mo             6.00    95.50000     Mo( 1.00)
        S              6.00    32.06500     S ( 1.00)

     No symmetry found

   Cartesian axes

     site n.     atom                  positions (alat units)
         1           Mo  tau(   1) = (   0.3835237   0.1585553   0.6509561  )
         2           Mo  tau(   2) = (   0.1132246   0.5118580   0.5788636  )
         3           Mo  tau(   3) = (   0.8021387   0.1130182   0.5895522  )
         4           Mo  tau(   4) = (   0.5928323   0.4997385   0.6683424  )
         5           Mo  tau(   5) = (   0.0664983   0.0920580   3.1132852  )
         6           Mo  tau(   6) = (  -0.1778617   0.4901810   3.1397672  )
         7           Mo  tau(   7) = (   0.5713192   0.1034270   3.0723489  )
         8           Mo  tau(   8) = (   0.3376851   0.4827213   3.1092818  )
         9           S   tau(   9) = (   0.0547621   0.0397534   0.7721523  )
        10           S   tau(  10) = (  -0.1015872   0.5944671   0.8352255  )
        11           S   tau(  11) = (   0.6415848   0.2084427   0.8713295  )
        12           S   tau(  12) = (   0.3026342   0.4184279   0.8558248  )
        13           S   tau(  13) = (   0.2649417  -0.0342482   3.3554966  )
        14           S   tau(  14) = (   0.0438773   0.3428103   3.3514056  )
        15           S   tau(  15) = (   0.7908783  -0.0356580   3.3013506  )
        16           S   tau(  16) = (   0.5486533   0.3255027   3.3301194  )
        17           S   tau(  17) = (   0.0671362   0.2466547   0.3810785  )
        18           S   tau(  18) = (  -0.1588949   0.6643684   0.4428091  )
        19           S   tau(  19) = (   0.5523916   0.2717206   0.3834879  )
        20           S   tau(  20) = (   0.3255648   0.6673708   0.3772978  )
        21           S   tau(  21) = (   0.3006025  -0.0120668   2.8862898  )
        22           S   tau(  22) = (   0.0639801   0.3816118   2.9220576  )
        23           S   tau(  23) = (   0.8246431  -0.0089589   2.8666741  )
        24           S   tau(  24) = (   0.6046188   0.3992397   2.8968182  )

     number of k points=     5  Marzari-Vanderbilt smearing, width (Ry)=  0.0200
                       cart. coord. in units 2pi/alat
        k(    1) = (   0.0000000   0.0000000   0.0000000), wk =   0.2222222
        k(    2) = (  -0.0011801   0.4319005   0.0219561), wk =   0.4444444
        k(    3) = (   0.3334511   0.2060793  -0.0020059), wk =   0.4444444
        k(    4) = (   0.3322709   0.6379798   0.0199503), wk =   0.4444444
        k(    5) = (   0.3346312  -0.2258212  -0.0239620), wk =   0.4444444

     Initial potential from superposition of free atoms

     starting charge  143.98738, renormalised to  144.00000

     negative rho (up, down):  7.733E-04 0.000E+00
     Starting wfcs are  136 randomized atomic wfcs

     Self-consistent Calculation

     iteration #  1     ecut=    45.00 Ry     beta= 0.70
     Davidson diagonalization with overlap
     ethr =  1.00E-02,  avg # of iterations =  2.2

     negative rho (up, down):  6.963E-05 0.000E+00

     total energy              =    -562.16290427 Ry
     Harris-Foulkes estimate   =    -564.02351461 Ry
     estimated scf accuracy    <       4.82219109 Ry

[...]

     iteration # 10     ecut=    45.00 Ry     beta= 0.70
     Davidson diagonalization with overlap
     c_bands:  2 eigenvalues not converged
     ethr =  1.06E-06,  avg # of iterations = 11.4

[...]

     total energy              =    -563.13013809 Ry
     Harris-Foulkes estimate   =    -563.13013808 Ry
     estimated scf accuracy    <       0.00000178 Ry

     iteration # 17     ecut=    45.00 Ry     beta= 0.70
     Davidson diagonalization with overlap
     ethr =  1.23E-09,  avg # of iterations =  2.2

[...]

     End of self-consistent calculation

          k = 0.0000 0.0000 0.0000 ( 33141 PWs)   bands (ev):

   -13.7983 -13.3749 -12.7010 -12.4154 -12.2480 -12.0708 -11.9678 -11.9515
   -11.9105 -11.8483 -11.8149 -11.7273 -11.4820 -11.3659 -11.2150 -11.1033
    -5.6981  -5.3225  -5.0834  -4.9633  -4.8393  -4.7951  -4.7358  -4.6835
    -4.4635  -4.3521  -4.1366  -4.0641  -3.9564  -3.9461  -3.8885  -3.7706
    -3.5140  -3.5061  -3.3875  -3.3371  -3.0664  -2.8977  -2.7727  -2.7336
    -2.6736  -2.5958  -2.5658  -2.4742  -2.2376  -2.2262  -2.0255  -1.7777
    -1.7347  -1.5534  -1.5352  -1.4391  -1.3971  -1.3005  -1.1587  -1.0862
    -0.9985  -0.9292  -0.9184  -0.6836  -0.6102  -0.4955  -0.4253  -0.4040
    -0.3372  -0.1181   0.0653   0.1480   0.3605   0.5331   0.7140   0.7834
     0.9868   1.4991   1.6238   1.7274   2.0196   2.0542   2.2225   2.3269
     2.3906   2.4578   2.4688   2.6475   2.7330   2.7416

          k =-0.0012 0.4319 0.0220 ( 33163 PWs)   bands (ev):

[...]

          k = 0.3346-0.2258-0.0240 ( 33158 PWs)   bands (ev):

   -13.4934 -13.0512 -12.7017 -12.6151 -12.3238 -12.2574 -12.1385 -12.0678
   -11.9276 -11.8959 -11.8141 -11.7857 -11.5193 -11.3889 -11.1912 -11.1715
    -5.1811  -4.9166  -4.7343  -4.6286  -4.6176  -4.5654  -4.4639  -4.3607
    -4.3535  -4.2554  -4.1878  -4.0658  -4.0569  -3.8660  -3.7125  -3.6539
    -3.5593  -3.3600  -3.2776  -3.2644  -3.0759  -3.0357  -2.9360  -2.7150
    -2.7054  -2.6810  -2.5167  -2.4415  -2.3849  -2.2292  -2.1856  -2.1654
    -2.0131  -1.9941  -1.8379  -1.7667  -1.5743  -1.4730  -1.3300  -1.3183
    -1.2632  -1.0433  -1.0273  -0.9476  -0.7139  -0.6536  -0.5495  -0.5122
    -0.3438  -0.2180  -0.0300   0.1123   0.2545   0.3418   0.4110   0.7637
     1.1901   1.2897   1.4129   2.0052   2.0967   2.2544   2.2887   2.3399
     2.3873   2.4126   2.4690   2.5544   2.6529   2.8202

     the Fermi energy is     0.8310 ev

!    total energy              =    -563.13014025 Ry
     Harris-Foulkes estimate   =    -563.13013826 Ry
     estimated scf accuracy    <       0.00000063 Ry

     The total energy is the sum of the following terms:

     one-electron contribution =   -2964.68698385 Ry
     hartree contribution      =    1533.16069345 Ry
     xc contribution           =    -222.43035181 Ry
     ewald contribution        =    1090.81642415 Ry
     smearing contrib. (-TS)   =       0.01007781 Ry

     convergence has been achieved in  17 iterations

     negative rho (up, down):  1.086E-03 0.000E+00

     Forces acting on atoms (cartesian axes, Ry/au):

     atom    1 type  1   force =    -0.05159629   -0.05844395   -0.00753045
     atom    2 type  1   force =    -0.01050281   -0.01093193    0.00646946
     atom    3 type  1   force =     0.00467309    0.03146716   -0.01580960
     atom    4 type  1   force =     0.02367405   -0.04386812   -0.00298798
     atom    5 type  1   force =    -0.06180354    0.05487259   -0.03935168
     atom    6 type  1   force =    -0.04041521   -0.00913096   -0.01677072
     atom    7 type  1   force =    -0.02098029   -0.01525597    0.04722571
     atom    8 type  1   force =    -0.04503007    0.00384072    0.01942091
     atom    9 type  2   force =     0.00552539    0.01459491    0.01802723
     atom   10 type  2   force =    -0.01865913    0.00877011    0.02282087
     atom   11 type  2   force =    -0.01172511    0.00871830    0.00562357
     atom   12 type  2   force =    -0.02209317    0.02589574    0.01134223
     atom   13 type  2   force =     0.05132744   -0.02058599   -0.03748142
     atom   14 type  2   force =     0.04818223    0.00822140    0.00218073
     atom   15 type  2   force =    -0.01114951   -0.02215148    0.03972087
     atom   16 type  2   force =     0.02129402    0.01995289    0.01998521
     atom   17 type  2   force =     0.02353940    0.00930613   -0.01056934
     atom   18 type  2   force =    -0.01577147    0.01648084   -0.04019423
     atom   19 type  2   force =     0.03853903    0.03535441    0.02348734
     atom   20 type  2   force =     0.03343033   -0.03715191   -0.01287680
     atom   21 type  2   force =     0.02961029    0.01027144   -0.01381615
     atom   22 type  2   force =     0.02213889   -0.01742398   -0.04116337
     atom   23 type  2   force =     0.01780528    0.01042037    0.01221837
     atom   24 type  2   force =    -0.01001286   -0.02322273    0.01002924

     Total force =     0.230271     Total SCF correction =     0.001749

     General routines

     Parallel routines

   This run was terminated on:  12: 8:11   8Sep2021

   JOB DONE.