     Program PWSCF v.6.4 starts on  8Sep2021 at 12: 8:12

     R & G space division:  proc/nbgrp/npool/nimage =      40
     Waiting for input...
     Reading input from standard input
Warning: card    &IONS ignored
Warning: card      ION_DYNAMICS = 'BFGS' ignored
Warning: card   / ignored
Warning: card    &CELL ignored
Warning: card      CELL_DYNAMICS = 'BFGS', ignored
Warning: card    / ignored

     Current dimensions of program PWSCF are:
     Max number of different atomic species (ntypx) = 10
     Max number of k-points (npk) =  40000
     Max angular momentum in pseudopotentials (lmaxx) =  3

     bravais-lattice index     =            0
     lattice parameter (alat)  =      12.6487  a.u.
     unit-cell volume          =    4788.4342 (a.u.)^3
     number of atoms/cell      =           36
     number of atomic types    =            2
     number of electrons       =       216.00
     number of Kohn-Sham states=          130
     kinetic-energy cutoff     =      45.0000  Ry
     charge density cutoff     =     360.0000  Ry
     convergence threshold     =      1.0E-06
     mixing beta               =       0.7000
     number of iterations used =            8  local-TF  mixing
     Exchange-correlation      = SLA PW GGX GGC ( 1  4  2  2 0 0)

     celldm(1)=  12.648672  celldm(2)=   0.000000  celldm(3)=   0.000000
     celldm(4)=   0.000000  celldm(5)=   0.000000  celldm(6)=   0.000000

     crystal axes: (cart. coord. in units of alat)
               a(1) = (   0.998668   0.049446  -0.014767 )
               a(2) = (  -0.246983   0.404342   0.005948 )
               a(3) = (  -1.119401  -3.065257   5.687823 )

     reciprocal axes: (cart. coord. in units 2 pi/alat)
               b(1) = (  0.979639  0.590868  0.511227 )
               b(2) = ( -0.099726  2.393550  1.270295 )
               b(3) = (  0.002648 -0.000969  0.175813 )

     PseudoPot. # 1 for Mo read from file:
     ~/pseudo/Mo.pw91-n-van.UPF
     MD5 check sum: Not computed, couldn't open file
     Pseudo is Ultrasoft + core correction, Zval =  6.0
     Generated by new atomic code, or converted to UPF format
     Using radial grid of  965 points,  3 beta functions with:
                l(1) =   1
                l(2) =   2
                l(3) =   2
     Q(r) pseudized with  8 coefficients,  rinner =    1.000   1.000   1.000
                                                       1.200   1.200

     PseudoPot. # 2 for S  read from file:
     ~/pseudo/S.pw91-van_ak.UPF
     MD5 check sum: Not computed, couldn't open file
     Pseudo is Ultrasoft, Zval =  6.0
     Generated by new atomic code, or converted to UPF format
     Using radial grid of  811 points,  6 beta functions with:
                l(1) =   0
                l(2) =   0
                l(3) =   1
                l(4) =   1
                l(5) =   2
                l(6) =   2
     Q(r) pseudized with  8 coefficients,  rinner =    1.100   1.100   1.100
                                                       1.100   1.100

     atomic species   valence    mass     pseudopotential
        Mo             6.00    95.50000     Mo( 1.00)
        S              6.00    32.06500     S ( 1.00)

     No symmetry found

   Cartesian axes

     site n.     atom                  positions (alat units)
         1           Mo  tau(   1) = (   0.2199523  -0.1879868   0.9526322  )
         2           Mo  tau(   2) = (  -0.5298183  -1.8853289   3.7535254  )
         3           Mo  tau(   3) = (   0.8034476  -0.1340058   0.9509681  )
         4           Mo  tau(   4) = (  -0.0986440  -1.9027994   3.8568323  )
         5           Mo  tau(   5) = (  -0.2638355  -0.7798509   1.8658746  )
         6           Mo  tau(   6) = (  -1.0403374  -2.2094968   4.7346489  )
         7           Mo  tau(   7) = (   0.1588060  -0.8045604   1.8403794  )
         8           Mo  tau(   8) = (  -0.4601330  -2.1378997   4.7494327  )
         9           Mo  tau(   9) = (  -0.5109294  -1.6042817   2.8370781  )
        10           Mo  tau(  10) = (  -1.2582937  -3.0969655   5.7239559  )
        11           Mo  tau(  11) = (   0.0542286  -1.5694400   2.8420306  )
        12           Mo  tau(  12) = (  -0.7278415  -3.0587898   5.6490466  )
        13           S   tau(  13) = (  -0.1388254   0.2411841   0.2578448  )
        14           S   tau(  14) = (  -0.7235865  -1.4582153   3.0942372  )
        15           S   tau(  15) = (   0.3472084   0.2557151   0.2274954  )
        16           S   tau(  16) = (  -0.2274104  -1.4623106   3.0651196  )
        17           S   tau(  17) = (  -0.0043127  -0.3420660   0.7032794  )
        18           S   tau(  18) = (  -0.8629620  -1.8084582   3.6173039  )
        19           S   tau(  19) = (   0.5052576  -0.2902211   0.7340638  )
        20           S   tau(  20) = (  -0.2551585  -1.9907673   3.5434247  )
        21           S   tau(  21) = (  -0.2392070  -0.4863977   1.1751126  )
        22           S   tau(  22) = (  -0.7673220  -2.0293444   4.0113696  )
        23           S   tau(  23) = (   0.2738160  -0.4373107   1.2101557  )
        24           S   tau(  24) = (  -0.1284097  -2.2014351   4.0580263  )
        25           S   tau(  25) = (  -0.3147320  -1.0895633   1.6523515  )
        26           S   tau(  26) = (  -0.5099976  -2.4403584   4.5366468  )
        27           S   tau(  27) = (   0.1924849  -1.0634025   1.5846150  )
        28           S   tau(  28) = (  -0.0042673  -2.4127570   4.4660461  )
        29           S   tau(  29) = (  -0.0502551  -0.9350394   2.1143935  )
        30           S   tau(  30) = (  -0.7389297  -2.3122435   4.9380440  )
        31           S   tau(  31) = (   0.4564895  -0.9084481   2.0493365  )
        32           S   tau(  32) = (  -0.2478066  -2.2910802   5.0000387  )
        33           S   tau(  33) = (  -0.4764426  -1.3019882   2.6184986  )
        34           S   tau(  34) = (  -1.2946186  -2.5771644   5.4705809  )
        35           S   tau(  35) = (   0.0218348  -1.3080074   2.5885083  )
        36           S   tau(  36) = (  -0.6994431  -2.7609895   5.4327736  )

     number of k points=    10  Marzari-Vanderbilt smearing, width (Ry)=  0.0200
                       cart. coord. in units 2pi/alat
        k(    1) = (   0.0000000   0.0000000   0.0000000), wk =   0.1111111
        k(    2) = (  -0.0166210   0.3989250   0.2117159), wk =   0.2222222
        k(    3) = (  -0.0332420   0.7978501   0.4234317), wk =   0.2222222
        k(    4) = (   0.0498630  -1.1967751  -0.6351476), wk =   0.1111111
        k(    5) = (   0.3265462   0.1969560   0.1704091), wk =   0.2222222
        k(    6) = (   0.3099252   0.5958810   0.3821250), wk =   0.2222222
        k(    7) = (   0.2933041   0.9948061   0.5938408), wk =   0.2222222
        k(    8) = (   0.3764092  -0.9998191  -0.4647385), wk =   0.2222222
        k(    9) = (   0.3597882  -0.6008941  -0.2530226), wk =   0.2222222
        k(   10) = (   0.3431672  -0.2019690  -0.0413067), wk =   0.2222222

     Initial potential from superposition of free atoms

     starting charge  215.98107, renormalised to  216.00000
     Starting wfcs are  204 randomized atomic wfcs

     Self-consistent Calculation

     iteration #  1     ecut=    45.00 Ry     beta= 0.70
     Davidson diagonalization with overlap
     ethr =  1.00E-02,  avg # of iterations =  2.0

     total energy              =    -843.28236321 Ry
     Harris-Foulkes estimate   =    -846.25334180 Ry
     estimated scf accuracy    <       9.85467474 Ry

[...]

     iteration #  6     ecut=    45.00 Ry     beta= 0.70
     Davidson diagonalization with overlap

     Program PWSCF v.6.4 starts on  8Sep2021 at 12:40:17

     R & G space division:  proc/nbgrp/npool/nimage =      40
     Waiting for input...
     Reading input from standard input
Warning: card    &IONS ignored
Warning: card      ION_DYNAMICS = 'BFGS' ignored
Warning: card   / ignored
Warning: card    &CELL ignored
Warning: card      CELL_DYNAMICS = 'BFGS', ignored
Warning: card    / ignored

     Current dimensions of program PWSCF are:
     Max number of different atomic species (ntypx) = 10
     Max number of k-points (npk) =  40000
     Max angular momentum in pseudopotentials (lmaxx) =  3

     bravais-lattice index     =            0
     lattice parameter (alat)  =      12.6487  a.u.
     unit-cell volume          =    4788.4342 (a.u.)^3
     number of atoms/cell      =           36
     number of atomic types    =            2
     number of electrons       =       216.00
     number of Kohn-Sham states=          130
     kinetic-energy cutoff     =      45.0000  Ry
     charge density cutoff     =     360.0000  Ry
     convergence threshold     =      1.0E-06
     mixing beta               =       0.7000
     number of iterations used =            8  local-TF  mixing
     Exchange-correlation      = SLA PW GGX GGC ( 1  4  2  2 0 0)

     celldm(1)=  12.648672  celldm(2)=   0.000000  celldm(3)=   0.000000
     celldm(4)=   0.000000  celldm(5)=   0.000000  celldm(6)=   0.000000

     crystal axes: (cart. coord. in units of alat)
               a(1) = (   0.998668   0.049446  -0.014767 )
               a(2) = (  -0.246983   0.404342   0.005948 )
               a(3) = (  -1.119401  -3.065257   5.687823 )

     reciprocal axes: (cart. coord. in units 2 pi/alat)
               b(1) = (  0.979639  0.590868  0.511227 )
               b(2) = ( -0.099726  2.393550  1.270295 )
               b(3) = (  0.002648 -0.000969  0.175813 )

     PseudoPot. # 1 for Mo read from file:
     ~/pseudo/Mo.pw91-n-van.UPF
     MD5 check sum: Not computed, couldn't open file
     Pseudo is Ultrasoft + core correction, Zval =  6.0
     Generated by new atomic code, or converted to UPF format
     Using radial grid of  965 points,  3 beta functions with:
                l(1) =   1
                l(2) =   2
                l(3) =   2
     Q(r) pseudized with  8 coefficients,  rinner =    1.000   1.000   1.000
                                                       1.200   1.200

     PseudoPot. # 2 for S  read from file:
     ~/pseudo/S.pw91-van_ak.UPF
     MD5 check sum: Not computed, couldn't open file
     Pseudo is Ultrasoft, Zval =  6.0
     Generated by new atomic code, or converted to UPF format
     Using radial grid of  811 points,  6 beta functions with:
                l(1) =   0
                l(2) =   0
                l(3) =   1
                l(4) =   1
                l(5) =   2
                l(6) =   2
     Q(r) pseudized with  8 coefficients,  rinner =    1.100   1.100   1.100
                                                       1.100   1.100

     atomic species   valence    mass     pseudopotential
        Mo             6.00    95.50000     Mo( 1.00)
        S              6.00    32.06500     S ( 1.00)

     No symmetry found

   Cartesian axes

     site n.     atom                  positions (alat units)
         1           Mo  tau(   1) = (   0.2199523  -0.1879868   0.9526322  )
         2           Mo  tau(   2) = (  -0.5298183  -1.8853289   3.7535254  )
         3           Mo  tau(   3) = (   0.8034476  -0.1340058   0.9509681  )
         4           Mo  tau(   4) = (  -0.0986440  -1.9027994   3.8568323  )
         5           Mo  tau(   5) = (  -0.2638355  -0.7798509   1.8658746  )
         6           Mo  tau(   6) = (  -1.0403374  -2.2094968   4.7346489  )
         7           Mo  tau(   7) = (   0.1588060  -0.8045604   1.8403794  )
         8           Mo  tau(   8) = (  -0.4601330  -2.1378997   4.7494327  )
         9           Mo  tau(   9) = (  -0.5109294  -1.6042817   2.8370781  )
        10           Mo  tau(  10) = (  -1.2582937  -3.0969655   5.7239559  )
        11           Mo  tau(  11) = (   0.0542286  -1.5694400   2.8420306  )
        12           Mo  tau(  12) = (  -0.7278415  -3.0587898   5.6490466  )
        13           S   tau(  13) = (  -0.1388254   0.2411841   0.2578448  )
        14           S   tau(  14) = (  -0.7235865  -1.4582153   3.0942372  )
        15           S   tau(  15) = (   0.3472084   0.2557151   0.2274954  )
        16           S   tau(  16) = (  -0.2274104  -1.4623106   3.0651196  )
        17           S   tau(  17) = (  -0.0043127  -0.3420660   0.7032794  )
        18           S   tau(  18) = (  -0.8629620  -1.8084582   3.6173039  )
        19           S   tau(  19) = (   0.5052576  -0.2902211   0.7340638  )
        20           S   tau(  20) = (  -0.2551585  -1.9907673   3.5434247  )
        21           S   tau(  21) = (  -0.2392070  -0.4863977   1.1751126  )
        22           S   tau(  22) = (  -0.7673220  -2.0293444   4.0113696  )
        23           S   tau(  23) = (   0.2738160  -0.4373107   1.2101557  )
        24           S   tau(  24) = (  -0.1284097  -2.2014351   4.0580263  )
        25           S   tau(  25) = (  -0.3147320  -1.0895633   1.6523515  )
        26           S   tau(  26) = (  -0.5099976  -2.4403584   4.5366468  )
        27           S   tau(  27) = (   0.1924849  -1.0634025   1.5846150  )
        28           S   tau(  28) = (  -0.0042673  -2.4127570   4.4660461  )
        29           S   tau(  29) = (  -0.0502551  -0.9350394   2.1143935  )
        30           S   tau(  30) = (  -0.7389297  -2.3122435   4.9380440  )
        31           S   tau(  31) = (   0.4564895  -0.9084481   2.0493365  )
        32           S   tau(  32) = (  -0.2478066  -2.2910802   5.0000387  )
        33           S   tau(  33) = (  -0.4764426  -1.3019882   2.6184986  )
        34           S   tau(  34) = (  -1.2946186  -2.5771644   5.4705809  )
        35           S   tau(  35) = (   0.0218348  -1.3080074   2.5885083  )
        36           S   tau(  36) = (  -0.6994431  -2.7609895   5.4327736  )

     number of k points=    10  Marzari-Vanderbilt smearing, width (Ry)=  0.0200
                       cart. coord. in units 2pi/alat
        k(    1) = (   0.0000000   0.0000000   0.0000000), wk =   0.1111111
        k(    2) = (  -0.0166210   0.3989250   0.2117159), wk =   0.2222222
        k(    3) = (  -0.0332420   0.7978501   0.4234317), wk =   0.2222222
        k(    4) = (   0.0498630  -1.1967751  -0.6351476), wk =   0.1111111
        k(    5) = (   0.3265462   0.1969560   0.1704091), wk =   0.2222222
        k(    6) = (   0.3099252   0.5958810   0.3821250), wk =   0.2222222
        k(    7) = (   0.2933041   0.9948061   0.5938408), wk =   0.2222222
        k(    8) = (   0.3764092  -0.9998191  -0.4647385), wk =   0.2222222
        k(    9) = (   0.3597882  -0.6008941  -0.2530226), wk =   0.2222222
        k(   10) = (   0.3431672  -0.2019690  -0.0413067), wk =   0.2222222

     Initial potential from superposition of free atoms

     starting charge  215.98107, renormalised to  216.00000
     Starting wfcs are  204 randomized atomic wfcs

     Self-consistent Calculation

[...]

     total energy              =    -844.85728701 Ry
     Harris-Foulkes estimate   =    -844.85728706 Ry
     estimated scf accuracy    <       0.00000154 Ry

     iteration # 16     ecut=    45.00 Ry     beta= 0.70
     Davidson diagonalization with overlap
     ethr =  5.38E-10,  avg # of iterations =  1.0

     End of self-consistent calculation

          k = 0.0000 0.0000 0.0000 ( 24541 PWs)   bands (ev):

    -7.3396  -7.2433  -6.8544  -6.8192  -6.7164  -6.6259  -6.3476  -6.2595
    -5.9489  -5.8709  -5.8294  -5.7437  -5.5691  -5.4613  -5.3880  -5.2375
    -5.2049  -5.1608  -5.1340  -5.0845  -5.0191  -4.9965  -4.9148  -4.8977
     0.6710   0.7985   1.2281   1.2896   1.2976   1.3669   1.4333   1.4691
     1.5253   1.7266   1.7606   1.9766   2.1102   2.3133   2.4373   2.4461
     2.6171   2.7433   2.7889   2.8106   2.8978   2.9448   3.1331   3.1941
     3.6043   3.6624   3.9310   3.9438   4.0351   4.0421   4.0960   4.1379
     4.1404   4.1875   4.2024   4.2078   4.2410   4.2735   4.2774   4.2916
     4.3688   4.4139   4.4764   4.5494   4.5864   4.7661   4.8492   4.9005
     5.0479   5.1265   5.2174   5.2935   5.3186   5.4130   5.5283   5.6749
     5.6974   5.7498   5.7723   5.8905   5.9917   6.1153   6.2169   6.2566
     6.2891   6.3104   6.3744   6.4136   6.4380   6.5555   6.5901   6.6432
     6.6891   6.7886   6.8874   6.9470   7.0512   7.1035   7.1200   7.2112
     7.2238   7.2880   7.3092   7.3283   7.4607   7.4919   7.5317   7.5566
     7.5965   7.6451   7.7290   7.7948   7.8174   7.8330   7.8602   8.1524
     8.6743   8.8982   8.9044   8.9686   9.1239   9.1420   9.2280   9.2824
     9.2967   9.3077

          k =-0.0166 0.3989 0.2117 ( 24430 PWs)   bands (ev):

[...]

          k =-0.0332 0.7979 0.4234 ( 24410 PWs)   bands (ev):

[...]

          k = 0.3432-0.2020-0.0413 ( 24440 PWs)   bands (ev):

    -7.0003  -6.9001  -6.4863  -6.4597  -6.3537  -6.2727  -6.1524  -6.0860
    -5.7901  -5.7378  -5.6851  -5.6109  -5.5077  -5.4323  -5.3950  -5.2004
    -5.1908  -5.0555  -5.0137  -5.0005  -4.9695  -4.9371  -4.9297  -4.8470
     1.2045   1.3008   1.5246   1.7048   1.7994   1.8199   1.8515   1.9387
     1.9755   2.0770   2.0964   2.1264   2.2884   2.3522   2.4252   2.5049
     2.6129   2.6755   2.7586   2.9332   3.0260   3.0862   3.1471   3.2261
     3.2886   3.3446   3.4103   3.4579   3.5821   3.6733   3.7415   3.7681
     3.8230   3.8613   3.9319   3.9893   4.0141   4.0897   4.1300   4.1727
     4.2030   4.2446   4.3075   4.4371   4.5237   4.5677   4.6070   4.6307
     4.6743   4.7097   4.7877   4.8491   4.9077   4.9742   5.0160   5.1648
     5.2128   5.2554   5.2688   5.3048   5.3831   5.4222   5.5839   5.6999
     5.8263   5.8839   5.9267   6.0269   6.0725   6.1112   6.2593   6.3245
     6.4169   6.4312   6.5355   6.6099   6.6556   6.6697   6.7963   6.8529
     6.9463   7.0395   7.1142   7.1942   7.3098   7.3996   7.4644   7.5357
     7.6145   7.6644   8.1298   8.2155   8.2550   8.3042   8.4044   8.5521
     8.5922   8.9400   8.9667   9.1578   9.1807   9.1933   9.3145   9.3563
     9.4083   9.4308

     the Fermi energy is     7.3195 ev

!    total energy              =    -844.85728677 Ry
     Harris-Foulkes estimate   =    -844.85728704 Ry
     estimated scf accuracy    <       0.00000029 Ry

     The total energy is the sum of the following terms:

     one-electron contribution =      13.10092229 Ry
     hartree contribution      =     121.73459392 Ry
     xc contribution           =    -333.62323449 Ry
     ewald contribution        =    -646.07218018 Ry
     smearing contrib. (-TS)   =       0.00261168 Ry

     convergence has been achieved in  16 iterations

     Forces acting on atoms (cartesian axes, Ry/au):

     atom    1 type  1   force =     0.00586890   -0.00650599    0.01661618
     atom    2 type  1   force =    -0.01267211   -0.00171799   -0.00387873
     atom    3 type  1   force =    -0.01047640    0.00185919   -0.01521936
     atom    4 type  1   force =     0.00667348    0.00537330    0.00246980
     atom    5 type  1   force =    -0.00450962   -0.01763195   -0.00383692
     atom    6 type  1   force =     0.00929221    0.00205450    0.01233120
     atom    7 type  1   force =     0.00471908   -0.00363066   -0.00321326
     atom    8 type  1   force =    -0.00111179   -0.00413430   -0.00806520
     atom    9 type  1   force =    -0.01010062   -0.01683571    0.00919332
     atom   10 type  1   force =     0.00096431   -0.00445523    0.00200630
     atom   11 type  1   force =     0.01051119    0.02093987   -0.02031388
     atom   12 type  1   force =    -0.00958170   -0.00895578   -0.00304264
     atom   13 type  2   force =     0.01123436    0.00799386   -0.01582466
     atom   14 type  2   force =     0.00504458   -0.01017754    0.00197068
     atom   15 type  2   force =     0.00774381    0.00095561   -0.01637328
     atom   16 type  2   force =     0.00166708    0.01214752   -0.02805055
     atom   17 type  2   force =     0.00544423    0.01524077    0.00568552
     atom   18 type  2   force =     0.00053565    0.00014749    0.00518611
     atom   19 type  2   force =     0.00793691   -0.00921974    0.02585010
     atom   20 type  2   force =     0.00190655   -0.00368503    0.01524176
     atom   21 type  2   force =    -0.00298450    0.00822729   -0.02995595
     atom   22 type  2   force =     0.00487167    0.00004110   -0.01165266
     atom   23 type  2   force =    -0.00847826   -0.01231952   -0.01184759
     atom   24 type  2   force =    -0.00023038    0.00041545   -0.01856541
     atom   25 type  2   force =     0.00579356    0.00485289    0.01983969
     atom   26 type  2   force =    -0.00109647   -0.00293817    0.00786330
     atom   27 type  2   force =    -0.00395202    0.00696342    0.01692235
     atom   28 type  2   force =    -0.00871199   -0.00432920    0.01684038
     atom   29 type  2   force =     0.00274366    0.00613437   -0.00778338
     atom   30 type  2   force =    -0.00324075    0.00226902   -0.00147473
     atom   31 type  2   force =    -0.00080179    0.00376045   -0.01224199
     atom   32 type  2   force =     0.00487757    0.00879131   -0.01979107
     atom   33 type  2   force =    -0.00068675   -0.01460492    0.03127101
     atom   34 type  2   force =    -0.00808680    0.00266400    0.01219596
     atom   35 type  2   force =    -0.01022985    0.00918912    0.00580444
     atom   36 type  2   force =    -0.00087699    0.00112119    0.02384311

     Total force =     0.112333     Total SCF correction =     0.001689

     General routines

     Parallel routines

   This run was terminated on:  12:42:45   8Sep2021

   JOB DONE.