     Program PWSCF v.6.4 starts on  3Sep2021 at  6:11:53

     R & G space division:  proc/nbgrp/npool/nimage =      40
     Waiting for input...
     Reading input from standard input
Warning: card    &IONS ignored
Warning: card      ION_DYNAMICS = 'BFGS' ignored
Warning: card   / ignored
Warning: card    &CELL ignored
Warning: card      CELL_DYNAMICS = 'BFGS', ignored
Warning: card    / ignored

     Current dimensions of program PWSCF are:
     Max number of different atomic species (ntypx) = 10
     Max number of k-points (npk) =  40000
     Max angular momentum in pseudopotentials (lmaxx) =  3

     bravais-lattice index     =            0
     lattice parameter (alat)  =      12.1916  a.u.
     unit-cell volume          =    4720.6666 (a.u.)^3
     number of atoms/cell      =           24
     number of atomic types    =            2
     number of electrons       =       144.00
     number of Kohn-Sham states=           86
     kinetic-energy cutoff     =      45.0000  Ry
     charge density cutoff     =     360.0000  Ry
     convergence threshold     =      1.0E-06
     mixing beta               =       0.7000
     number of iterations used =            8  local-TF  mixing
     Exchange-correlation      = SLA PW GGX GGC ( 1  4  2  2 0 0)

     celldm(1)=  12.191553  celldm(2)=   0.000000  celldm(3)=   0.000000
     celldm(4)=   0.000000  celldm(5)=   0.000000  celldm(6)=   0.000000

     crystal axes: (cart. coord. in units of alat)
               a(1) = (   1.000000   0.000000   0.000000 )
               a(2) = (   0.500750   0.866386   0.000000 )
               a(3) = (   0.229649   0.269736   3.006870 )

     reciprocal axes: (cart. coord. in units 2 pi/alat)
               b(1) = (  1.000000 -0.577976 -0.024527 )
               b(2) = (  0.000000  1.154219 -0.103541 )
               b(3) = (  0.000000  0.000000  0.332572 )

     PseudoPot. # 1 for Mo read from file:
     ~/pseudo/Mo.pw91-n-van.UPF
     MD5 check sum: Not computed, couldn't open file
     Pseudo is Ultrasoft + core correction, Zval =  6.0
     Generated by new atomic code, or converted to UPF format
     Using radial grid of  965 points,  3 beta functions with:
                l(1) =   1
                l(2) =   2
                l(3) =   2
     Q(r) pseudized with  8 coefficients,  rinner =    1.000   1.000   1.000
                                                       1.200   1.200

     PseudoPot. # 2 for S  read from file:
     ~/pseudo/S.pw91-van_ak.UPF
     MD5 check sum: Not computed, couldn't open file
     Pseudo is Ultrasoft, Zval =  6.0
     Generated by new atomic code, or converted to UPF format
     Using radial grid of  811 points,  6 beta functions with:
                l(1) =   0
                l(2) =   0
                l(3) =   1
                l(4) =   1
                l(5) =   2
                l(6) =   2
     Q(r) pseudized with  8 coefficients,  rinner =    1.100   1.100   1.100
                                                       1.100   1.100

     atomic species   valence    mass     pseudopotential
        Mo             6.00    95.50000     Mo( 1.00)
        S              6.00    32.06500     S ( 1.00)

     No symmetry found

   Cartesian axes

     site n.     atom                  positions (alat units)
         1           Mo  tau(   1) = (   1.0232412   0.8851148   2.2742536  )
         2           Mo  tau(   2) = (   1.5213839   0.8815720   2.2746538  )
         3           Mo  tau(   3) = (   0.7700388   0.4504953   2.2729801  )
         4           Mo  tau(   4) = (   1.2679512   0.4508059   2.2720788  )
         5           Mo  tau(   5) = (   0.7122903   0.2542204   0.7247142  )
         6           Mo  tau(   6) = (   0.2088651   0.2548240   0.7224613  )
         7           Mo  tau(   7) = (   0.9607667   0.6878604   0.7245535  )
         8           Mo  tau(   8) = (   0.4591937   0.6873893   0.7268455  )
         9           S   tau(   9) = (   1.0192861   0.5961512   2.5171340  )
        10           S   tau(  10) = (   0.5184085   0.5917614   2.5172221  )
        11           S   tau(  11) = (   1.2737545   1.0293222   2.5186057  )
        12           S   tau(  12) = (   0.7716972   1.0288650   2.5166598  )
        13           S   tau(  13) = (   0.9595844   0.1072033   0.4796674  )
        14           S   tau(  14) = (   0.4613728   0.1106900   0.4809728  )
        15           S   tau(  15) = (   1.2101785   0.5445128   0.4799651  )
        16           S   tau(  16) = (   0.7091251   0.5438594   0.4823848  )
        17           S   tau(  17) = (   0.9615779   0.1103288   0.9697736  )
        18           S   tau(  18) = (   0.4595517   0.1116340   0.9663650  )
        19           S   tau(  19) = (   1.2084538   0.5413924   0.9693186  )
        20           S   tau(  20) = (   0.7112107   0.5428721   0.9688340  )
        21           S   tau(  21) = (   1.0185470   0.5978237   2.0288056  )
        22           S   tau(  22) = (   0.5192541   0.5937650   2.0289420  )
        23           S   tau(  23) = (   1.2741468   1.0278493   2.0296450  )
        24           S   tau(  24) = (   0.7713233   1.0266167   2.0307928  )

     number of k points=     5  Marzari-Vanderbilt smearing, width (Ry)=  0.0200
                       cart. coord. in units 2pi/alat
        k(    1) = (   0.0000000   0.0000000   0.0000000), wk =   0.2222222
        k(    2) = (   0.0000000   0.3847398  -0.0345137), wk =   0.4444444
        k(    3) = (   0.3333333  -0.1926586  -0.0081755), wk =   0.4444444
        k(    4) = (   0.3333333   0.1920811  -0.0426892), wk =   0.4444444
        k(    5) = (   0.3333333  -0.5773984   0.0263382), wk =   0.4444444

     Initial potential from superposition of free atoms

     starting charge  143.98738, renormalised to  144.00000
     Starting wfcs are  136 randomized atomic wfcs

     Self-consistent Calculation

     iteration #  1     ecut=    45.00 Ry     beta= 0.70
     Davidson diagonalization with overlap
     ethr =  1.00E-02,  avg # of iterations =  2.0

     total energy              =    -562.81312779 Ry
     Harris-Foulkes estimate   =    -564.57872778 Ry
     estimated scf accuracy    <       4.51233102 Ry

[...]

     total energy              =    -563.69106127 Ry
     Harris-Foulkes estimate   =    -563.69106199 Ry
     estimated scf accuracy    <       0.00000236 Ry

     iteration # 13     ecut=    45.00 Ry     beta= 0.70
     Davidson diagonalization with overlap
     ethr =  1.64E-09,  avg # of iterations =  3.0

     End of self-consistent calculation

          k = 0.0000 0.0000 0.0000 ( 24023 PWs)   bands (ev):

   -11.2633 -11.2624 -10.0559 -10.0553  -9.5684  -9.5635  -9.5551  -9.5538
    -9.5508  -9.5473  -9.2813  -9.2757  -9.2716  -9.2689  -9.2635  -9.2621
    -2.8919  -2.8896  -2.8874  -2.8865  -2.8834  -2.8826  -2.7417  -2.7359
    -1.9402  -1.9375  -1.9366  -1.9346  -1.9321  -1.9294  -1.2801  -1.2769
    -1.2703  -1.2684  -1.2658  -1.2626  -0.4099  -0.4086  -0.4014  -0.4001
    -0.3991  -0.3981   0.0901   0.0916   0.1004   0.1014   0.8673   0.8833
     0.8926   0.8953   0.9186   0.9277   1.0458   1.0885   1.2080   1.2087
     1.2166   1.2167   1.7158   1.7255   1.7301   1.7312   1.7495   1.7591
     2.0625   2.0667   2.0713   2.0735   2.0777   2.0789   2.6966   2.7386
     4.6747   4.6792   4.6901   4.6946   4.6970   4.7044   5.2116   5.2142
     5.2144   5.2155   5.2167   5.2177   5.3895   5.3897

[...]

          k = 0.3333-0.5774 0.0263 ( 24119 PWs)   bands (ev):

   -10.3046 -10.3033 -10.3001 -10.2968 -10.2940 -10.2925  -9.6069  -9.6038
    -9.5998  -9.5984  -9.5952  -9.5905  -9.3215  -9.3205  -9.1134  -9.1118
    -2.5133  -2.5127  -2.0831  -2.0806  -2.0797  -2.0782  -2.0758  -2.0754
    -1.7271  -1.7269  -1.2412  -1.2396  -1.0757  -1.0637  -1.0609  -1.0595
    -1.0469  -1.0425  -0.8369  -0.8335  -0.8258  -0.8244  -0.8228  -0.8220
    -0.8128  -0.8069  -0.3966  -0.3907  -0.3821  -0.3782  -0.3658  -0.3601
    -0.1158  -0.1088   0.5980   0.5990   0.7385   0.7495   0.7591   0.7592
     0.7761   0.7836   1.6447   1.6553   1.6611   1.6653   1.6769   1.6853
     1.9072   1.9124   1.9179   1.9185   1.9251   1.9277   2.6507   2.6516
     4.2429   4.2449   4.5402   4.5491   4.5559   4.5701   4.5800   4.5859
     4.9983   5.0067   5.0126   5.0186   5.0294   5.0408

     the Fermi energy is     2.7896 ev

!    total energy              =    -563.69106116 Ry
     Harris-Foulkes estimate   =    -563.69106176 Ry
     estimated scf accuracy    <       0.00000061 Ry

     The total energy is the sum of the following terms:

     one-electron contribution =    -660.03262130 Ry
     hartree contribution      =     393.09573641 Ry
     xc contribution           =    -222.68827993 Ry
     ewald contribution        =     -74.08044271 Ry
     smearing contrib. (-TS)   =       0.01454637 Ry

     convergence has been achieved in  13 iterations

     Forces acting on atoms (cartesian axes, Ry/au):

     atom    1 type  1   force =    -0.00490045   -0.00114862   -0.00210988
     atom    2 type  1   force =     0.00150235    0.00420397   -0.00270196
     atom    3 type  1   force =     0.00120225    0.00120127    0.00058389
     atom    4 type  1   force =     0.00400015   -0.00207157    0.00263803
     atom    5 type  1   force =    -0.00685135    0.00120546   -0.00082861
     atom    6 type  1   force =     0.00469348   -0.00243491    0.00400926
     atom    7 type  1   force =    -0.00332294    0.00107153   -0.00041661
     atom    8 type  1   force =     0.00420477   -0.00213684   -0.00423132
     atom    9 type  2   force =     0.00103107   -0.00081088    0.00151816
     atom   10 type  2   force =     0.00132670    0.00275244    0.00152967
     atom   11 type  2   force =    -0.00240970   -0.00169613    0.00051508
     atom   12 type  2   force =    -0.00085682   -0.00108684    0.00332916
     atom   13 type  2   force =     0.00051576    0.00323811    0.00068989
     atom   14 type  2   force =    -0.00091468   -0.00019949   -0.00351601
     atom   15 type  2   force =    -0.00015073   -0.00129820    0.00004395
     atom   16 type  2   force =     0.00184965   -0.00074044   -0.00321862
     atom   17 type  2   force =    -0.00182297   -0.00044433   -0.00054613
     atom   18 type  2   force =     0.00103820   -0.00164648    0.00421706
     atom   19 type  2   force =     0.00137223    0.00248295    0.00002261
     atom   20 type  2   force =    -0.00057942    0.00060101    0.00263895
     atom   21 type  2   force =     0.00189630   -0.00289469   -0.00034251
     atom   22 type  2   force =     0.00028580    0.00047370   -0.00033578
     atom   23 type  2   force =    -0.00280835   -0.00000252   -0.00022180
     atom   24 type  2   force =    -0.00030129    0.00138151   -0.00326650

     Total force =     0.019634     Total SCF correction =     0.002287
     SCF correction compared to forces is large: reduce conv_thr to get better values

     General routines

     Parallel routines

   This run was terminated on:   6:12:39   3Sep2021

   JOB DONE.