     Program PWSCF v.6.4 starts on  3Aug2021 at 21: 8: 9

     R & G space division:  proc/nbgrp/npool/nimage =      40
     Waiting for input...
     Reading input from standard input
Warning: card    &IONS ignored
Warning: card      ION_DYNAMICS = 'BFGS' ignored
Warning: card   / ignored
Warning: card    &CELL ignored
Warning: card      CELL_DYNAMICS = 'BFGS', ignored
Warning: card    / ignored

     Current dimensions of program PWSCF are:
     Max number of different atomic species (ntypx) = 10
     Max number of k-points (npk) =  40000
     Max angular momentum in pseudopotentials (lmaxx) =  3

     bravais-lattice index     =            0
     lattice parameter (alat)  =      12.3591  a.u.
     unit-cell volume          =    4468.4825 (a.u.)^3
     number of atoms/cell      =           12
     number of atomic types    =            2
     number of electrons       =        72.00
     number of Kohn-Sham states=           43
     kinetic-energy cutoff     =      45.0000  Ry
     charge density cutoff     =     360.0000  Ry
     convergence threshold     =      1.0E-06
     mixing beta               =       0.7000
     number of iterations used =            8  local-TF  mixing
     Exchange-correlation      = SLA PW GGX GGC ( 1  4  2  2 0 0)

     celldm(1)=  12.359084  celldm(2)=   0.000000  celldm(3)=   0.000000
     celldm(4)=   0.000000  celldm(5)=   0.000000  celldm(6)=   0.000000

     crystal axes: (cart. coord. in units of alat)
               a(1) = (   1.000000   0.000000   0.000000 )
               a(2) = (  -0.500000   0.866025   0.000000 )
               a(3) = (   0.000000   0.000000   2.733194 )

     reciprocal axes: (cart. coord. in units 2 pi/alat)
               b(1) = (  1.000000  0.577350  0.000000 )
               b(2) = (  0.000000  1.154700  0.000000 )
               b(3) = (  0.000000  0.000000  0.365872 )

     PseudoPot. # 1 for Mo read from file:
     ~/pseudo/Mo.pw91-n-van.UPF
     MD5 check sum: Not computed, couldn't open file
     Pseudo is Ultrasoft + core correction, Zval =  6.0
     Generated by new atomic code, or converted to UPF format
     Using radial grid of  965 points,  3 beta functions with:
                l(1) =   1
                l(2) =   2
                l(3) =   2
     Q(r) pseudized with  8 coefficients,  rinner =    1.000   1.000   1.000
                                                       1.200   1.200

     PseudoPot. # 2 for S  read from file:
     ~/pseudo/S.pw91-van_ak.UPF
     MD5 check sum: Not computed, couldn't open file
     Pseudo is Ultrasoft, Zval =  6.0
     Generated by new atomic code, or converted to UPF format
     Using radial grid of  811 points,  6 beta functions with:
                l(1) =   0
                l(2) =   0
                l(3) =   1
                l(4) =   1
                l(5) =   2
                l(6) =   2
     Q(r) pseudized with  8 coefficients,  rinner =    1.100   1.100   1.100
                                                       1.100   1.100

     atomic species   valence    mass     pseudopotential
        Mo             6.00    95.50000     Mo( 1.00)
        S              6.00    32.06500     S ( 1.00)

     No symmetry found

   Cartesian axes

     site n.     atom                  positions (alat units)
         1           Mo  tau(   1) = (  -0.0000847  -0.0087415  -0.0125447  )
         2           Mo  tau(   2) = (  -0.2518883   0.4331773   0.0151722  )
         3           Mo  tau(   3) = (   0.5016574   0.0060802   0.0139310  )
         4           Mo  tau(   4) = (   0.2413676   0.4378968  -0.0116369  )
         5           S   tau(   5) = (  -0.0027559   0.2937522   0.2594120  )
         6           S   tau(   6) = (  -0.2448982   0.7192060   0.2310565  )
         7           S   tau(   7) = (   0.5028056   0.2994473   0.2557373  )
         8           S   tau(   8) = (   0.2543552   0.7249231   0.2595502  )
         9           S   tau(   9) = (   0.0021488   0.2749708   2.4943704  )
        10           S   tau(  10) = (  -0.2408389   0.7309069   2.4959935  )
        11           S   tau(  11) = (   0.5132539   0.2962537   2.4871125  )
        12           S   tau(  12) = (   0.2511939   0.7241504   2.5029826  )

     number of k points=     5  Marzari-Vanderbilt smearing, width (Ry)=  0.0200
                       cart. coord. in units 2pi/alat
        k(    1) = (   0.0000000   0.0000000   0.0000000), wk =   0.2222222
        k(    2) = (   0.0000000   0.3849002   0.0000000), wk =   0.4444444
        k(    3) = (   0.3333333   0.5773503   0.0000000), wk =   0.4444444
        k(    4) = (  -0.3333333   0.1924500   0.0000000), wk =   0.4444444
        k(    5) = (   0.3333333   0.1924501   0.0000000), wk =   0.4444444

     Initial potential from superposition of free atoms

     starting charge   71.99369, renormalised to   72.00000

     negative rho (up, down):  7.269E-04 0.000E+00
     Starting wfcs are   68 randomized atomic wfcs

     Self-consistent Calculation

     iteration #  1     ecut=    45.00 Ry     beta= 0.70
     Davidson diagonalization with overlap
     ethr =  1.00E-02,  avg # of iterations =  2.0

     negative rho (up, down):  9.880E-05 0.000E+00

     total energy              =    -281.26081439 Ry
     Harris-Foulkes estimate   =    -282.24126290 Ry
     estimated scf accuracy    <       2.55341870 Ry

[...]

     total energy              =    -281.76290853 Ry
     Harris-Foulkes estimate   =    -281.76290837 Ry
     estimated scf accuracy    <       0.00000177 Ry

     iteration # 15     ecut=    45.00 Ry     beta= 0.70
     Davidson diagonalization with overlap
     ethr =  2.46E-09,  avg # of iterations =  1.4

[...]

     End of self-consistent calculation

          k = 0.0000 0.0000 0.0000 ( 22723 PWs)   bands (ev):

   -15.1582 -14.0639 -13.7111 -13.6292 -13.4430 -13.3224 -13.1689 -13.1357
    -6.8357  -6.7667  -6.7342  -6.6349  -5.9281  -5.8789  -5.7877  -5.3128
    -5.2109  -5.0910  -4.5821  -4.4098  -4.2905  -3.9583  -3.7645  -3.3068
    -3.2415  -3.1515  -3.1006  -2.9984  -2.7590  -2.4162  -2.2738  -2.1552
    -2.0644  -1.8923  -1.6981  -1.2932   0.2890   0.3427   0.4013   0.8195
     0.8339   0.9178   1.1059

[...]

          k =-0.3333 0.1925 0.0000 ( 22787 PWs)   bands (ev):

[...]

          k = 0.3333 0.1925 0.0000 ( 22787 PWs)   bands (ev):

   -14.8304 -14.0998 -13.8780 -13.6711 -13.5398 -13.4295 -13.2213 -13.1626
    -6.4478  -6.3695  -6.2680  -6.1847  -5.9836  -5.9418  -5.3076  -5.1675
    -5.0396  -4.9758  -4.6681  -4.4248  -4.3265  -4.1564  -4.0075  -3.6493
    -3.6103  -3.5185  -3.1762  -3.0965  -2.9950  -2.9322  -2.6705  -2.5296
    -2.3331  -1.8625  -1.7089  -1.6297   0.3602   0.4212   0.5016   0.6196
     0.6701   0.8204   0.9358

     the Fermi energy is    -1.2723 ev

!    total energy              =    -281.76290892 Ry
     Harris-Foulkes estimate   =    -281.76290866 Ry
     estimated scf accuracy    <       0.00000014 Ry

     The total energy is the sum of the following terms:

     one-electron contribution =   -1405.35780288 Ry
     hartree contribution      =     723.44786540 Ry
     xc contribution           =    -111.00702661 Ry
     ewald contribution        =     511.14471401 Ry
     smearing contrib. (-TS)   =       0.00934116 Ry

     convergence has been achieved in  15 iterations

     negative rho (up, down):  1.003E-03 0.000E+00

     Forces acting on atoms (cartesian axes, Ry/au):

     atom    1 type  1   force =     0.01732267    0.04217911    0.12987301
     atom    2 type  1   force =     0.03473928   -0.01624168   -0.07099299
     atom    3 type  1   force =     0.03178889    0.01817016   -0.03224874
     atom    4 type  1   force =     0.05167556   -0.03642963    0.10773670
     atom    5 type  2   force =     0.01266197   -0.01948336   -0.07060336
     atom    6 type  2   force =    -0.02588900    0.02581895    0.04184886
     atom    7 type  2   force =    -0.03274527   -0.00743676   -0.04258764
     atom    8 type  2   force =    -0.00526158   -0.00844202   -0.06751882
     atom    9 type  2   force =    -0.02488464    0.03797225   -0.00370757
     atom   10 type  2   force =     0.00743956   -0.03170768    0.00406687
     atom   11 type  2   force =    -0.02798683   -0.00851759    0.04683291
     atom   12 type  2   force =    -0.03886060    0.00411824   -0.04269923

     Total force =     0.263070     Total SCF correction =     0.000672

     General routines

     Parallel routines

   This run was terminated on:  21: 8:42   3Aug2021

   JOB DONE.