     Program PWSCF v.6.4 starts on  3Dec2021 at 15:55: 8

     R & G space division:  proc/nbgrp/npool/nimage =      40
     Waiting for input...
     Reading input from standard input
Warning: card    &IONS ignored
Warning: card      ION_DYNAMICS = 'BFGS' ignored
Warning: card   / ignored
Warning: card    &CELL ignored
Warning: card      CELL_DYNAMICS = 'BFGS', ignored
Warning: card    / ignored

     Current dimensions of program PWSCF are:
     Max number of different atomic species (ntypx) = 10
     Max number of k-points (npk) =  40000
     Max angular momentum in pseudopotentials (lmaxx) =  3

     bravais-lattice index     =            0
     lattice parameter (alat)  =      12.0198  a.u.
     unit-cell volume          =   13716.1800 (a.u.)^3
     number of atoms/cell      =           36
     number of atomic types    =            2
     number of electrons       =       216.00
     number of Kohn-Sham states=          130
     kinetic-energy cutoff     =      45.0000  Ry
     charge density cutoff     =     360.0000  Ry
     convergence threshold     =      1.0E-06
     mixing beta               =       0.7000
     number of iterations used =            8  local-TF  mixing
     Exchange-correlation      = SLA PW GGX GGC ( 1  4  2  2 0 0)

     celldm(1)=  12.019823  celldm(2)=   0.000000  celldm(3)=   0.000000
     celldm(4)=   0.000000  celldm(5)=   0.000000  celldm(6)=   0.000000

     crystal axes: (cart. coord. in units of alat)
               a(1) = (   1.000000   0.000000   0.000000 )
               a(2) = (   0.002431   1.764054   0.000000 )
               a(3) = (   0.023984   0.728652   4.477412 )

     reciprocal axes: (cart. coord. in units 2 pi/alat)
               b(1) = (  1.000000 -0.001378 -0.005132 )
               b(2) = (  0.000000  0.566876 -0.092253 )
               b(3) = (  0.000000  0.000000  0.223343 )

     PseudoPot. # 1 for Mo read from file:
     ~/pseudo/Mo.pw91-n-van.UPF
     MD5 check sum: Not computed, couldn't open file
     Pseudo is Ultrasoft + core correction, Zval =  6.0
     Generated by new atomic code, or converted to UPF format
     Using radial grid of  965 points,  3 beta functions with:
                l(1) =   1
                l(2) =   2
                l(3) =   2
     Q(r) pseudized with  8 coefficients,  rinner =    1.000   1.000   1.000
                                                       1.200   1.200

     PseudoPot. # 2 for S  read from file:
     ~/pseudo/S.pw91-van_ak.UPF
     MD5 check sum: Not computed, couldn't open file
     Pseudo is Ultrasoft, Zval =  6.0
     Generated by new atomic code, or converted to UPF format
     Using radial grid of  811 points,  6 beta functions with:
                l(1) =   0
                l(2) =   0
                l(3) =   1
                l(4) =   1
                l(5) =   2
                l(6) =   2
     Q(r) pseudized with  8 coefficients,  rinner =    1.100   1.100   1.100
                                                       1.100   1.100

     atomic species   valence    mass     pseudopotential
        Mo             6.00    95.50000     Mo( 1.00)
        S              6.00    32.06500     S ( 1.00)

     No symmetry found

   Cartesian axes

     site n.     atom                  positions (alat units)
         1           Mo  tau(   1) = (   0.9122783   1.7048766   1.2577350  )
         2           Mo  tau(   2) = (   0.1604750   0.3818338   1.2576470  )
         3           Mo  tau(   3) = (   0.4122808   1.7048852   1.2577290  )
         4           Mo  tau(   4) = (   0.6604660   0.3818473   1.2576338  )
         5           Mo  tau(   5) = (   0.4110761   0.8228790   1.2577858  )
         6           Mo  tau(   6) = (   0.9110786   0.8228776   1.2577728  )
         7           Mo  tau(   7) = (   0.6616688   1.2638863   1.2578684  )
         8           Mo  tau(   8) = (   0.1616714   1.2638674   1.2578683  )
         9           Mo  tau(   9) = (   0.6039155   1.5214146   4.2089306  )
        10           Mo  tau(  10) = (   0.0397249   1.4616055   4.2551579  )
        11           Mo  tau(  11) = (   0.9725639   1.8483540   4.1164452  )
        12           Mo  tau(  12) = (   0.4763718   1.9127920   4.0714687  )
        13           S   tau(  13) = (   0.1621500   1.8530251   1.0092654  )
        14           S   tau(  14) = (   0.9115530   1.4119779   1.0094118  )
        15           S   tau(  15) = (   0.6621620   1.8530344   1.0092641  )
        16           S   tau(  16) = (   0.4115345   1.4119852   1.0094068  )
        17           S   tau(  17) = (   0.7286389   2.0862763   4.2651700  )
        18           S   tau(  18) = (   0.2013878   1.9539957   3.7988857  )
        19           S   tau(  19) = (   0.1626516   1.8534308   1.5060205  )
        20           S   tau(  20) = (   0.9120404   1.4124677   1.5061663  )
        21           S   tau(  21) = (   0.6626532   1.8534503   1.5060115  )
        22           S   tau(  22) = (   0.4120336   1.4124821   1.5061623  )
        23           S   tau(  23) = (   0.8245454   1.2362377   4.0817691  )
        24           S   tau(  24) = (   0.1933164   2.1915918   4.0498508  )
        25           S   tau(  25) = (   0.4103346   0.5301011   1.0092040  )
        26           S   tau(  26) = (   0.9103647   0.5300783   1.0092036  )
        27           S   tau(  27) = (   0.4108463   0.5303299   1.5060050  )
        28           S   tau(  28) = (   0.9108425   0.5303250   1.5059922  )
        29           S   tau(  29) = (   0.6614508   0.9713961   1.5061556  )
        30           S   tau(  30) = (   0.1614403   0.9713802   1.5061619  )
        31           S   tau(  31) = (   0.3404191   1.2534022   4.3058271  )
        32           S   tau(  32) = (   0.8065907   1.5929199   4.5018640  )
        33           S   tau(  33) = (   0.6609433   0.9710770   1.0093678  )
        34           S   tau(  34) = (   0.1609640   0.9710581   1.0093386  )
        35           S   tau(  35) = (   0.2848160   1.7451744   4.3335884  )
        36           S   tau(  36) = (   0.7120886   1.6927595   3.8853008  )

     number of k points=     4  Marzari-Vanderbilt smearing, width (Ry)=  0.0200
                       cart. coord. in units 2pi/alat
        k(    1) = (   0.0000000   0.0000000   0.0000000), wk =   0.3333333
        k(    2) = (   0.0000000  -0.2834380   0.0461266), wk =   0.3333333
        k(    3) = (   0.3333333  -0.0004594  -0.0017108), wk =   0.6666667
        k(    4) = (   0.3333333  -0.2838974   0.0444158), wk =   0.6666667

     Initial potential from superposition of free atoms

     starting charge  215.98107, renormalised to  216.00000

     negative rho (up, down):  1.497E-03 0.000E+00
     Starting wfcs are  204 randomized atomic wfcs

     Self-consistent Calculation

     iteration #  1     ecut=    45.00 Ry     beta= 0.70
     Davidson diagonalization with overlap
     ethr =  1.00E-02,  avg # of iterations =  2.0

     negative rho (up, down):  5.860E-05 0.000E+00

     total energy              =    -843.81037848 Ry
     Harris-Foulkes estimate   =    -846.31570979 Ry
     estimated scf accuracy    <       6.53313872 Ry

[...]

     total energy              =    -845.03246622 Ry
     Harris-Foulkes estimate   =    -845.03247039 Ry
     estimated scf accuracy    <       0.00000200 Ry

     iteration # 22     ecut=    45.00 Ry     beta= 0.70
     Davidson diagonalization with overlap
     ethr =  9.28E-10,  avg # of iterations =  3.2

[...]

     End of self-consistent calculation

          k = 0.0000 0.0000 0.0000 ( 69847 PWs)   bands (ev):

   -15.8749 -15.4852 -14.7296 -14.7295 -14.5554 -14.2892 -13.9408 -13.9407
   -13.8492 -13.7675 -13.7343 -13.7342 -13.7111 -13.7061 -13.5857 -13.5216
   -13.4468 -13.4405 -13.4265 -13.4263 -13.2853 -12.8922 -12.5683 -12.2962
    -7.1346  -7.1067  -7.1039  -6.9592  -6.5068  -6.5067  -6.4980  -6.3556
    -6.3434  -6.3433  -6.2929  -6.2928  -6.1865  -6.1839  -6.1486  -6.0035
    -5.7821  -5.7007  -5.4824  -5.4701  -5.4688  -5.2829  -5.2828  -5.2600
    -5.1221  -5.0366  -5.0365  -4.9632  -4.9630  -4.8965  -4.8318  -4.6807
    -4.6807  -4.6451  -4.6290  -4.6270  -4.5196  -4.4415  -4.3754  -4.2724
    -4.2723  -4.2547  -4.1928  -4.1375  -3.9583  -3.9540  -3.7841  -3.7840
    -3.7058  -3.6115  -3.3958  -3.3785  -3.3507  -3.3062  -3.3007  -3.1807
    -3.1374  -3.1372  -3.1002  -3.1000  -3.0036  -2.9941  -2.8576  -2.8019
    -2.8017  -2.5840  -2.5255  -2.4604  -2.4461  -2.3715  -2.2844  -2.2515
    -2.2514  -2.1884  -2.0936  -2.0858  -2.0290  -2.0287  -1.9988  -1.6312
    -1.5622  -1.5202  -1.1806  -0.8310  -0.4139  -0.2364   0.1255   0.2848
     0.4606   0.5613   0.5646   0.5680   0.5687   0.5730   0.5736   0.6146
     0.6148   0.6635   0.8447   0.8449   0.9321   1.2126   1.2207   1.2244
     1.2849   1.3116

[...]

          k = 0.3333-0.2839 0.0444 ( 69923 PWs)   bands (ev):

   -15.8511 -15.0093 -15.0076 -14.4568 -14.3428 -14.3399 -14.0598 -14.0579
   -13.9240 -13.9233 -13.9217 -13.7356 -13.7322 -13.6416 -13.6381 -13.6117
   -13.5569 -13.5548 -13.3942 -13.3903 -13.2925 -12.8708 -12.6382 -12.2790
    -6.5733  -6.5692  -6.5151  -6.5130  -6.4793  -6.4783  -6.4619  -6.4605
    -6.4376  -6.4335  -6.3283  -6.1668  -6.0243  -5.9924  -5.9891  -5.6330
    -5.5248  -5.4066  -5.4042  -5.3298  -5.2927  -5.2861  -5.2173  -5.2149
    -5.1938  -5.1928  -5.1347  -5.0290  -4.9451  -4.9123  -4.9053  -4.7602
    -4.6395  -4.6230  -4.6206  -4.5837  -4.5773  -4.4278  -4.4217  -4.4181
    -4.3058  -4.2931  -4.2504  -4.2482  -4.2423  -4.1208  -4.0863  -3.9365
    -3.7256  -3.7185  -3.7058  -3.7036  -3.6961  -3.5665  -3.5558  -3.4531
    -3.3083  -3.3045  -3.2671  -3.0367  -3.0335  -3.0151  -2.9930  -2.9816
    -2.9446  -2.9425  -2.7993  -2.5167  -2.5136  -2.4652  -2.3932  -2.3881
    -2.2275  -2.0889  -2.0816  -1.9934  -1.8993  -1.8961  -1.8030  -1.8003
    -1.5289  -1.3497  -1.2475  -0.8889  -0.3052  -0.0983   0.0247   0.3157
     0.4855   0.4863   0.4911   0.5246   0.5272   0.6120   0.6123   0.6474
     0.6542   0.6595   0.7427   0.7945   0.7970   0.9142   0.9149   0.9224
     0.9259   0.9651

     the Fermi energy is    -0.6557 ev

!    total energy              =    -845.03246274 Ry
     Harris-Foulkes estimate   =    -845.03246641 Ry
     estimated scf accuracy    <       0.00000046 Ry

     The total energy is the sum of the following terms:

     one-electron contribution =   -4902.42007707 Ry
     hartree contribution      =    2513.32553583 Ry
     xc contribution           =    -333.64304784 Ry
     ewald contribution        =    1877.70101391 Ry
     smearing contrib. (-TS)   =       0.00411244 Ry

     convergence has been achieved in  22 iterations

     negative rho (up, down):  2.116E-03 0.000E+00

     Forces acting on atoms (cartesian axes, Ry/au):

     atom    1 type  1   force =     0.00101339    0.00233389   -0.00023597
     atom    2 type  1   force =     0.00008360    0.00210612   -0.00019073
     atom    3 type  1   force =    -0.00095256    0.00230732   -0.00019890
     atom    4 type  1   force =    -0.00002701    0.00209140   -0.00025529
     atom    5 type  1   force =    -0.00095215    0.00141901   -0.00009840
     atom    6 type  1   force =     0.00099066    0.00142329   -0.00012439
     atom    7 type  1   force =    -0.00004402    0.00172611   -0.00017852
     atom    8 type  1   force =     0.00008509    0.00176231   -0.00008625
     atom    9 type  1   force =    -0.05923598   -0.00003383   -0.00256336
     atom   10 type  1   force =    -0.00423690   -0.01093961    0.01571040
     atom   11 type  1   force =     0.01165148   -0.00211150   -0.04370430
     atom   12 type  1   force =     0.03344534   -0.00882077    0.01275428
     atom   13 type  2   force =     0.00074499   -0.00096237   -0.00153195
     atom   14 type  2   force =     0.00073387   -0.00054492   -0.00129216
     atom   15 type  2   force =     0.00050802   -0.00087268   -0.00111615
     atom   16 type  2   force =     0.00039400   -0.00063147   -0.00151847
     atom   17 type  2   force =    -0.01403808    0.03136665    0.00393826
     atom   18 type  2   force =    -0.01870099    0.03023699    0.04873454
     atom   19 type  2   force =    -0.00056298   -0.00132778    0.00150950
     atom   20 type  2   force =    -0.00047347   -0.00155930    0.00157310
     atom   21 type  2   force =    -0.00047601   -0.00129763    0.00158071
     atom   22 type  2   force =    -0.00058904   -0.00154909    0.00164647
     atom   23 type  2   force =     0.00924702   -0.01101150   -0.02502693
     atom   24 type  2   force =    -0.00387392   -0.03960309   -0.02931042
     atom   25 type  2   force =     0.00064631   -0.00058832   -0.00131368
     atom   26 type  2   force =     0.00068151   -0.00054511   -0.00116332
     atom   27 type  2   force =    -0.00047299   -0.00111042    0.00153713
     atom   28 type  2   force =    -0.00066403   -0.00112433    0.00147070
     atom   29 type  2   force =    -0.00049575   -0.00149693    0.00168477
     atom   30 type  2   force =    -0.00054619   -0.00127827    0.00145903
     atom   31 type  2   force =     0.02056476   -0.00601393   -0.00979113
     atom   32 type  2   force =    -0.00402870    0.00725910    0.01216951
     atom   33 type  2   force =     0.00050352   -0.00032458   -0.00135481
     atom   34 type  2   force =     0.00065455   -0.00018187   -0.00143914
     atom   35 type  2   force =     0.01848770    0.02709176    0.02559990
     atom   36 type  2   force =     0.00993495   -0.01719465   -0.00887406

     Total force =     0.135969     Total SCF correction =     0.001145

     General routines

     Parallel routines

   This run was terminated on:  16: 0:34   3Dec2021

   JOB DONE.