     Program PWSCF v.6.4 starts on 28Nov2021 at 10: 4:16

     R & G space division:  proc/nbgrp/npool/nimage =      40
     Waiting for input...
     Reading input from standard input
Warning: card    &IONS ignored
Warning: card      ION_DYNAMICS = 'BFGS' ignored
Warning: card   / ignored
Warning: card    &CELL ignored
Warning: card      CELL_DYNAMICS = 'BFGS', ignored
Warning: card    / ignored

     Current dimensions of program PWSCF are:
     Max number of different atomic species (ntypx) = 10
     Max number of k-points (npk) =  40000
     Max angular momentum in pseudopotentials (lmaxx) =  3

     bravais-lattice index     =            0
     lattice parameter (alat)  =      14.0488  a.u.
     unit-cell volume          =    4814.7613 (a.u.)^3
     number of atoms/cell      =           24
     number of atomic types    =            2
     number of electrons       =       144.00
     number of Kohn-Sham states=           86
     kinetic-energy cutoff     =      45.0000  Ry
     charge density cutoff     =     360.0000  Ry
     convergence threshold     =      1.0E-06
     mixing beta               =       0.7000
     number of iterations used =            8  local-TF  mixing
     Exchange-correlation      = SLA PW GGX GGC ( 1  4  2  2 0 0)

     celldm(1)=  14.048796  celldm(2)=   0.000000  celldm(3)=   0.000000
     celldm(4)=   0.000000  celldm(5)=   0.000000  celldm(6)=   0.000000

     crystal axes: (cart. coord. in units of alat)
               a(1) = (   0.999327  -0.031411   0.018925 )
               a(2) = (   0.483309   0.816845  -0.009095 )
               a(3) = (   0.877678  -0.283699   2.110608 )

     reciprocal axes: (cart. coord. in units 2 pi/alat)
               b(1) = (  0.991378 -0.592053 -0.491837 )
               b(2) = (  0.035088  1.205103  0.147394 )
               b(3) = ( -0.008738  0.010502  0.478842 )

     PseudoPot. # 1 for Mo read from file:
     ~/pseudo/Mo.pw91-n-van.UPF
     MD5 check sum: Not computed, couldn't open file
     Pseudo is Ultrasoft + core correction, Zval =  6.0
     Generated by new atomic code, or converted to UPF format
     Using radial grid of  965 points,  3 beta functions with:
                l(1) =   1
                l(2) =   2
                l(3) =   2
     Q(r) pseudized with  8 coefficients,  rinner =    1.000   1.000   1.000
                                                       1.200   1.200

     PseudoPot. # 2 for S  read from file:
     ~/pseudo/S.pw91-van_ak.UPF
     MD5 check sum: Not computed, couldn't open file
     Pseudo is Ultrasoft, Zval =  6.0
     Generated by new atomic code, or converted to UPF format
     Using radial grid of  811 points,  6 beta functions with:
                l(1) =   0
                l(2) =   0
                l(3) =   1
                l(4) =   1
                l(5) =   2
                l(6) =   2
     Q(r) pseudized with  8 coefficients,  rinner =    1.100   1.100   1.100
                                                       1.100   1.100

     atomic species   valence    mass     pseudopotential
        Mo             6.00    95.50000     Mo( 1.00)
        S              6.00    32.06500     S ( 1.00)

     No symmetry found

   Cartesian axes

     site n.     atom                  positions (alat units)
         1           Mo  tau(   1) = (   1.1102022   0.1821315   0.3464285  )
         2           Mo  tau(   2) = (   1.2994771   0.5530720   0.3362778  )
         3           Mo  tau(   3) = (   1.5882620  -0.1306712   1.5152346  )
         4           Mo  tau(   4) = (   1.1780448   0.3941744   0.6635323  )
         5           Mo  tau(   5) = (   1.2108443   0.3788958   1.5684865  )
         6           Mo  tau(   6) = (   0.9430402   0.5179498   0.3738873  )
         7           Mo  tau(   7) = (   1.3409910   0.5876308   1.2130042  )
         8           Mo  tau(   8) = (   0.9468840  -0.0987647   1.5860291  )
         9           S   tau(   9) = (   1.5078822   0.4404576   1.4317362  )
        10           S   tau(  10) = (   1.9954687   0.1654268   1.7339102  )
        11           S   tau(  11) = (   1.0452729   0.4579656   1.3088012  )
        12           S   tau(  12) = (   1.2452572   0.3920455   0.9565268  )
        13           S   tau(  13) = (   1.6276445   0.6704202   0.4570133  )
        14           S   tau(  14) = (   0.7682724   0.7280114   0.1906911  )
        15           S   tau(  15) = (   1.3938080   0.1169548   1.5835025  )
        16           S   tau(  16) = (   1.2742866  -0.1248689   1.6606838  )
        17           S   tau(  17) = (   1.1347935   0.6945955   0.5691331  )
        18           S   tau(  18) = (   1.1018971   0.4135155   0.1167286  )
        19           S   tau(  19) = (   0.8140614   0.0649708   1.3441264  )
        20           S   tau(  20) = (   1.7079050  -0.2206948   1.7965867  )
        21           S   tau(  21) = (   1.0662727  -0.1393827   1.0319304  )
        22           S   tau(  22) = (   0.3982067   0.2994101   0.4522415  )
        23           S   tau(  23) = (   0.9033131   0.2648584   0.5758506  )
        24           S   tau(  24) = (   0.8673135   0.0048610   0.1906063  )

     number of k points=     5  Marzari-Vanderbilt smearing, width (Ry)=  0.0200
                       cart. coord. in units 2pi/alat
        k(    1) = (   0.0000000   0.0000000   0.0000000), wk =   0.2222222
        k(    2) = (   0.0116958   0.4017011   0.0491314), wk =   0.4444444
        k(    3) = (   0.3304593  -0.1973509  -0.1639457), wk =   0.4444444
        k(    4) = (   0.3421551   0.2043502  -0.1148143), wk =   0.4444444
        k(    5) = (   0.3187634  -0.5990521  -0.2130770), wk =   0.4444444

     Initial potential from superposition of free atoms

     starting charge  143.98738, renormalised to  144.00000
     Starting wfcs are  136 randomized atomic wfcs

     Self-consistent Calculation

     iteration #  1     ecut=    45.00 Ry     beta= 0.70
     Davidson diagonalization with overlap
     ethr =  1.00E-02,  avg # of iterations =  2.0

     total energy              =    -562.14136377 Ry
     Harris-Foulkes estimate   =    -563.64306537 Ry
     estimated scf accuracy    <       3.93050056 Ry

[...]

     total energy              =    -562.83897495 Ry
     Harris-Foulkes estimate   =    -562.83897530 Ry
     estimated scf accuracy    <       0.00000172 Ry

     iteration # 12     ecut=    45.00 Ry     beta= 0.70
     Davidson diagonalization with overlap
     ethr =  1.20E-09,  avg # of iterations =  1.8

     End of self-consistent calculation

          k = 0.0000 0.0000 0.0000 ( 24519 PWs)   bands (ev):

   -12.3235 -12.1868 -10.4097 -10.1374 -10.0732  -9.9529  -9.8477  -9.7791
    -9.7120  -9.6438  -9.0100  -8.8944  -8.5734  -8.3902  -8.3639  -8.1667
    -3.1823  -2.5337  -2.4701  -2.2788  -2.2273  -2.1596  -1.9547  -1.7237
    -1.6948  -1.5967  -1.5075  -1.3092  -1.2949  -1.2382  -1.1133  -1.0196
    -0.9613  -0.8443  -0.8029  -0.7064  -0.6905  -0.6574  -0.5737  -0.4432
    -0.4131  -0.3224  -0.2531  -0.2318  -0.2180  -0.0872  -0.0419   0.0023
     0.0801   0.1491   0.3721   0.6474   0.7865   0.8501   1.0529   1.1046
     1.2417   1.2797   1.5004   1.5376   1.6522   1.7192   1.9138   2.1402
     2.3065   2.4205   2.5136   2.6368   2.6587   2.6896   3.0836   3.2821
     3.4759   3.5309   3.6907   3.8769   4.0530   4.1900   4.4677   4.5828
     4.6701   4.7725   4.8223   4.9734   5.0760   5.1092

[...]

          k = 0.3188-0.5991-0.2131 ( 24568 PWs)   bands (ev):

   -12.2588 -12.1486 -10.4526 -10.1285 -10.0617  -9.9492  -9.9103  -9.8744
    -9.7420  -9.6471  -8.9893  -8.9138  -8.6177  -8.3986  -8.2275  -8.1389
    -3.3148  -2.5623  -2.5500  -2.2383  -2.0013  -1.9801  -1.7803  -1.7101
    -1.6337  -1.5889  -1.5012  -1.3517  -1.2844  -1.2410  -1.1914  -1.1481
    -1.1095  -0.9685  -0.9610  -0.8440  -0.7523  -0.7276  -0.6217  -0.5656
    -0.4276  -0.4048  -0.3023  -0.2662  -0.1489  -0.1179  -0.0056   0.0635
     0.3436   0.5071   0.5704   0.6670   0.8131   0.9135   0.9989   1.1186
     1.2299   1.3032   1.5468   1.6176   1.6817   1.7383   1.7866   2.0539
     2.0693   2.2062   2.4345   2.5167   2.7527   2.8775   3.0121   3.3286
     3.3888   3.6323   3.7275   3.8598   4.0697   4.1151   4.3170   4.5943
     4.7715   4.8458   4.9053   4.9853   5.0461   5.1374

     the Fermi energy is     3.3392 ev

!    total energy              =    -562.83897482 Ry
     Harris-Foulkes estimate   =    -562.83897510 Ry
     estimated scf accuracy    <       0.00000031 Ry

     The total energy is the sum of the following terms:

     one-electron contribution =    -255.42820020 Ry
     hartree contribution      =     191.06686524 Ry
     xc contribution           =    -222.20352677 Ry
     ewald contribution        =    -276.27518466 Ry
     smearing contrib. (-TS)   =       0.00107158 Ry

     convergence has been achieved in  12 iterations

     Forces acting on atoms (cartesian axes, Ry/au):

     atom    1 type  1   force =    -0.00691384    0.00307567   -0.00916316
     atom    2 type  1   force =    -0.00189968    0.00036248   -0.00447212
     atom    3 type  1   force =    -0.01464619   -0.00470530    0.00076979
     atom    4 type  1   force =     0.00558722   -0.00307389   -0.00237007
     atom    5 type  1   force =     0.00267709    0.00026987    0.00224101
     atom    6 type  1   force =    -0.00216626    0.00043870    0.00576430
     atom    7 type  1   force =     0.00637658    0.01192579    0.00117524
     atom    8 type  1   force =     0.00070428    0.00308041   -0.00053671
     atom    9 type  2   force =     0.00396204   -0.00453711   -0.00020096
     atom   10 type  2   force =     0.00370392    0.01189159   -0.00668828
     atom   11 type  2   force =    -0.00679370   -0.01082221    0.00374221
     atom   12 type  2   force =     0.00139717    0.00154003    0.00114101
     atom   13 type  2   force =     0.00338803   -0.00619242   -0.00832841
     atom   14 type  2   force =    -0.00591332   -0.00024492    0.01169184
     atom   15 type  2   force =     0.00000385    0.00136975    0.01106934
     atom   16 type  2   force =    -0.00306124   -0.00654015   -0.00209796
     atom   17 type  2   force =    -0.00564302   -0.00185978   -0.00118984
     atom   18 type  2   force =     0.00210224    0.00176598    0.00160421
     atom   19 type  2   force =     0.00651959   -0.00174520   -0.00793411
     atom   20 type  2   force =    -0.00235025    0.00175700    0.00015158
     atom   21 type  2   force =     0.00574505   -0.00082332   -0.00352364
     atom   22 type  2   force =    -0.00089591    0.00029708    0.00990714
     atom   23 type  2   force =    -0.00194604    0.00025396   -0.00302472
     atom   24 type  2   force =     0.01006240    0.00251599    0.00027230

     Total force =     0.044879     Total SCF correction =     0.001558

     General routines

     Parallel routines

   This run was terminated on:  10: 5: 1  28Nov2021

   JOB DONE.