     Program PWSCF v.6.4 starts on 19Nov2021 at 11:26: 4

     R & G space division:  proc/nbgrp/npool/nimage =      40
     Waiting for input...
     Reading input from standard input
Warning: card    &IONS ignored
Warning: card      ION_DYNAMICS = 'BFGS' ignored
Warning: card   / ignored
Warning: card    &CELL ignored
Warning: card      CELL_DYNAMICS = 'BFGS', ignored
Warning: card    / ignored

     Current dimensions of program PWSCF are:
     Max number of different atomic species (ntypx) = 10
     Max number of k-points (npk) =  40000
     Max angular momentum in pseudopotentials (lmaxx) =  3

     bravais-lattice index     =            0
     lattice parameter (alat)  =      10.9959  a.u.
     unit-cell volume          =    3340.7687 (a.u.)^3
     number of atoms/cell      =           27
     number of atomic types    =            2
     number of electrons       =       162.00
     number of Kohn-Sham states=           97
     kinetic-energy cutoff     =      45.0000  Ry
     charge density cutoff     =     360.0000  Ry
     convergence threshold     =      1.0E-06
     mixing beta               =       0.7000
     number of iterations used =            8  local-TF  mixing
     Exchange-correlation      = SLA PW GGX GGC ( 1  4  2  2 0 0)

     celldm(1)=  10.995933  celldm(2)=   0.000000  celldm(3)=   0.000000
     celldm(4)=   0.000000  celldm(5)=   0.000000  celldm(6)=   0.000000

     crystal axes: (cart. coord. in units of alat)
               a(1) = (   1.000000   0.000000   0.000000 )
               a(2) = (   0.029344   1.516536   0.000000 )
               a(3) = (  -0.003114   0.390307   1.656905 )

     reciprocal axes: (cart. coord. in units 2 pi/alat)
               b(1) = (  1.000000 -0.019349  0.006437 )
               b(2) = (  0.000000  0.659398 -0.155330 )
               b(3) = (  0.000000  0.000000  0.603535 )

     PseudoPot. # 1 for Mo read from file:
     ~/pseudo/Mo.pw91-n-van.UPF
     MD5 check sum: Not computed, couldn't open file
     Pseudo is Ultrasoft + core correction, Zval =  6.0
     Generated by new atomic code, or converted to UPF format
     Using radial grid of  965 points,  3 beta functions with:
                l(1) =   1
                l(2) =   2
                l(3) =   2
     Q(r) pseudized with  8 coefficients,  rinner =    1.000   1.000   1.000
                                                       1.200   1.200

     PseudoPot. # 2 for S  read from file:
     ~/pseudo/S.pw91-van_ak.UPF
     MD5 check sum: Not computed, couldn't open file
     Pseudo is Ultrasoft, Zval =  6.0
     Generated by new atomic code, or converted to UPF format
     Using radial grid of  811 points,  6 beta functions with:
                l(1) =   0
                l(2) =   0
                l(3) =   1
                l(4) =   1
                l(5) =   2
                l(6) =   2
     Q(r) pseudized with  8 coefficients,  rinner =    1.100   1.100   1.100
                                                       1.100   1.100

     atomic species   valence    mass     pseudopotential
        Mo             6.00    95.50000     Mo( 1.00)
        S              6.00    32.06500     S ( 1.00)

     No symmetry found

   Cartesian axes

     site n.     atom                  positions (alat units)
         1           Mo  tau(   1) = (   0.9703634   1.0280033   0.7007581  )
         2           Mo  tau(   2) = (   0.9702470   0.9347845   0.2441954  )
         3           Mo  tau(   3) = (   0.9628896   0.5642150   0.5953231  )
         4           Mo  tau(   4) = (   0.9710848   1.7606048   1.3910977  )
         5           Mo  tau(   5) = (   0.9649989   0.6227600   1.0616591  )
         6           Mo  tau(   6) = (   0.9829929   1.6822735   0.9294632  )
         7           Mo  tau(   7) = (   0.4568839   0.7592689   1.6748815  )
         8           Mo  tau(   8) = (   0.4576889   1.1948682   1.2828837  )
         9           Mo  tau(   9) = (   0.4937833   1.5177190   0.3362749  )
        10           S   tau(  10) = (   0.6602998   0.4371605   0.8485755  )
        11           S   tau(  11) = (   0.2055401   1.2993371   0.9696726  )
        12           S   tau(  12) = (   0.6951597   1.0977855   1.5996244  )
        13           S   tau(  13) = (   0.2581575   0.3338404   1.1566770  )
        14           S   tau(  14) = (   0.7199677   0.9848131   1.0470035  )
        15           S   tau(  15) = (   0.7436932   1.4034080   0.6609931  )
        16           S   tau(  16) = (   0.7427985   1.2683268   0.1010438  )
        17           S   tau(  17) = (   0.2146542   0.8789556   1.3560224  )
        18           S   tau(  18) = (   0.2137479   0.6051866   0.2371368  )
        19           S   tau(  19) = (   0.2363199   1.1963792   0.4167338  )
        20           S   tau(  20) = (   0.2163096   0.2040173   0.5998332  )
        21           S   tau(  21) = (   0.1946334   1.4162795   1.5279699  )
        22           S   tau(  22) = (   0.6620006   0.8467410   0.4869379  )
        23           S   tau(  23) = (   0.7083247   1.5056436   1.2087065  )
        24           S   tau(  24) = (   0.1839770   0.0678584   0.0396458  )
        25           S   tau(  25) = (   0.2639044   0.7600963   0.8083468  )
        26           S   tau(  26) = (   0.7047730   0.5785725   1.4085581  )
        27           S   tau(  27) = (   0.7418889   0.3026768   0.3036517  )

     number of k points=     8  Marzari-Vanderbilt smearing, width (Ry)=  0.0200
                       cart. coord. in units 2pi/alat
        k(    1) = (   0.0000000   0.0000000   0.0000000), wk =   0.1666667
        k(    2) = (   0.0000000   0.0000000  -0.3017675), wk =   0.1666667
        k(    3) = (   0.0000000  -0.3296988   0.0776652), wk =   0.1666667
        k(    4) = (   0.0000000  -0.3296988  -0.2241023), wk =   0.1666667
        k(    5) = (   0.3333333  -0.0064497   0.0021457), wk =   0.3333333
        k(    6) = (   0.3333333  -0.0064497  -0.2996218), wk =   0.3333333
        k(    7) = (   0.3333333  -0.3361485   0.0798109), wk =   0.3333333
        k(    8) = (   0.3333333  -0.3361485  -0.2219566), wk =   0.3333333

     Initial potential from superposition of free atoms

     starting charge  161.98581, renormalised to  162.00000
     Starting wfcs are  153 randomized atomic wfcs

     Self-consistent Calculation

     iteration #  1     ecut=    45.00 Ry     beta= 0.70
     Davidson diagonalization with overlap
     ethr =  1.00E-02,  avg # of iterations =  2.0

     total energy              =    -632.19392785 Ry
     Harris-Foulkes estimate   =    -634.54597525 Ry
     estimated scf accuracy    <       5.92344436 Ry

[...]

     total energy              =    -633.45033576 Ry
     Harris-Foulkes estimate   =    -633.45033609 Ry
     estimated scf accuracy    <       0.00000196 Ry

     iteration # 14     ecut=    45.00 Ry     beta= 0.70
     Davidson diagonalization with overlap
     ethr =  6.37E-10,  avg # of iterations =  3.0

     End of self-consistent calculation

          k = 0.0000 0.0000 0.0000 ( 17035 PWs)   bands (ev):

    -6.1979  -5.2577  -5.2330  -4.9770  -4.9564  -4.7646  -4.6234  -4.5407
    -4.4090  -4.3779  -4.3628  -4.2696  -4.1719  -4.1545  -4.0637  -3.9701
    -3.8755  -3.6397   1.7894   2.4085   2.5302   2.6483   2.6710   2.7159
     2.7976   3.0068   3.0196   3.1203   3.1772   3.2469   3.3527   3.5238
     3.5605   3.5994   3.7209   3.7263   3.8395   3.8762   3.9329   4.1944
     4.2553   4.3371   4.4063   4.4878   4.5360   4.6328   4.6659   4.9075
     4.9687   5.0015   5.0530   5.1691   5.2105   5.3036   5.4814   5.5262
     5.5797   5.6390   5.7816   5.8178   5.8949   5.9552   6.1127   6.2883
     6.4142   6.6282   6.6389   6.6849   6.8353   6.9424   7.0245   7.1422
     7.1937   7.3368   7.6434   7.7461   7.8241   7.9038   8.0142   8.1338
     8.3230   8.4076   8.4305   8.6916   8.8509   8.9616   9.0333   9.1652
     9.3665   9.3808   9.4747   9.5443   9.8292   9.9302  10.0833  10.1363
    10.1552

[...]

          k = 0.3333-0.3361-0.2220 ( 17028 PWs)   bands (ev):

    -5.5842  -5.4638  -5.2314  -5.1674  -5.0009  -4.7955  -4.7472  -4.6644
    -4.4376  -4.4074  -4.3540  -4.2743  -4.2223  -4.1924  -4.0378  -3.9231
    -3.8090  -3.7093   2.2390   2.2708   2.3983   2.4716   2.5599   2.7301
     2.7607   2.7967   2.8620   2.9469   3.0935   3.1768   3.2283   3.3449
     3.4514   3.6232   3.7852   3.8651   4.0152   4.1712   4.2304   4.3770
     4.4317   4.5272   4.6006   4.6880   4.7398   4.8171   4.8544   4.9772
     5.0049   5.0862   5.1410   5.2038   5.3267   5.4013   5.5057   5.5455
     5.6230   5.7262   5.7732   5.8152   5.9609   6.0811   6.1345   6.2335
     6.2979   6.3761   6.5270   6.6035   6.6594   6.8171   6.8753   6.9700
     7.1208   7.2190   7.3592   7.4711   7.6792   7.7755   7.9401   8.0217
     8.1385   8.2591   8.4332   8.5906   8.7110   8.9822   9.1164   9.1929
     9.3447   9.4554   9.6450   9.7377   9.9610  10.0857  10.1382  10.2130
    10.2582

     the Fermi energy is     8.2916 ev

!    total energy              =    -633.45033589 Ry
     Harris-Foulkes estimate   =    -633.45033591 Ry
     estimated scf accuracy    <       0.00000004 Ry

     The total energy is the sum of the following terms:

     one-electron contribution =      96.37937095 Ry
     hartree contribution      =      53.53482553 Ry
     xc contribution           =    -250.37891427 Ry
     ewald contribution        =    -532.98550329 Ry
     smearing contrib. (-TS)   =      -0.00011481 Ry

     convergence has been achieved in  14 iterations

     Forces acting on atoms (cartesian axes, Ry/au):

     atom    1 type  1   force =     0.01100220    0.05170261    0.04175664
     atom    2 type  1   force =     0.03295470    0.00229359   -0.07958239
     atom    3 type  1   force =    -0.01592523   -0.02839880   -0.06248449
     atom    4 type  1   force =    -0.01091491   -0.00800228    0.07796992
     atom    5 type  1   force =     0.00315395    0.03603565    0.05380863
     atom    6 type  1   force =    -0.00866150   -0.07282514   -0.03555905
     atom    7 type  1   force =     0.00219488    0.00966860   -0.01840351
     atom    8 type  1   force =    -0.01429236   -0.01583821    0.00033132
     atom    9 type  1   force =     0.00979846   -0.00367556    0.01549305
     atom   10 type  2   force =     0.01695915    0.00035057   -0.00915665
     atom   11 type  2   force =    -0.01136682    0.00521654   -0.00729670
     atom   12 type  2   force =     0.02072994    0.02245541    0.01962903
     atom   13 type  2   force =    -0.01803337    0.00829979   -0.01116848
     atom   14 type  2   force =     0.01287167   -0.01437366   -0.02820588
     atom   15 type  2   force =     0.01258109    0.00279547    0.01190646
     atom   16 type  2   force =    -0.00071646   -0.00619422   -0.00234798
     atom   17 type  2   force =    -0.02353302   -0.01499946   -0.02462564
     atom   18 type  2   force =    -0.03117789    0.03567599    0.04632723
     atom   19 type  2   force =    -0.03104006   -0.06202360    0.01664644
     atom   20 type  2   force =    -0.00835654    0.02275245    0.01585989
     atom   21 type  2   force =    -0.01307016    0.02939188    0.00391492
     atom   22 type  2   force =     0.02066933   -0.00678760    0.01819505
     atom   23 type  2   force =     0.03215554    0.06296993   -0.01845776
     atom   24 type  2   force =     0.00038979   -0.00144842    0.00252141
     atom   25 type  2   force =    -0.02113574    0.00183439   -0.00031210
     atom   26 type  2   force =     0.02963596   -0.05348634   -0.03356961
     atom   27 type  2   force =     0.00312742   -0.00338960    0.00681027

     Total force =     0.252006     Total SCF correction =     0.000312

     General routines

     Parallel routines

   This run was terminated on:  11:27: 9  19Nov2021

   JOB DONE.