     Program PWSCF v.6.4 starts on  2Sep2021 at 21: 3:30

     R & G space division:  proc/nbgrp/npool/nimage =      40
     Waiting for input...
     Reading input from standard input
Warning: card    &IONS ignored
Warning: card      ION_DYNAMICS = 'BFGS' ignored
Warning: card   / ignored
Warning: card    &CELL ignored
Warning: card      CELL_DYNAMICS = 'BFGS', ignored
Warning: card    / ignored

     Current dimensions of program PWSCF are:
     Max number of different atomic species (ntypx) = 10
     Max number of k-points (npk) =  40000
     Max angular momentum in pseudopotentials (lmaxx) =  3

     Found symmetry operation: I + ( -0.0000 -0.5000  0.0000)
     This is a supercell, fractional translations are disabled

     bravais-lattice index     =            0
     lattice parameter (alat)  =      11.8849  a.u.
     unit-cell volume          =    6318.4644 (a.u.)^3
     number of atoms/cell      =           36
     number of atomic types    =            2
     number of electrons       =       216.00
     number of Kohn-Sham states=          130
     kinetic-energy cutoff     =      45.0000  Ry
     charge density cutoff     =     360.0000  Ry
     convergence threshold     =      1.0E-06
     mixing beta               =       0.7000
     number of iterations used =            8  local-TF  mixing
     Exchange-correlation      = SLA PW GGX GGC ( 1  4  2  2 0 0)

     celldm(1)=  11.884880  celldm(2)=   0.000000  celldm(3)=   0.000000
     celldm(4)=   0.000000  celldm(5)=   0.000000  celldm(6)=   0.000000

     crystal axes: (cart. coord. in units of alat)
               a(1) = (   1.000000   0.000000   0.000000 )
               a(2) = (   0.500719   0.865679   0.000000 )
               a(3) = (   0.378060   0.199473   4.347805 )

     reciprocal axes: (cart. coord. in units 2 pi/alat)
               b(1) = (  1.000000 -0.578412 -0.060417 )
               b(2) = (  0.000000  1.155162 -0.052998 )
               b(3) = (  0.000000  0.000000  0.230001 )

     PseudoPot. # 1 for Mo read from file:
     ~/pseudo/Mo.pw91-n-van.UPF
     MD5 check sum: Not computed, couldn't open file
     Pseudo is Ultrasoft + core correction, Zval =  6.0
     Generated by new atomic code, or converted to UPF format
     Using radial grid of  965 points,  3 beta functions with:
                l(1) =   1
                l(2) =   2
                l(3) =   2
     Q(r) pseudized with  8 coefficients,  rinner =    1.000   1.000   1.000
                                                       1.200   1.200

     PseudoPot. # 2 for S  read from file:
     ~/pseudo/S.pw91-van_ak.UPF
     MD5 check sum: Not computed, couldn't open file
     Pseudo is Ultrasoft, Zval =  6.0
     Generated by new atomic code, or converted to UPF format
     Using radial grid of  811 points,  6 beta functions with:
                l(1) =   0
                l(2) =   0
                l(3) =   1
                l(4) =   1
                l(5) =   2
                l(6) =   2
     Q(r) pseudized with  8 coefficients,  rinner =    1.100   1.100   1.100
                                                       1.100   1.100

     atomic species   valence    mass     pseudopotential
        Mo             6.00    95.50000     Mo( 1.00)
        S              6.00    32.06500     S ( 1.00)

     No symmetry found

   Cartesian axes

     site n.     atom                  positions (alat units)
         1           Mo  tau(   1) = (   1.3676380   0.9351408   4.2524473  )
         2           Mo  tau(   2) = (   1.1172782   0.5023011   4.2524473  )
         3           Mo  tau(   3) = (   0.8676380   0.9351408   4.2524473  )
         4           Mo  tau(   4) = (   0.6172782   0.5023011   4.2524473  )
         5           Mo  tau(   5) = (   0.2702195   0.3276168   1.0032945  )
         6           Mo  tau(   6) = (   0.5205792   0.7604566   1.0032944  )
         7           Mo  tau(   7) = (   0.7702195   0.3276168   1.0032944  )
         8           Mo  tau(   8) = (   1.0205792   0.7604565   1.0032945  )
         9           Mo  tau(   9) = (   0.8693003   0.9368933   3.4397391  )
        10           Mo  tau(  10) = (   0.6189406   0.5040537   3.4397391  )
        11           Mo  tau(  11) = (   1.3693003   0.9368934   3.4397380  )
        12           Mo  tau(  12) = (   1.1189406   0.5040537   3.4397391  )
        13           S   tau(  13) = (   1.1175412   0.7908452   4.0326460  )
        14           S   tau(  14) = (   0.8671814   0.3580055   4.0326460  )
        15           S   tau(  15) = (   1.6175412   0.7908452   4.0326460  )
        16           S   tau(  16) = (   1.3671814   0.3580055   4.0326473  )
        17           S   tau(  17) = (   0.5201684   0.4717823   0.7478636  )
        18           S   tau(  18) = (   0.2698087   0.0389426   0.7478640  )
        19           S   tau(  19) = (   1.0201684   0.4717823   0.7478640  )
        20           S   tau(  20) = (   0.7698087   0.0389426   0.7478640  )
        21           S   tau(  21) = (   0.6186597   0.2154923   3.2020540  )
        22           S   tau(  22) = (   0.8690199   0.6483317   3.2020541  )
        23           S   tau(  23) = (   1.1186607   0.2154923   3.2020540  )
        24           S   tau(  24) = (   1.3690199   0.6483311   3.2020540  )
        25           S   tau(  25) = (   0.7395916   0.8799049   0.1156615  )
        26           S   tau(  26) = (   0.4892318   0.4470652   0.1156609  )
        27           S   tau(  27) = (   1.2395915   0.8799049   0.1156615  )
        28           S   tau(  28) = (   0.9892318   0.4470652   0.1156615  )
        29           S   tau(  29) = (   0.5202433   0.4718504   1.2551388  )
        30           S   tau(  30) = (   0.2698836   0.0390106   1.2551390  )
        31           S   tau(  31) = (   1.0202433   0.4718503   1.2551390  )
        32           S   tau(  32) = (   0.7698836   0.0390106   1.2551390  )
        33           S   tau(  33) = (   0.6185879   0.2154493   3.6866474  )
        34           S   tau(  34) = (   0.8689470   0.6482894   3.6866473  )
        35           S   tau(  35) = (   1.1185867   0.2154493   3.6866475  )
        36           S   tau(  36) = (   1.3689470   0.6482901   3.6866474  )

     number of k points=     5  Marzari-Vanderbilt smearing, width (Ry)=  0.0200
                       cart. coord. in units 2pi/alat
        k(    1) = (   0.0000000   0.0000000   0.0000000), wk =   0.2222222
        k(    2) = (   0.0000000   0.3850540  -0.0176659), wk =   0.4444444
        k(    3) = (   0.3333333  -0.1928040  -0.0201391), wk =   0.4444444
        k(    4) = (   0.3333333   0.1922500  -0.0378049), wk =   0.4444444
        k(    5) = (   0.3333333  -0.5778580  -0.0024732), wk =   0.4444444

     Initial potential from superposition of free atoms

     starting charge  215.98107, renormalised to  216.00000

     negative rho (up, down):  5.436E-04 0.000E+00
     Starting wfcs are  204 randomized atomic wfcs

     Self-consistent Calculation

     iteration #  1     ecut=    45.00 Ry     beta= 0.70
     Davidson diagonalization with overlap
     ethr =  1.00E-02,  avg # of iterations =  2.2

     negative rho (up, down):  6.093E-06 0.000E+00

     total energy              =    -843.66283155 Ry
     Harris-Foulkes estimate   =    -845.69401595 Ry
     estimated scf accuracy    <       5.06123244 Ry

[...]

     total energy              =    -844.62891289 Ry
     Harris-Foulkes estimate   =    -844.62891428 Ry
     estimated scf accuracy    <       0.00000697 Ry

     iteration # 39     ecut=    45.00 Ry     beta= 0.70
     Davidson diagonalization with overlap
     ethr =  3.23E-09,  avg # of iterations =  1.4

[...]

     End of self-consistent calculation

          k = 0.0000 0.0000 0.0000 ( 32201 PWs)   bands (ev):

   -11.9171 -11.0141 -10.1642 -10.0281 -10.0135 -10.0113 -10.0090  -9.2300
    -9.2295  -9.2284  -9.0885  -8.9775  -8.8892  -8.8875  -8.8864  -8.6353
    -8.6226  -8.6195  -8.2016  -8.1992  -8.1988  -8.0324  -8.0273  -8.0270
    -3.7225  -3.7222  -3.7219  -3.3986  -2.9547  -2.9525  -2.9524  -2.1238
    -2.1156  -2.1110  -1.9968  -1.8070  -1.8047  -1.8046  -1.6218  -1.2901
    -1.2885  -1.2876  -1.1944  -1.1861  -0.9344  -0.9332  -0.9243  -0.8927
    -0.8924  -0.8868  -0.7926  -0.7868  -0.7850  -0.4133  -0.4062  -0.3913
    -0.0721  -0.0716  -0.0700   0.0076   0.0088   0.0190   0.5321   0.5422
     0.6446   0.6448   0.6469   0.9355   0.9640   0.9648   0.9764   1.5657
     1.5748   1.8013   1.8101   1.9820   1.9843   1.9844   2.0561   2.0562
     2.0682   2.1002   2.2854   2.2973   2.2985   2.6613   2.6651   2.6659
     2.6985   2.6998   2.7079   2.7238   2.7363   2.8508   2.8604   2.9686
     3.0690   3.0806   3.0857   3.2935   3.2943   3.3041   3.3532   3.3608
     3.3612   3.6650   3.9764   4.0252   4.0369   5.0349   5.0370   5.0376
     5.3713   5.7005   5.7013   5.7014   6.1504   6.1543   6.1547   6.1865
     6.1912   6.3451   6.3465   6.3465   6.3832   6.3840   6.3847   6.8216
     6.8219   6.8223

[...]

          k = 0.3333-0.5779-0.0025 ( 32140 PWs)   bands (ev):

   -10.6787 -10.6782 -10.6779  -9.9014  -9.9014  -9.8995  -9.5618  -9.5616
    -9.5608  -9.3227  -9.0981  -9.0727  -9.0725  -9.0712  -8.9786  -8.9782
    -8.9755  -8.9252  -8.6433  -8.4349  -8.4348  -8.4327  -7.9224  -7.8302
    -2.7899  -2.7891  -2.7888  -2.6334  -2.5466  -2.1739  -2.0102  -1.9058
    -1.9053  -1.9049  -1.4855  -1.4839  -1.4829  -1.4112  -1.3169  -1.2199
    -1.2195  -1.2192  -1.1409  -0.8717  -0.8714  -0.8713  -0.6026  -0.5187
    -0.5158  -0.5154  -0.2729  -0.2727  -0.2723  -0.2712  -0.0624  -0.0384
    -0.0383  -0.0377   0.0916   0.2532   0.2534   0.2539   0.2947   0.2988
     0.2997   0.3240   0.3669   0.4155   0.4174   0.4175   0.5327   0.5388
     0.5430   0.5448   0.8389   0.8406   0.8406   1.0381   1.0692   1.2292
     1.2897   1.2908   1.2918   1.7578   2.1359   2.1444   2.1483   2.1929
     2.1931   2.1957   2.4258   2.4306   2.4401   2.7450   2.7460   2.7466
     2.9469   2.9470   2.9471   3.2378   3.2393   3.2396   3.4556   3.7608
     3.7613   3.7654   4.0595   4.4979   5.0374   5.0406   5.0409   5.1722
     5.1785   5.4643   5.5899   5.5901   5.5917   5.8439   5.8445   5.8455
     5.8842   5.8865   5.8866   5.9300   6.2247   6.2254   6.2265   6.5305
     6.5306   6.5357

     the Fermi energy is     4.3135 ev

!    total energy              =    -844.62891252 Ry
     Harris-Foulkes estimate   =    -844.62891337 Ry
     estimated scf accuracy    <       0.00000054 Ry

     The total energy is the sum of the following terms:

     one-electron contribution =   -5316.77232935 Ry
     hartree contribution      =    2760.33450013 Ry
     xc contribution           =    -337.70574108 Ry
     ewald contribution        =    2049.50198588 Ry
     smearing contrib. (-TS)   =       0.01267190 Ry

     convergence has been achieved in  39 iterations

     negative rho (up, down):  7.852E-04 0.000E+00

     Forces acting on atoms (cartesian axes, Ry/au):

     atom    1 type  1   force =    -0.00008659   -0.00029979   -0.04904034
     atom    2 type  1   force =    -0.00009056   -0.00030247   -0.04906062
     atom    3 type  1   force =    -0.00008985   -0.00030460   -0.04904521
     atom    4 type  1   force =    -0.00008841   -0.00030170   -0.04905145
     atom    5 type  1   force =    -0.00059733   -0.00034601   -0.01322701
     atom    6 type  1   force =    -0.00059725   -0.00034943   -0.01323259
     atom    7 type  1   force =    -0.00059694   -0.00034763   -0.01323311
     atom    8 type  1   force =    -0.00059957   -0.00035136   -0.01323160
     atom    9 type  1   force =    -0.00011611   -0.00016914    0.04313155
     atom   10 type  1   force =    -0.00011639   -0.00016988    0.04313416
     atom   11 type  1   force =    -0.00011603   -0.00016922    0.04313599
     atom   12 type  1   force =    -0.00011491   -0.00017000    0.04313123
     atom   13 type  2   force =     0.00041968    0.00059004   -0.17947556
     atom   14 type  2   force =     0.00042043    0.00059999   -0.17947217
     atom   15 type  2   force =     0.00042044    0.00059039   -0.17947515
     atom   16 type  2   force =     0.00041984    0.00059952   -0.17947956
     atom   17 type  2   force =     0.00053658    0.00029053   -0.00059693
     atom   18 type  2   force =     0.00053673    0.00029117   -0.00059890
     atom   19 type  2   force =     0.00053771    0.00029019   -0.00059838
     atom   20 type  2   force =     0.00053755    0.00029021   -0.00059993
     atom   21 type  2   force =     0.00019104   -0.00011203   -0.09186690
     atom   22 type  2   force =     0.00018951   -0.00011389   -0.09186536
     atom   23 type  2   force =     0.00018899   -0.00011234   -0.09186764
     atom   24 type  2   force =     0.00019025   -0.00011282   -0.09186591
     atom   25 type  2   force =    -0.00018815    0.00008798    0.26642085
     atom   26 type  2   force =    -0.00018794    0.00008067    0.26641799
     atom   27 type  2   force =    -0.00018731    0.00008762    0.26641818
     atom   28 type  2   force =    -0.00018760    0.00008009    0.26641485
     atom   29 type  2   force =     0.00011627    0.00006817    0.01520510
     atom   30 type  2   force =     0.00011677    0.00006925    0.01520488
     atom   31 type  2   force =     0.00011739    0.00006803    0.01520501
     atom   32 type  2   force =     0.00011702    0.00006829    0.01520529
     atom   33 type  2   force =    -0.00027537   -0.00010230    0.00946450
     atom   34 type  2   force =    -0.00027454   -0.00010633    0.00946622
     atom   35 type  2   force =    -0.00027217   -0.00010300    0.00946471
     atom   36 type  2   force =    -0.00027315   -0.00010821    0.00946381

     Total force =     0.682330     Total SCF correction =     0.001837

     General routines

     Parallel routines

   This run was terminated on:  21: 8: 4   2Sep2021

   JOB DONE.