     Program PWSCF v.6.4 starts on 23Dec2021 at 22:57:46

     R & G space division:  proc/nbgrp/npool/nimage =      40
     Waiting for input...
     Reading input from standard input
Warning: card    &IONS ignored
Warning: card      ION_DYNAMICS = 'BFGS' ignored
Warning: card   / ignored
Warning: card    &CELL ignored
Warning: card      CELL_DYNAMICS = 'BFGS', ignored
Warning: card    / ignored

     Current dimensions of program PWSCF are:
     Max number of different atomic species (ntypx) = 10
     Max number of k-points (npk) =  40000
     Max angular momentum in pseudopotentials (lmaxx) =  3

     bravais-lattice index     =            0
     lattice parameter (alat)  =      16.2509  a.u.
     unit-cell volume          =    5978.6704 (a.u.)^3
     number of atoms/cell      =           36
     number of atomic types    =            2
     number of electrons       =       216.00
     number of Kohn-Sham states=          130
     kinetic-energy cutoff     =      45.0000  Ry
     charge density cutoff     =     360.0000  Ry
     convergence threshold     =      1.0E-06
     mixing beta               =       0.7000
     number of iterations used =            8  local-TF  mixing
     Exchange-correlation      = SLA PW GGX GGC ( 1  4  2  2 0 0)

     celldm(1)=  16.250861  celldm(2)=   0.000000  celldm(3)=   0.000000
     celldm(4)=   0.000000  celldm(5)=   0.000000  celldm(6)=   0.000000

     crystal axes: (cart. coord. in units of alat)
               a(1) = (   1.000000   0.000000   0.000000 )
               a(2) = (  -0.097645   1.008738   0.000000 )
               a(3) = (  -0.330423  -0.098184   1.381011 )

     reciprocal axes: (cart. coord. in units 2 pi/alat)
               b(1) = (  1.000000  0.096799  0.246143 )
               b(2) = (  0.000000  0.991338  0.070480 )
               b(3) = (  0.000000  0.000000  0.724107 )

     PseudoPot. # 1 for Mo read from file:
     ~/pseudo/Mo.pw91-n-van.UPF
     MD5 check sum: Not computed, couldn't open file
     Pseudo is Ultrasoft + core correction, Zval =  6.0
     Generated by new atomic code, or converted to UPF format
     Using radial grid of  965 points,  3 beta functions with:
                l(1) =   1
                l(2) =   2
                l(3) =   2
     Q(r) pseudized with  8 coefficients,  rinner =    1.000   1.000   1.000
                                                       1.200   1.200

     PseudoPot. # 2 for S  read from file:
     ~/pseudo/S.pw91-van_ak.UPF
     MD5 check sum: Not computed, couldn't open file
     Pseudo is Ultrasoft, Zval =  6.0
     Generated by new atomic code, or converted to UPF format
     Using radial grid of  811 points,  6 beta functions with:
                l(1) =   0
                l(2) =   0
                l(3) =   1
                l(4) =   1
                l(5) =   2
                l(6) =   2
     Q(r) pseudized with  8 coefficients,  rinner =    1.100   1.100   1.100
                                                       1.100   1.100

     atomic species   valence    mass     pseudopotential
        Mo             6.00    95.50000     Mo( 1.00)
        S              6.00    32.06500     S ( 1.00)

     No symmetry found

   Cartesian axes

     site n.     atom                  positions (alat units)
         1           Mo  tau(   1) = (   0.3556761   0.3931956   0.7914212  )
         2           Mo  tau(   2) = (   0.1250727   0.0006397   0.0284341  )
         3           Mo  tau(   3) = (   0.4718156   0.3714421   0.1423700  )
         4           Mo  tau(   4) = (   0.3273060   0.7952502   0.4800081  )
         5           Mo  tau(   5) = (   0.5706394   0.4032315   0.5312618  )
         6           Mo  tau(   6) = (   0.4939081   0.7488197   0.7505114  )
         7           Mo  tau(   7) = (   0.1467777   0.3734890   0.0485776  )
         8           Mo  tau(   8) = (   0.6618505   0.4595633   0.8553370  )
         9           Mo  tau(   9) = (  -0.3213846   0.6765225   1.1441319  )
        10           Mo  tau(  10) = (   0.0383203   0.2953253   1.1836575  )
        11           Mo  tau(  11) = (   0.0807290   0.6961905   0.0812464  )
        12           Mo  tau(  12) = (   0.4970272   0.0903581   0.6888870  )
        13           S   tau(  13) = (   0.3313865   0.2612067   0.5448700  )
        14           S   tau(  14) = (   0.7528825   0.2428699   0.6871068  )
        15           S   tau(  15) = (   0.3346187   0.5782016   0.0077139  )
        16           S   tau(  16) = (   0.2644260   0.1912302   1.2956178  )
        17           S   tau(  17) = (   0.5307944   0.2214230   0.9466389  )
        18           S   tau(  18) = (  -0.1581177   0.1103119   1.2028956  )
        19           S   tau(  19) = (   0.0449320   0.4956212   0.2803493  )
        20           S   tau(  20) = (   0.8314823   0.8290148   0.1487787  )
        21           S   tau(  21) = (   0.2380784  -0.0389969   0.6393567  )
        22           S   tau(  22) = (   0.2321836   0.6306213   0.6803144  )
        23           S   tau(  23) = (   0.1386226   0.8788501   0.2957979  )
        24           S   tau(  24) = (   0.4379309   0.5848482   0.9909337  )
        25           S   tau(  25) = (   0.6814666   0.2904787   0.3065121  )
        26           S   tau(  26) = (   0.4580685   0.5915441   0.3390731  )
        27           S   tau(  27) = (   0.3094424   0.9226125   0.8958460  )
        28           S   tau(  28) = (   0.5532022   0.9336896   0.5290100  )
        29           S   tau(  29) = (   0.4779151   0.8724732   1.2309114  )
        30           S   tau(  30) = (   0.6133206   0.4319131   1.2850081  )
        31           S   tau(  31) = (   0.7275612   0.6191872   0.6344353  )
        32           S   tau(  32) = (  -0.3011527   0.8578555   0.9240100  )
        33           S   tau(  33) = (   0.1473876   0.2758919   0.9249497  )
        34           S   tau(  34) = (  -0.1252787   0.4983218   1.0296727  )
        35           S   tau(  35) = (   0.2901130   0.1789532   0.1874157  )
        36           S   tau(  36) = (  -0.1023821   0.7795425   1.2883041  )

     number of k points=     8  Marzari-Vanderbilt smearing, width (Ry)=  0.0200
                       cart. coord. in units 2pi/alat
        k(    1) = (   0.0000000   0.0000000   0.0000000), wk =   0.2500000
        k(    2) = (   0.0000000   0.0000000  -0.3620536), wk =   0.2500000
        k(    3) = (   0.0000000  -0.4956689  -0.0352399), wk =   0.2500000
        k(    4) = (   0.0000000  -0.4956689  -0.3972935), wk =   0.2500000
        k(    5) = (  -0.5000000  -0.0483996  -0.1230717), wk =   0.2500000
        k(    6) = (  -0.5000000  -0.0483996  -0.4851253), wk =   0.2500000
        k(    7) = (  -0.5000000  -0.5440685  -0.1583117), wk =   0.2500000
        k(    8) = (  -0.5000000  -0.5440685  -0.5203653), wk =   0.2500000

     Initial potential from superposition of free atoms

     starting charge  215.98107, renormalised to  216.00000
     Starting wfcs are  204 randomized atomic wfcs

     Self-consistent Calculation

     iteration #  1     ecut=    45.00 Ry     beta= 0.70
     Davidson diagonalization with overlap
     ethr =  1.00E-02,  avg # of iterations =  2.0

     total energy              =    -842.21919233 Ry
     Harris-Foulkes estimate   =    -845.65704454 Ry
     estimated scf accuracy    <       9.35266225 Ry

[...]

     iteration #  7     ecut=    45.00 Ry     beta= 0.70
     Davidson diagonalization with overlap
     c_bands:  1 eigenvalues not converged
     c_bands:  1 eigenvalues not converged
     ethr =  2.32E-06,  avg # of iterations = 15.0

[...]

     total energy              =    -844.11812006 Ry
     Harris-Foulkes estimate   =    -844.11812062 Ry
     estimated scf accuracy    <       0.00000400 Ry

     iteration # 13     ecut=    45.00 Ry     beta= 0.70
     Davidson diagonalization with overlap
     ethr =  1.85E-09,  avg # of iterations =  1.2

     End of self-consistent calculation

          k = 0.0000 0.0000 0.0000 ( 30507 PWs)   bands (ev):

    -9.4089  -9.1509  -8.7131  -8.6440  -8.4108  -8.3016  -8.2434  -8.2181
    -8.0962  -8.0341  -7.9955  -7.9110  -7.8718  -7.7607  -7.7029  -7.6194
    -7.5825  -7.4887  -7.2634  -7.2291  -7.0865  -7.0281  -6.9131  -6.8436
    -1.1884  -1.0443  -0.8049  -0.7349  -0.6929  -0.5612  -0.4861  -0.3787
    -0.3314  -0.2869  -0.2050  -0.1372  -0.0954   0.0155   0.0194   0.0844
     0.2057   0.2691   0.3140   0.3493   0.3744   0.4995   0.5570   0.6718
     0.6991   0.7532   0.8077   0.8407   0.9294   0.9648   0.9997   1.0187
     1.0362   1.1180   1.1826   1.2250   1.2587   1.2680   1.3205   1.3865
     1.4780   1.5037   1.6777   1.7493   1.8203   1.8604   1.9011   1.9840
     2.0909   2.1038   2.1190   2.2255   2.2519   2.3223   2.3871   2.5186
     2.5696   2.6305   2.8008   2.8435   2.9715   3.0680   3.1083   3.1841
     3.2145   3.3343   3.4332   3.5298   3.5808   3.6426   3.6696   3.7316
     3.8093   3.9439   3.9860   4.1127   4.1244   4.2391   4.3397   4.4008
     4.4474   4.5339   4.7351   4.8315   4.8525   4.9800   5.0323   5.1980
     5.2502   5.3172   5.3694   5.4448   5.5720   5.6185   5.6568   5.6768
     5.8405   5.8777   6.0740   6.0974   6.1747   6.3224   6.3737   6.4407
     6.4845   6.6385

[...]

          k = 0.0000-0.4957-0.3973 ( 30480 PWs)   bands (ev):

[...]

          k =-0.5000-0.0484-0.1231 ( 30456 PWs)   bands (ev):

[...]

          k =-0.5000-0.5441-0.5204 ( 30452 PWs)   bands (ev):

    -9.3000  -9.0107  -8.8786  -8.7371  -8.4629  -8.3903  -8.2971  -8.2034
    -8.1686  -8.0865  -8.0374  -7.8583  -7.8310  -7.7392  -7.6253  -7.5912
    -7.4798  -7.4439  -7.2869  -7.2258  -7.0799  -6.9834  -6.9182  -6.8408
    -1.2497  -0.9835  -0.9562  -0.8317  -0.6514  -0.6260  -0.5254  -0.3813
    -0.3543  -0.3399  -0.2773  -0.1008  -0.0243   0.0457   0.1185   0.1643
     0.2346   0.2522   0.3050   0.3595   0.3719   0.4889   0.5637   0.6463
     0.6798   0.7410   0.8023   0.8688   0.9148   0.9187   1.0169   1.0430
     1.0853   1.1075   1.1183   1.2350   1.3507   1.3952   1.4668   1.5294
     1.5853   1.6871   1.7456   1.7597   1.7920   1.8566   1.8923   1.9134
     2.0083   2.1295   2.1920   2.2468   2.3049   2.3315   2.3624   2.4262
     2.4451   2.5802   2.6395   2.6850   2.8514   2.9077   2.9519   3.1491
     3.2380   3.3186   3.3744   3.4811   3.5356   3.6829   3.7241   3.7870
     3.8741   3.9428   4.0099   4.1300   4.1497   4.2474   4.3217   4.4449
     4.6053   4.6724   4.7692   4.8118   4.9048   4.9757   5.0304   5.0694
     5.1068   5.2392   5.3509   5.4077   5.5354   5.6110   5.6911   5.7690
     5.8545   5.9165   5.9833   6.1079   6.1944   6.2886   6.4293   6.4862
     6.5125   6.6260

     the Fermi energy is     4.8549 ev

!    total energy              =    -844.11811972 Ry
     Harris-Foulkes estimate   =    -844.11812039 Ry
     estimated scf accuracy    <       0.00000086 Ry

     The total energy is the sum of the following terms:

     one-electron contribution =    -217.69847777 Ry
     hartree contribution      =     217.33925499 Ry
     xc contribution           =    -332.66667928 Ry
     ewald contribution        =    -511.08796346 Ry
     smearing contrib. (-TS)   =      -0.00425420 Ry

     convergence has been achieved in  13 iterations

     Forces acting on atoms (cartesian axes, Ry/au):

     atom    1 type  1   force =    -0.01828749   -0.04439674    0.02457843
     atom    2 type  1   force =    -0.03600205   -0.01544365   -0.01149196
     atom    3 type  1   force =    -0.03438779    0.03265684   -0.01784760
     atom    4 type  1   force =    -0.05638451   -0.00357027   -0.00124117
     atom    5 type  1   force =     0.02648746    0.00134531    0.00191297
     atom    6 type  1   force =    -0.00697533   -0.02190648    0.05076224
     atom    7 type  1   force =     0.00981338    0.03648762    0.01268455
     atom    8 type  1   force =     0.01762881    0.04957307    0.01661572
     atom    9 type  1   force =    -0.03427785    0.00104307   -0.00512652
     atom   10 type  1   force =     0.00272578    0.01098795   -0.00843421
     atom   11 type  1   force =    -0.03450870    0.02754873    0.00102906
     atom   12 type  1   force =    -0.03259339   -0.01384685    0.02812959
     atom   13 type  2   force =    -0.00392627    0.01223914    0.00083574
     atom   14 type  2   force =    -0.01308014    0.01854260   -0.01984330
     atom   15 type  2   force =     0.02421355   -0.03993919   -0.00528440
     atom   16 type  2   force =     0.00516322   -0.00113974    0.00232964
     atom   17 type  2   force =    -0.00253098    0.01815607   -0.03533993
     atom   18 type  2   force =     0.00011776    0.00305005   -0.00623364
     atom   19 type  2   force =     0.01104225   -0.01541531   -0.03025099
     atom   20 type  2   force =     0.04357619    0.02042150   -0.03117317
     atom   21 type  2   force =     0.04730333   -0.01681366    0.00764976
     atom   22 type  2   force =     0.02154033   -0.00735699    0.00180882
     atom   23 type  2   force =    -0.00780981   -0.00155610   -0.01054628
     atom   24 type  2   force =     0.03105555    0.01987687   -0.01959329
     atom   25 type  2   force =     0.00473806   -0.01136349   -0.00172566
     atom   26 type  2   force =     0.01642909   -0.01744643    0.01621871
     atom   27 type  2   force =     0.00190368    0.00146395   -0.04656182
     atom   28 type  2   force =     0.02308586    0.00498144    0.00720248
     atom   29 type  2   force =     0.03149024   -0.02317522    0.04175968
     atom   30 type  2   force =    -0.00459733    0.02106305    0.01334855
     atom   31 type  2   force =    -0.02092318   -0.01724884    0.00580425
     atom   32 type  2   force =    -0.00782589   -0.01290375    0.01071838
     atom   33 type  2   force =    -0.00260606    0.01131672   -0.00293627
     atom   34 type  2   force =     0.00845539   -0.01717234   -0.01932911
     atom   35 type  2   force =    -0.00662553   -0.00540774    0.01545986
     atom   36 type  2   force =    -0.00342761   -0.00465118    0.01411089

     Total force =     0.221229     Total SCF correction =     0.001701

     General routines

     Parallel routines

   This run was terminated on:  23: 0:12  23Dec2021

   JOB DONE.