     Program PWSCF v.6.4 starts on 19Nov2021 at 22:59:44

     R & G space division:  proc/nbgrp/npool/nimage =      40
     Waiting for input...
     Reading input from standard input
Warning: card    &IONS ignored
Warning: card      ION_DYNAMICS = 'BFGS' ignored
Warning: card   / ignored
Warning: card    &CELL ignored
Warning: card      CELL_DYNAMICS = 'BFGS', ignored
Warning: card    / ignored

     Current dimensions of program PWSCF are:
     Max number of different atomic species (ntypx) = 10
     Max number of k-points (npk) =  40000
     Max angular momentum in pseudopotentials (lmaxx) =  3

     bravais-lattice index     =            0
     lattice parameter (alat)  =      11.7851  a.u.
     unit-cell volume          =    6663.3701 (a.u.)^3
     number of atoms/cell      =           36
     number of atomic types    =            2
     number of electrons       =       216.00
     number of Kohn-Sham states=          130
     kinetic-energy cutoff     =      45.0000  Ry
     charge density cutoff     =     360.0000  Ry
     convergence threshold     =      1.0E-06
     mixing beta               =       0.7000
     number of iterations used =            8  local-TF  mixing
     Exchange-correlation      = SLA PW GGX GGC ( 1  4  2  2 0 0)

     celldm(1)=  11.785069  celldm(2)=   0.000000  celldm(3)=   0.000000
     celldm(4)=   0.000000  celldm(5)=   0.000000  celldm(6)=   0.000000

     crystal axes: (cart. coord. in units of alat)
               a(1) = (   1.000000   0.000000   0.000000 )
               a(2) = (  -0.002170   1.810672   0.000000 )
               a(3) = (  -0.422243  -0.359586   2.248319 )

     reciprocal axes: (cart. coord. in units 2 pi/alat)
               b(1) = (  1.000000  0.001198  0.187995 )
               b(2) = (  0.000000  0.552281  0.088329 )
               b(3) = (  0.000000  0.000000  0.444777 )

     PseudoPot. # 1 for Mo read from file:
     ~/pseudo/Mo.pw91-n-van.UPF
     MD5 check sum: Not computed, couldn't open file
     Pseudo is Ultrasoft + core correction, Zval =  6.0
     Generated by new atomic code, or converted to UPF format
     Using radial grid of  965 points,  3 beta functions with:
                l(1) =   1
                l(2) =   2
                l(3) =   2
     Q(r) pseudized with  8 coefficients,  rinner =    1.000   1.000   1.000
                                                       1.200   1.200

     PseudoPot. # 2 for S  read from file:
     ~/pseudo/S.pw91-van_ak.UPF
     MD5 check sum: Not computed, couldn't open file
     Pseudo is Ultrasoft, Zval =  6.0
     Generated by new atomic code, or converted to UPF format
     Using radial grid of  811 points,  6 beta functions with:
                l(1) =   0
                l(2) =   0
                l(3) =   1
                l(4) =   1
                l(5) =   2
                l(6) =   2
     Q(r) pseudized with  8 coefficients,  rinner =    1.100   1.100   1.100
                                                       1.100   1.100

     atomic species   valence    mass     pseudopotential
        Mo             6.00    95.50000     Mo( 1.00)
        S              6.00    32.06500     S ( 1.00)

     No symmetry found

   Cartesian axes

     site n.     atom                  positions (alat units)
         1           Mo  tau(   1) = (   0.2545673   1.4817651   0.7833049  )
         2           Mo  tau(   2) = (   0.0065142   1.0287914   0.7847469  )
         3           Mo  tau(   3) = (   0.7568004   1.4820377   0.7833747  )
         4           Mo  tau(   4) = (   0.5067050   1.0283018   0.7856861  )
         5           Mo  tau(   5) = (   0.7568669   0.5772169   0.7865073  )
         6           Mo  tau(   6) = (   0.2559239   0.5767609   0.7865252  )
         7           Mo  tau(   7) = (   0.5062450   0.1232023   0.7883119  )
         8           Mo  tau(   8) = (   0.0060740   0.1239243   0.7863900  )
         9           Mo  tau(   9) = (   0.2042263   1.0767239   1.7662906  )
        10           Mo  tau(  10) = (  -0.2585828   1.0818526   1.7653383  )
        11           Mo  tau(  11) = (  -0.2740746   0.1765327   1.7946822  )
        12           Mo  tau(  12) = (   0.2309992   0.1709226   1.7934170  )
        13           S   tau(  13) = (   0.0058760   1.3263191   0.5266805  )
        14           S   tau(  14) = (   0.2568398  -0.0293470   0.5294057  )
        15           S   tau(  15) = (   0.5058331   1.3263065   0.5275289  )
        16           S   tau(  16) = (   0.7552692  -0.0289842   0.5294508  )
        17           S   tau(  17) = (  -0.0168270   0.4471156   1.7395379  )
        18           S   tau(  18) = (   0.4807719   0.1182524   1.5280291  )
        19           S   tau(  19) = (   0.0059797   1.3272216   1.0382162  )
        20           S   tau(  20) = (   0.2549606  -0.0324639   1.0417543  )
        21           S   tau(  21) = (   0.5063653   1.3288412   1.0370257  )
        22           S   tau(  22) = (   0.7573513  -0.0322128   1.0420944  )
        23           S   tau(  23) = (  -0.0272992  -0.1005841   1.8242482  )
        24           S   tau(  24) = (   0.4769550   0.2121206   2.0695406  )
        25           S   tau(  25) = (   0.7559727   0.8748018   0.5288736  )
        26           S   tau(  26) = (   0.2571551   0.8741004   0.5288188  )
        27           S   tau(  27) = (   0.7575589   0.8749264   1.0411717  )
        28           S   tau(  28) = (   0.2560482   0.8748458   1.0409139  )
        29           S   tau(  29) = (   0.5065965   0.4224982   1.0422285  )
        30           S   tau(  30) = (   0.0061617   0.4221943   1.0412710  )
        31           S   tau(  31) = (   0.4711774   1.1199655   1.5143911  )
        32           S   tau(  32) = (  -0.0327810   0.7846546   1.7183280  )
        33           S   tau(  33) = (   0.5063069   0.4205906   0.5312854  )
        34           S   tau(  34) = (   0.0061187   0.4221366   0.5299020  )
        35           S   tau(  35) = (   0.4738205   1.0418556   2.0273637  )
        36           S   tau(  36) = (  -0.0206955   1.3776654   1.7612771  )

     number of k points=     8  Marzari-Vanderbilt smearing, width (Ry)=  0.0200
                       cart. coord. in units 2pi/alat
        k(    1) = (   0.0000000   0.0000000   0.0000000), wk =   0.1666667
        k(    2) = (   0.0000000   0.0000000  -0.2223884), wk =   0.1666667
        k(    3) = (   0.0000000  -0.2761406  -0.0441647), wk =   0.1666667
        k(    4) = (   0.0000000  -0.2761406  -0.2665531), wk =   0.1666667
        k(    5) = (   0.3333333   0.0003995   0.0626651), wk =   0.3333333
        k(    6) = (   0.3333333   0.0003995  -0.1597233), wk =   0.3333333
        k(    7) = (   0.3333333  -0.2757412   0.0185004), wk =   0.3333333
        k(    8) = (   0.3333333  -0.2757412  -0.2038880), wk =   0.3333333

     Initial potential from superposition of free atoms

     starting charge  215.98107, renormalised to  216.00000
     Starting wfcs are  204 randomized atomic wfcs

     Self-consistent Calculation

     iteration #  1     ecut=    45.00 Ry     beta= 0.70
     Davidson diagonalization with overlap
     ethr =  1.00E-02,  avg # of iterations =  2.8

     total energy              =    -843.68324683 Ry
     Harris-Foulkes estimate   =    -846.08633154 Ry
     estimated scf accuracy    <       6.13530114 Ry

[...]

     iteration #  6     ecut=    45.00 Ry     beta= 0.70
     Davidson diagonalization with overlap
     c_bands:  1 eigenvalues not converged
     ethr =  6.50E-06,  avg # of iterations = 13.4

[...]

     iteration # 12     ecut=    45.00 Ry     beta= 0.70
     Davidson diagonalization with overlap
     c_bands:  1 eigenvalues not converged
     ethr =  2.31E-07,  avg # of iterations = 11.1

[...]

     total energy              =    -844.86164360 Ry
     Harris-Foulkes estimate   =    -844.86164505 Ry
     estimated scf accuracy    <       0.00000626 Ry

     iteration # 16     ecut=    45.00 Ry     beta= 0.70
     Davidson diagonalization with overlap
     ethr =  2.90E-09,  avg # of iterations =  2.5

     End of self-consistent calculation

          k = 0.0000 0.0000 0.0000 ( 33919 PWs)   bands (ev):

   -11.3178 -11.2174 -10.7277  -9.9776  -9.9703  -9.5771  -9.2444  -9.2250
    -9.0040  -8.9455  -8.8769  -8.8680  -8.8463  -8.8413  -8.8181  -8.7243
    -8.6212  -8.6121  -8.6000  -8.5876  -8.4178  -8.3542  -8.0811  -8.0548
    -3.0313  -2.6091  -2.4149  -2.3493  -2.3441  -2.2218  -1.7998  -1.7912
    -1.5990  -1.5708  -1.5688  -1.5649  -1.4963  -1.4798  -1.3968  -1.1125
    -0.8003  -0.7229  -0.6871  -0.6509  -0.5815  -0.5752  -0.5318  -0.4462
    -0.3775  -0.2766  -0.2696  -0.2346  -0.1973  -0.0901   0.0149   0.1046
     0.1062   0.1217   0.1409   0.2506   0.3537   0.3634   0.4812   0.5452
     0.5761   0.5833   0.6090   0.6194   0.6916   0.8279   0.9922   1.0229
     1.0758   1.0989   1.2442   1.2486   1.2792   1.4394   1.4605   1.6238
     1.6710   1.6868   1.7366   1.8059   1.8855   1.8909   1.8976   1.9253
     2.1461   2.2736   2.3250   2.3435   2.4191   2.4320   2.4812   2.5388
     2.7073   2.7388   2.7499   2.7544   2.7664   2.8524   3.0691   3.2765
     3.5828   3.6320   3.6428   3.7017   3.7538   4.2600   5.0659   5.2138
     5.2484   5.2970   5.3937   5.3948   5.4088   5.4430   5.4500   5.4533
     5.4759   5.6137   5.7268   5.7620   5.7795   5.7982   5.8689   5.9217
     5.9768   6.0161

[...]

          k = 0.3333-0.2757-0.2039 ( 33952 PWs)   bands (ev):

   -11.2744 -11.2491 -10.2390 -10.2296  -9.5264  -9.5160  -9.3323  -9.3230
    -9.1461  -9.1394  -8.9629  -8.9462  -8.8432  -8.8254  -8.8143  -8.8066
    -8.7713  -8.6772  -8.5971  -8.5904  -8.4083  -8.3377  -8.1640  -8.1117
    -2.8455  -2.6576  -1.7995  -1.7886  -1.7383  -1.7293  -1.7111  -1.7006
    -1.6914  -1.6873  -1.6648  -1.6569  -1.1982  -1.1888  -0.9639  -0.9185
    -0.6873  -0.6688  -0.5325  -0.4917  -0.4661  -0.4524  -0.4428  -0.4318
    -0.3843  -0.3377  -0.1418  -0.0862  -0.0338  -0.0285   0.0519   0.1387
     0.1650   0.1940   0.2141   0.2227   0.2816   0.3188   0.3984   0.4141
     0.4498   0.4607   0.4897   0.4934   0.5363   0.6775   0.7941   0.9452
     0.9531   1.0630   1.1002   1.1094   1.1242   1.1309   1.2910   1.3070
     1.3147   1.3278   1.4185   1.4359   1.6737   1.7008   1.7223   1.8026
     1.8459   1.8601   1.8709   1.9368   2.2056   2.2680   2.2909   2.3232
     2.4043   2.4115   2.7675   2.7740   2.8624   2.8719   3.0667   3.0701
     3.7502   3.8418   3.9516   4.0823   4.2879   4.4032   4.9738   5.0168
     5.0882   5.1314   5.2692   5.2764   5.3319   5.3423   5.4026   5.4121
     5.4232   5.4362   5.5990   5.6555   5.6677   5.6969   5.7023   5.7381
     5.7496   5.7991

     the Fermi energy is     4.1337 ev

!    total energy              =    -844.86164358 Ry
     Harris-Foulkes estimate   =    -844.86164421 Ry
     estimated scf accuracy    <       0.00000085 Ry

     The total energy is the sum of the following terms:

     one-electron contribution =    -718.03513328 Ry
     hartree contribution      =     458.90843685 Ry
     xc contribution           =    -333.78670918 Ry
     ewald contribution        =    -251.95370470 Ry
     smearing contrib. (-TS)   =       0.00546673 Ry

     convergence has been achieved in  16 iterations

     Forces acting on atoms (cartesian axes, Ry/au):

     atom    1 type  1   force =     0.00526088   -0.00518524   -0.00600625
     atom    2 type  1   force =    -0.00062257   -0.00509929   -0.00712101
     atom    3 type  1   force =    -0.00676522   -0.00517158   -0.00758504
     atom    4 type  1   force =    -0.00220717   -0.00252253   -0.00613848
     atom    5 type  1   force =    -0.00413763   -0.00984954   -0.00769969
     atom    6 type  1   force =     0.00266899   -0.00919698   -0.00721555
     atom    7 type  1   force =    -0.00111951   -0.00609852   -0.00603601
     atom    8 type  1   force =     0.00000614   -0.00535545   -0.00677267
     atom    9 type  1   force =     0.05698670   -0.00668775   -0.00404196
     atom   10 type  1   force =    -0.05596684    0.00860966   -0.00329519
     atom   11 type  1   force =    -0.00982101    0.00478228    0.00389022
     atom   12 type  1   force =     0.00959661   -0.00202480    0.00309347
     atom   13 type  2   force =     0.00024319    0.00319272    0.00699806
     atom   14 type  2   force =    -0.00051466    0.00311143    0.00768391
     atom   15 type  2   force =     0.00067129    0.00384039    0.00843429
     atom   16 type  2   force =     0.00240259    0.00235688    0.00735872
     atom   17 type  2   force =    -0.00210045   -0.11657210    0.01665350
     atom   18 type  2   force =    -0.00253468   -0.00072889   -0.01633214
     atom   19 type  2   force =    -0.00004640    0.00274270    0.00160870
     atom   20 type  2   force =     0.00124004    0.00282515   -0.00635962
     atom   21 type  2   force =    -0.00028599    0.00358285   -0.00361186
     atom   22 type  2   force =    -0.00020449    0.00253668   -0.00530387
     atom   23 type  2   force =     0.00837364    0.10147626    0.03360343
     atom   24 type  2   force =     0.00083472    0.00298922    0.00062197
     atom   25 type  2   force =     0.00152566    0.00108953    0.00694664
     atom   26 type  2   force =    -0.00070339    0.00236162    0.00771111
     atom   27 type  2   force =    -0.00162964    0.00429202   -0.00209705
     atom   28 type  2   force =     0.00095080    0.00344885   -0.00286358
     atom   29 type  2   force =    -0.00031275    0.00356940   -0.00413125
     atom   30 type  2   force =     0.00064728    0.00267848   -0.00031521
     atom   31 type  2   force =     0.00129457   -0.00286594   -0.01762876
     atom   32 type  2   force =     0.00440708    0.13582851    0.00261516
     atom   33 type  2   force =     0.00052440    0.00584758    0.00732181
     atom   34 type  2   force =     0.00069050    0.00355734    0.00727423
     atom   35 type  2   force =    -0.00004597    0.00226253    0.01117230
     atom   36 type  2   force =    -0.00930671   -0.12962348   -0.01243233

     Total force =     0.264493     Total SCF correction =     0.001954

     General routines

     Parallel routines

   This run was terminated on:  23: 2:45  19Nov2021

   JOB DONE.