     Program PWSCF v.6.4.1 starts on  2Aug2021 at  9:24:33

     R & G space division:  proc/nbgrp/npool/nimage =      20
     Waiting for input...
     Reading input from standard input
Warning: card    &IONS ignored
Warning: card      ION_DYNAMICS = 'BFGS' ignored
Warning: card   / ignored
Warning: card    &CELL ignored
Warning: card      CELL_DYNAMICS = 'BFGS', ignored
Warning: card    / ignored

     Current dimensions of program PWSCF are:
     Max number of different atomic species (ntypx) = 10
     Max number of k-points (npk) =  40000
     Max angular momentum in pseudopotentials (lmaxx) =  3

     Subspace diagonalization in iterative solution of the eigenvalue problem:
     a serial algorithm will be used

     bravais-lattice index     =            0
     lattice parameter (alat)  =      12.6605  a.u.
     unit-cell volume          =    4098.2296 (a.u.)^3
     number of atoms/cell      =           24
     number of atomic types    =            2
     number of electrons       =       144.00
     number of Kohn-Sham states=           86
     kinetic-energy cutoff     =      45.0000  Ry
     charge density cutoff     =     360.0000  Ry
     convergence threshold     =      1.0E-06
     mixing beta               =       0.7000
     number of iterations used =            8  local-TF  mixing
     Exchange-correlation      = SLA PW GGX GGC ( 1  4  2  2 0 0)

     celldm(1)=  12.660529  celldm(2)=   0.000000  celldm(3)=   0.000000
     celldm(4)=   0.000000  celldm(5)=   0.000000  celldm(6)=   0.000000

     crystal axes: (cart. coord. in units of alat)
               a(1) = (   1.000000   0.000000   0.000000 )
               a(2) = (  -0.500000   0.866025   0.000000 )
               a(3) = (   0.000000   0.000000   2.331901 )

     reciprocal axes: (cart. coord. in units 2 pi/alat)
               b(1) = (  1.000000  0.577350 -0.000000 )
               b(2) = (  0.000000  1.154701  0.000000 )
               b(3) = (  0.000000 -0.000000  0.428835 )

     PseudoPot. # 1 for Mo read from file:
     /home/kkety/pseudo/Mo.pw91-n-van.UPF
     MD5 check sum: 875977911cf57e7168990cb144db214a
     Pseudo is Ultrasoft + core correction, Zval =  6.0
     Generated by new atomic code, or converted to UPF format
     Using radial grid of  965 points,  3 beta functions with:
                l(1) =   1
                l(2) =   2
                l(3) =   2
     Q(r) pseudized with  8 coefficients,  rinner =    1.000   1.000   1.000
                                                       1.200   1.200

     PseudoPot. # 2 for S  read from file:
     /home/kkety/pseudo/S.pw91-van_ak.UPF
     MD5 check sum: 708c80e9edb6b1bde406d41998b2c042
     Pseudo is Ultrasoft, Zval =  6.0
     Generated by new atomic code, or converted to UPF format
     Using radial grid of  811 points,  6 beta functions with:
                l(1) =   0
                l(2) =   0
                l(3) =   1
                l(4) =   1
                l(5) =   2
                l(6) =   2
     Q(r) pseudized with  8 coefficients,  rinner =    1.100   1.100   1.100
                                                       1.100   1.100

     atomic species   valence    mass     pseudopotential
        Mo             6.00    95.50000     Mo( 1.00)
        S              6.00    32.06500     S ( 1.00)

     No symmetry found

   Cartesian axes

     site n.     atom                  positions (alat units)
         1           Mo  tau(   1) = (   0.0007377   0.2935331   0.5970695  )
         2           Mo  tau(   2) = (  -0.2606927   0.7319957   0.5814897  )
         3           Mo  tau(   3) = (   0.5077367   0.2998476   0.5768023  )
         4           Mo  tau(   4) = (   0.2367894   0.7148092   0.5819953  )
         5           Mo  tau(   5) = (   0.2501747   0.1437482   1.7638394  )
         6           Mo  tau(   6) = (  -0.0058464   0.5909361   1.7469202  )
         7           Mo  tau(   7) = (   0.7494649   0.1443000   1.7638424  )
         8           Mo  tau(   8) = (   0.4999323   0.5773964   1.7340001  )
         9           S   tau(   9) = (   0.2554983   0.1349113   0.8180469  )
        10           S   tau(  10) = (   0.0098296   0.5686411   0.8353250  )
        11           S   tau(  11) = (   0.7507916   0.1304543   0.8228065  )
        12           S   tau(  12) = (   0.5059610   0.5804249   0.8415650  )
        13           S   tau(  13) = (  -0.0060319   0.2754175   1.9974434  )
        14           S   tau(  14) = (  -0.2558168   0.7163217   1.9815258  )
        15           S   tau(  15) = (   0.5029865   0.2901730   2.0087287  )
        16           S   tau(  16) = (   0.2633410   0.7280186   1.9920087  )
        17           S   tau(  17) = (   0.2519073   0.1420212   0.3523414  )
        18           S   tau(  18) = (   0.0144502   0.5766489   0.3340461  )
        19           S   tau(  19) = (   0.7600403   0.1447078   0.3266814  )
        20           S   tau(  20) = (   0.4897708   0.5817573   0.3476559  )
        21           S   tau(  21) = (   0.0130309   0.2949994   1.5000677  )
        22           S   tau(  22) = (  -0.2491671   0.7221274   1.4887742  )
        23           S   tau(  23) = (   0.4955772   0.2857900   1.4897097  )
        24           S   tau(  24) = (   0.2362188   0.7235751   1.5090848  )

     number of k points=     5  Marzari-Vanderbilt smearing, width (Ry)=  0.0200
                       cart. coord. in units 2pi/alat
        k(    1) = (   0.0000000   0.0000000   0.0000000), wk =   0.2222222
        k(    2) = (   0.0000000   0.3849003   0.0000000), wk =   0.4444444
        k(    3) = (   0.3333333   0.5773504   0.0000000), wk =   0.4444444
        k(    4) = (  -0.3333333   0.1924501   0.0000000), wk =   0.4444444
        k(    5) = (   0.3333333   0.1924501   0.0000000), wk =   0.4444444

     Initial potential from superposition of free atoms

     starting charge  143.98738, renormalised to  144.00000
     Starting wfcs are  136 randomized atomic wfcs

     Self-consistent Calculation

     iteration #  1     ecut=    45.00 Ry     beta= 0.70
     Davidson diagonalization with overlap
     ethr =  1.00E-02,  avg # of iterations =  2.0

     total energy              =    -562.10154626 Ry
     Harris-Foulkes estimate   =    -564.48182510 Ry
     estimated scf accuracy    <       6.41430455 Ry

[...]

     total energy              =    -563.37610664 Ry
     Harris-Foulkes estimate   =    -563.37610713 Ry
     estimated scf accuracy    <       0.00000359 Ry

     iteration # 16     ecut=    45.00 Ry     beta= 0.70
     Davidson diagonalization with overlap
     ethr =  2.49E-09,  avg # of iterations =  1.0

     End of self-consistent calculation

          k = 0.0000 0.0000 0.0000 ( 21021 PWs)   bands (ev):

    -9.3601  -9.2300  -8.4106  -8.3410  -8.1309  -7.9782  -7.9646  -7.8693
    -7.8482  -7.7349  -7.7098  -7.6568  -7.6512  -7.5510  -7.5290  -7.4467
    -1.0722  -0.9953  -0.9596  -0.9458  -0.8658  -0.8445  -0.7884  -0.7293
    -0.2046  -0.1488  -0.0953  -0.0803  -0.0658   0.0186   0.2581   0.4634
     0.4727   0.5466   0.6251   0.7449   1.0809   1.1909   1.2752   1.3636
     1.3857   1.5449   1.7014   1.8398   1.8421   1.9274   2.1458   2.2101
     2.2588   2.2730   2.2886   2.3374   2.4632   2.5545   2.6635   2.6716
     2.8230   2.9018   2.9313   3.0984   3.1430   3.1570   3.2144   3.3342
     3.4901   3.4975   3.6269   3.6303   3.6763   3.6879   4.0177   4.2170
     5.5534   5.6215   5.6393   5.6820   5.6915   5.7372   5.9285   6.0564
     6.0730   6.0933   6.1195   6.1472   6.1630   6.2644

[...]

          k =-0.3333 0.1925 0.0000 ( 20892 PWs)   bands (ev):

[...]

          k = 0.3333 0.1925 0.0000 ( 20892 PWs)   bands (ev):

    -9.0726  -8.9464  -8.4207  -8.3450  -8.2576  -8.1097  -8.0255  -7.9699
    -7.9116  -7.8216  -7.7875  -7.7509  -7.7144  -7.5793  -7.5456  -7.5058
    -0.6539  -0.5979  -0.5617  -0.5214  -0.4780  -0.4154  -0.3471  -0.2828
    -0.2073  -0.1376  -0.0356   0.0263   0.3681   0.3898   0.4327   0.5417
     0.5864   0.6464   0.6945   0.7703   0.9575   1.1349   1.1713   1.2583
     1.3163   1.3679   1.4590   1.5979   1.6326   1.6918   1.8044   1.9781
     2.0169   2.0758   2.1143   2.1929   2.2357   2.3327   2.3893   2.4304
     2.4504   2.5052   2.5903   2.6405   2.7182   2.9183   2.9330   3.0828
     3.2818   3.3366   3.5863   3.6629   3.7064   3.7769   3.8364   3.8825
     5.5595   5.5804   5.6617   5.6988   5.7904   5.8174   5.8495   5.8621
     5.8883   5.9463   6.0099   6.0371   6.1002   6.1579

     the Fermi energy is     4.1834 ev

!    total energy              =    -563.37610657 Ry
     Harris-Foulkes estimate   =    -563.37610684 Ry
     estimated scf accuracy    <       0.00000030 Ry

     The total energy is the sum of the following terms:

     one-electron contribution =    -180.06091063 Ry
     hartree contribution      =     160.65888659 Ry
     xc contribution           =    -220.68004957 Ry
     ewald contribution        =    -323.31356861 Ry
     smearing contrib. (-TS)   =       0.01953565 Ry

     convergence has been achieved in  16 iterations

     Forces acting on atoms (cartesian axes, Ry/au):

     atom    1 type  1   force =     0.00563273   -0.03486483   -0.06006545
     atom    2 type  1   force =     0.05227379   -0.07374965    0.01843920
     atom    3 type  1   force =    -0.01062583   -0.04708914    0.03707942
     atom    4 type  1   force =     0.06536627    0.02776077    0.01577667
     atom    5 type  1   force =     0.00804597    0.00712655   -0.07472021
     atom    6 type  1   force =     0.01906008   -0.06041321   -0.00125062
     atom    7 type  1   force =    -0.00846685    0.01375030   -0.07617719
     atom    8 type  1   force =    -0.00524454   -0.00925012    0.01849776
     atom    9 type  2   force =     0.00345657    0.04108935   -0.02339732
     atom   10 type  2   force =    -0.03230203    0.02011893   -0.05844510
     atom   11 type  2   force =    -0.00848175    0.02899423   -0.05151757
     atom   12 type  2   force =    -0.01570695   -0.00247031   -0.09189712
     atom   13 type  2   force =     0.01625374    0.04044687   -0.04618445
     atom   14 type  2   force =    -0.00046643    0.00518544   -0.02803604
     atom   15 type  2   force =    -0.00913267    0.00308488   -0.08764636
     atom   16 type  2   force =    -0.02326177   -0.02334338   -0.05336428
     atom   17 type  2   force =    -0.00640474    0.03169556    0.02297427
     atom   18 type  2   force =    -0.05025983   -0.00495148    0.06786860
     atom   19 type  2   force =    -0.01408416    0.00757685    0.09297029
     atom   20 type  2   force =     0.01127961    0.00578116    0.03036159
     atom   21 type  2   force =    -0.02248181   -0.00598621    0.09957621
     atom   22 type  2   force =    -0.00804363    0.01083107    0.09080917
     atom   23 type  2   force =     0.00781310    0.00101802    0.10857576
     atom   24 type  2   force =     0.02578113    0.01765836    0.04977277

     Total force =     0.356972     Total SCF correction =     0.001184

     General routines

     Parallel routines

   This run was terminated on:   9:35:45   2Aug2021

   JOB DONE.