     Program PWSCF v.6.4 starts on  8Sep2021 at 12: 2:54

     R & G space division:  proc/nbgrp/npool/nimage =      40
     Waiting for input...
     Reading input from standard input
Warning: card    &IONS ignored
Warning: card      ION_DYNAMICS = 'BFGS' ignored
Warning: card   / ignored
Warning: card    &CELL ignored
Warning: card      CELL_DYNAMICS = 'BFGS', ignored
Warning: card    / ignored

     Current dimensions of program PWSCF are:
     Max number of different atomic species (ntypx) = 10
     Max number of k-points (npk) =  40000
     Max angular momentum in pseudopotentials (lmaxx) =  3

     bravais-lattice index     =            0
     lattice parameter (alat)  =      12.5075  a.u.
     unit-cell volume          =    3511.6634 (a.u.)^3
     number of atoms/cell      =           24
     number of atomic types    =            2
     number of electrons       =       144.00
     number of Kohn-Sham states=           86
     kinetic-energy cutoff     =      45.0000  Ry
     charge density cutoff     =     360.0000  Ry
     convergence threshold     =      1.0E-06
     mixing beta               =       0.7000
     number of iterations used =            8  local-TF  mixing
     Exchange-correlation      = SLA PW GGX GGC ( 1  4  2  2 0 0)

     celldm(1)=  12.507524  celldm(2)=   0.000000  celldm(3)=   0.000000
     celldm(4)=   0.000000  celldm(5)=   0.000000  celldm(6)=   0.000000

     crystal axes: (cart. coord. in units of alat)
               a(1) = (   0.999848   0.017408   0.000978 )
               a(2) = (  -0.239357   0.418175  -0.001530 )
               a(3) = (  -0.454112   0.125233   4.249253 )

     reciprocal axes: (cart. coord. in units 2 pi/alat)
               b(1) = (  0.990191  0.567097  0.089107 )
               b(2) = ( -0.041148  2.367517 -0.074172 )
               b(3) = ( -0.000243  0.000722  0.235288 )

     PseudoPot. # 1 for Mo read from file:
     ~/pseudo/Mo.pw91-n-van.UPF
     MD5 check sum: Not computed, couldn't open file
     Pseudo is Ultrasoft + core correction, Zval =  6.0
     Generated by new atomic code, or converted to UPF format
     Using radial grid of  965 points,  3 beta functions with:
                l(1) =   1
                l(2) =   2
                l(3) =   2
     Q(r) pseudized with  8 coefficients,  rinner =    1.000   1.000   1.000
                                                       1.200   1.200

     PseudoPot. # 2 for S  read from file:
     ~/pseudo/S.pw91-van_ak.UPF
     MD5 check sum: Not computed, couldn't open file
     Pseudo is Ultrasoft, Zval =  6.0
     Generated by new atomic code, or converted to UPF format
     Using radial grid of  811 points,  6 beta functions with:
                l(1) =   0
                l(2) =   0
                l(3) =   1
                l(4) =   1
                l(5) =   2
                l(6) =   2
     Q(r) pseudized with  8 coefficients,  rinner =    1.100   1.100   1.100
                                                       1.100   1.100

     atomic species   valence    mass     pseudopotential
        Mo             6.00    95.50000     Mo( 1.00)
        S              6.00    32.06500     S ( 1.00)

     No symmetry found

   Cartesian axes

     site n.     atom                  positions (alat units)
         1           Mo  tau(   1) = (   0.0938828   0.2483200   1.5184320  )
         2           Mo  tau(   2) = (  -0.5012650   0.2410789   3.7992968  )
         3           Mo  tau(   3) = (   0.5158238   0.2129266   1.5455968  )
         4           Mo  tau(   4) = (   0.0758611   0.2930017   3.7744840  )
         5           Mo  tau(   5) = (  -0.0510506  -0.1254608   0.5317228  )
         6           Mo  tau(   6) = (  -0.4419288  -0.1066933   2.6431780  )
         7           Mo  tau(   7) = (   0.3720601  -0.1598671   0.5597850  )
         8           Mo  tau(   8) = (   0.1361981  -0.0542553   2.6201214  )
         9           S   tau(   9) = (   0.3053183   0.3707966   1.7987629  )
        10           S   tau(  10) = (  -0.2142475   0.4051014   3.9905744  )
        11           S   tau(  11) = (   0.8029032   0.3774765   1.7337787  )
        12           S   tau(  12) = (   0.2866672   0.4164488   4.0528412  )
        13           S   tau(  13) = (  -0.0778543   0.1365969   0.2785851  )
        14           S   tau(  14) = (  -0.3902166   0.1992471   2.4262287  )
        15           S   tau(  15) = (   0.4224350   0.1457553   0.3433697  )
        16           S   tau(  16) = (   0.1054984   0.2054352   2.3649075  )
        17           S   tau(  17) = (  -0.0821844   0.4128550   0.8090443  )
        18           S   tau(  18) = (  -0.3940546   0.4763439   2.8342879  )
        19           S   tau(  19) = (   0.4191718   0.4230887   0.7466269  )
        20           S   tau(  20) = (   0.1100442   0.4874474   2.8963370  )
        21           S   tau(  21) = (   0.3065369   0.0911696   1.2666276  )
        22           S   tau(  22) = (  -0.2104766   0.1287597   3.5842285  )
        23           S   tau(  23) = (   0.8066041   0.1004891   1.3314417  )
        24           S   tau(  24) = (   0.2874560   0.1346521   3.5213661  )

     number of k points=     8  Marzari-Vanderbilt smearing, width (Ry)=  0.0200
                       cart. coord. in units 2pi/alat
        k(    1) = (   0.0000000   0.0000000   0.0000000), wk =   0.1333333
        k(    2) = (  -0.0082295   0.4735034  -0.0148344), wk =   0.2666667
        k(    3) = (  -0.0164590   0.9470068  -0.0296689), wk =   0.2666667
        k(    4) = (   0.3300638   0.1890323   0.0297024), wk =   0.2666667
        k(    5) = (   0.3218343   0.6625357   0.0148679), wk =   0.2666667
        k(    6) = (   0.3136047   1.1360391   0.0000335), wk =   0.2666667
        k(    7) = (   0.3465228  -0.7579746   0.0593713), wk =   0.2666667
        k(    8) = (   0.3382933  -0.2844711   0.0445368), wk =   0.2666667

     Initial potential from superposition of free atoms

     starting charge  143.98738, renormalised to  144.00000
     Starting wfcs are  136 randomized atomic wfcs

     Self-consistent Calculation

     iteration #  1     ecut=    45.00 Ry     beta= 0.70
     Davidson diagonalization with overlap
     ethr =  1.00E-02,  avg # of iterations =  2.0

     total energy              =    -562.36500112 Ry
     Harris-Foulkes estimate   =    -564.27227892 Ry
     estimated scf accuracy    <       5.00385994 Ry

[...]

     iteration #  7     ecut=    45.00 Ry     beta= 0.70
     Davidson diagonalization with overlap
     c_bands:  1 eigenvalues not converged
     ethr =  1.30E-06,  avg # of iterations =  7.8

[...]

     total energy              =    -563.37848685 Ry
     Harris-Foulkes estimate   =    -563.37848703 Ry
     estimated scf accuracy    <       0.00000125 Ry

     iteration # 19     ecut=    45.00 Ry     beta= 0.70
     Davidson diagonalization with overlap
     ethr =  8.70E-10,  avg # of iterations =  1.0

     End of self-consistent calculation

          k = 0.0000 0.0000 0.0000 ( 18017 PWs)   bands (ev):

    -8.1872  -8.1100  -8.0459  -8.0072  -7.2628  -7.1432  -7.0762  -7.0553
    -6.4562  -6.4379  -6.4289  -6.3902  -6.3729  -6.3386  -6.3156  -6.2756
    -0.0480   0.0062   0.0701   0.1049   0.3315   0.5627   0.6579   0.8043
     1.1757   1.3039   1.3799   1.4449   1.4742   1.5613   1.6030   1.7405
     2.6237   2.6469   2.6999   2.7061   2.7199   2.7500   2.7931   2.8351
     2.9294   3.0221   3.0807   3.1236   3.2049   3.3537   3.4652   3.5282
     3.7088   3.9937   4.0565   4.2353   4.5379   4.6133   4.6619   4.7780
     4.9141   4.9649   5.0152   5.0294   5.1464   5.3200   5.3654   5.4654
     5.5350   5.5807   5.6084   5.6825   5.7368   5.7585   5.8279   5.8759
     6.3387   6.3572   6.4127   6.4327   6.4468   6.4713   6.4999   6.5490
     7.7658   7.8138   7.8283   7.8524   7.8736   7.8894

          k =-0.0082 0.4735-0.0148 ( 17933 PWs)   bands (ev):

[...]

          k =-0.0165 0.9470-0.0297 ( 17854 PWs)   bands (ev):

[...]

          k = 0.3383-0.2845 0.0445 ( 17922 PWs)   bands (ev):

    -7.7166  -7.6362  -7.5738  -7.5353  -7.0665  -6.9555  -6.8930  -6.8751
    -6.4473  -6.4034  -6.3333  -6.2891  -6.2280  -6.2122  -6.1545  -6.1165
     0.4976   0.5609   0.6298   0.6778   0.7796   0.8862   0.9565   1.0233
     1.1100   1.2607   1.3616   1.4414   1.4932   1.6764   1.6912   1.7506
     2.1513   2.2355   2.3223   2.3744   2.4531   2.5663   2.6295   2.6645
     2.6919   2.7400   2.7592   2.7646   3.0874   3.1622   3.1994   3.2534
     3.3134   3.3903   3.4513   3.4951   3.5616   3.5898   3.6533   3.6844
     4.3336   4.3701   4.4523   4.4845   4.8202   4.9521   5.0421   5.0714
     5.0975   5.1592   5.1710   5.2511   5.3116   5.4738   5.5360   5.6195
     6.2198   6.2985   6.3135   6.3493   6.9391   7.0058   7.0435   7.0960
     7.9267   8.0326   8.0574   8.1166   8.1968   8.2363

     the Fermi energy is     5.8221 ev

!    total energy              =    -563.37848652 Ry
     Harris-Foulkes estimate   =    -563.37848690 Ry
     estimated scf accuracy    <       0.00000040 Ry

     The total energy is the sum of the following terms:

     one-electron contribution =    -146.32228029 Ry
     hartree contribution      =     152.23389871 Ry
     xc contribution           =    -222.47009089 Ry
     ewald contribution        =    -346.83355324 Ry
     smearing contrib. (-TS)   =       0.01353919 Ry

     convergence has been achieved in  19 iterations

     Forces acting on atoms (cartesian axes, Ry/au):

     atom    1 type  1   force =    -0.00136986   -0.00134943    0.00477077
     atom    2 type  1   force =    -0.00076592   -0.00060408   -0.00125071
     atom    3 type  1   force =     0.00126662    0.00057953    0.00119026
     atom    4 type  1   force =     0.00215938    0.00059386    0.00293196
     atom    5 type  1   force =    -0.00176199   -0.00007964    0.00086756
     atom    6 type  1   force =     0.00156386   -0.00001999   -0.00148296
     atom    7 type  1   force =    -0.00045167   -0.00169839   -0.00186629
     atom    8 type  1   force =    -0.00033219    0.00089361    0.00281969
     atom    9 type  2   force =    -0.00063755   -0.00056493   -0.00301797
     atom   10 type  2   force =    -0.00075598    0.00008953   -0.00496349
     atom   11 type  2   force =     0.00145510    0.00130545    0.00053340
     atom   12 type  2   force =     0.00079639   -0.00096106   -0.00347985
     atom   13 type  2   force =     0.00094576   -0.00086545    0.00270447
     atom   14 type  2   force =     0.00105721    0.00021402    0.00418556
     atom   15 type  2   force =    -0.00091532   -0.00117528   -0.00051343
     atom   16 type  2   force =     0.00070456   -0.00028942    0.00016722
     atom   17 type  2   force =    -0.00057179    0.00070692   -0.00444755
     atom   18 type  2   force =    -0.00101498   -0.00026258   -0.00521029
     atom   19 type  2   force =    -0.00008150   -0.00000699   -0.00218171
     atom   20 type  2   force =    -0.00108070    0.00035235   -0.00083732
     atom   21 type  2   force =     0.00176049    0.00230785    0.00556115
     atom   22 type  2   force =    -0.00093175   -0.00067545    0.00166042
     atom   23 type  2   force =     0.00044557    0.00051984    0.00062534
     atom   24 type  2   force =    -0.00148373    0.00098975    0.00123377

     Total force =     0.016064     Total SCF correction =     0.001605

     General routines

     Parallel routines

   This run was terminated on:  12: 4: 7   8Sep2021

   JOB DONE.