     Program PWSCF v.6.4 starts on 23Dec2021 at 22:43:54

     R & G space division:  proc/nbgrp/npool/nimage =      40
     Waiting for input...
     Reading input from standard input
Warning: card    &IONS ignored
Warning: card      ION_DYNAMICS = 'BFGS' ignored
Warning: card   / ignored
Warning: card    &CELL ignored
Warning: card      CELL_DYNAMICS = 'BFGS', ignored
Warning: card    / ignored

     Current dimensions of program PWSCF are:
     Max number of different atomic species (ntypx) = 10
     Max number of k-points (npk) =  40000
     Max angular momentum in pseudopotentials (lmaxx) =  3

     bravais-lattice index     =            0
     lattice parameter (alat)  =      16.6262  a.u.
     unit-cell volume          =   21003.8739 (a.u.)^3
     number of atoms/cell      =           27
     number of atomic types    =            2
     number of electrons       =       162.00
     number of Kohn-Sham states=           97
     kinetic-energy cutoff     =      45.0000  Ry
     charge density cutoff     =     360.0000  Ry
     convergence threshold     =      1.0E-06
     mixing beta               =       0.7000
     number of iterations used =            8  local-TF  mixing
     Exchange-correlation      = SLA PW GGX GGC ( 1  4  2  2 0 0)

     celldm(1)=  16.626184  celldm(2)=   0.000000  celldm(3)=   0.000000
     celldm(4)=   0.000000  celldm(5)=   0.000000  celldm(6)=   0.000000

     crystal axes: (cart. coord. in units of alat)
               a(1) = (   1.000000   0.000000   0.000000 )
               a(2) = (  -0.419510   1.240024   0.000000 )
               a(3) = (  -0.230391  -0.632075   3.685459 )

     reciprocal axes: (cart. coord. in units 2 pi/alat)
               b(1) = (  1.000000  0.338308  0.120535 )
               b(2) = (  0.000000  0.806436  0.138308 )
               b(3) = (  0.000000  0.000000  0.271337 )

     PseudoPot. # 1 for Mo read from file:
     ~/pseudo/Mo.pw91-n-van.UPF
     MD5 check sum: Not computed, couldn't open file
     Pseudo is Ultrasoft + core correction, Zval =  6.0
     Generated by new atomic code, or converted to UPF format
     Using radial grid of  965 points,  3 beta functions with:
                l(1) =   1
                l(2) =   2
                l(3) =   2
     Q(r) pseudized with  8 coefficients,  rinner =    1.000   1.000   1.000
                                                       1.200   1.200

     PseudoPot. # 2 for S  read from file:
     ~/pseudo/S.pw91-van_ak.UPF
     MD5 check sum: Not computed, couldn't open file
     Pseudo is Ultrasoft, Zval =  6.0
     Generated by new atomic code, or converted to UPF format
     Using radial grid of  811 points,  6 beta functions with:
                l(1) =   0
                l(2) =   0
                l(3) =   1
                l(4) =   1
                l(5) =   2
                l(6) =   2
     Q(r) pseudized with  8 coefficients,  rinner =    1.100   1.100   1.100
                                                       1.100   1.100

     atomic species   valence    mass     pseudopotential
        Mo             6.00    95.50000     Mo( 1.00)
        S              6.00    32.06500     S ( 1.00)

     No symmetry found

   Cartesian axes

     site n.     atom                  positions (alat units)
         1           Mo  tau(   1) = (  -0.2162163   0.1997148   1.9807367  )
         2           Mo  tau(   2) = (   0.7363521  -0.1143800   1.9680251  )
         3           Mo  tau(   3) = (   0.0507865  -0.0001421   1.9677733  )
         4           Mo  tau(   4) = (   0.4767169   0.4304731   1.9816691  )
         5           Mo  tau(   5) = (   0.1557949   0.3633593   1.9770709  )
         6           Mo  tau(   6) = (   0.4733100   0.0985182   1.9754296  )
         7           Mo  tau(   7) = (  -0.0866273   0.5935572   1.9696467  )
         8           Mo  tau(   8) = (   0.2136821   0.6896093   1.9837981  )
         9           Mo  tau(   9) = (   0.4268016  -0.2778357   1.9748388  )
        10           S   tau(  10) = (  -0.0645783   0.3883315   2.1509953  )
        11           S   tau(  11) = (  -0.2804669   0.4445804   1.8417816  )
        12           S   tau(  12) = (   0.4736741   0.6990320   1.9124656  )
        13           S   tau(  13) = (   0.3618712   0.2860335   1.8015560  )
        14           S   tau(  14) = (  -0.0534382  -0.1656781   1.7755731  )
        15           S   tau(  15) = (  -0.0398275  -0.2401523   2.0900023  )
        16           S   tau(  16) = (   0.5314382  -0.1103651   2.1669283  )
        17           S   tau(  17) = (   0.0121780   0.7632439   2.1657641  )
        18           S   tau(  18) = (  -0.1264342   0.0307963   2.1816172  )
        19           S   tau(  19) = (   0.6555927   0.0522356   1.7708479  )
        20           S   tau(  20) = (   0.2878621  -0.0761155   1.8408915  )
        21           S   tau(  21) = (   0.0933414   0.5552531   1.7896620  )
        22           S   tau(  22) = (   0.5823490   0.2702921   2.1648580  )
        23           S   tau(  23) = (   0.2264723   0.1344925   2.1424501  )
        24           S   tau(  24) = (  -0.2064751   0.8193287   1.8704707  )
        25           S   tau(  25) = (   0.0001815   0.1979611   1.8050331  )
        26           S   tau(  26) = (   0.3063930   0.5118223   2.1692566  )
        27           S   tau(  27) = (   0.2030402   0.9202041   1.8171450  )

     number of k points=     4  Marzari-Vanderbilt smearing, width (Ry)=  0.0200
                       cart. coord. in units 2pi/alat
        k(    1) = (   0.0000000   0.0000000   0.0000000), wk =   0.5000000
        k(    2) = (   0.0000000  -0.4032180  -0.0691539), wk =   0.5000000
        k(    3) = (  -0.5000000  -0.1691539  -0.0602675), wk =   0.5000000
        k(    4) = (  -0.5000000  -0.5723718  -0.1294214), wk =   0.5000000

     Initial potential from superposition of free atoms

     starting charge  161.98581, renormalised to  162.00000

     negative rho (up, down):  3.844E-03 0.000E+00
     Starting wfcs are  153 randomized atomic wfcs

     Self-consistent Calculation

     iteration #  1     ecut=    45.00 Ry     beta= 0.70
     Davidson diagonalization with overlap
     ethr =  1.00E-02,  avg # of iterations =  2.0

     negative rho (up, down):  1.865E-03 0.000E+00

     total energy              =    -632.17962959 Ry
     Harris-Foulkes estimate   =    -634.51134574 Ry
     estimated scf accuracy    <       6.26802475 Ry

[...]

     iteration #  9     ecut=    45.00 Ry     beta= 0.70
     Davidson diagonalization with overlap
     c_bands:  1 eigenvalues not converged
     ethr =  1.50E-06,  avg # of iterations =  6.5

[...]

     total energy              =    -633.42877292 Ry
     Harris-Foulkes estimate   =    -633.42877670 Ry
     estimated scf accuracy    <       0.00000127 Ry

     iteration # 19     ecut=    45.00 Ry     beta= 0.70
     Davidson diagonalization with overlap
     ethr =  7.86E-10,  avg # of iterations =  4.0

[...]

     End of self-consistent calculation

          k = 0.0000 0.0000 0.0000 (107141 PWs)   bands (ev):

   -17.3872 -16.8601 -16.6785 -16.5172 -16.4227 -16.2986 -16.2463 -16.1356
   -16.0475 -15.9886 -15.9328 -15.8765 -15.7689 -15.6584 -15.4496 -15.3571
   -15.1667 -14.9838  -9.1416  -8.8722  -8.7862  -8.7725  -8.5822  -8.4622
    -8.4232  -8.3109  -8.1303  -8.0489  -8.0452  -7.9985  -7.9489  -7.8211
    -7.7358  -7.6485  -7.5798  -7.5675  -7.4798  -7.4664  -7.3628  -7.2279
    -7.1412  -7.1036  -7.0742  -7.0308  -6.9283  -6.8666  -6.7597  -6.7239
    -6.6934  -6.5879  -6.4977  -6.4490  -6.3276  -6.2789  -6.2017  -6.1688
    -6.1189  -5.9494  -5.8536  -5.7121  -5.6309  -5.5135  -5.4609  -5.4326
    -5.1933  -5.0746  -5.0073  -4.9241  -4.7946  -4.7263  -4.6502  -4.5415
    -4.4606  -4.2792  -4.1890  -4.0506  -3.9258  -3.7245  -3.5289  -3.4396
    -3.3417  -3.2038  -2.9913  -2.9320  -2.7531  -2.6771  -2.5671  -2.3499
    -2.2963  -2.0657  -1.8549  -1.7399  -1.7045  -1.5911  -1.4085  -1.3944
    -1.2934

          k = 0.0000-0.4032-0.0692 (107036 PWs)   bands (ev):

[...]

          k =-0.5000-0.1692-0.0603 (107114 PWs)   bands (ev):

[...]

          k =-0.5000-0.5724-0.1294 (107168 PWs)   bands (ev):

   -17.2355 -16.8797 -16.7846 -16.6980 -16.3996 -16.3707 -16.2419 -16.1182
   -16.0496 -15.9625 -15.9330 -15.8478 -15.6483 -15.5847 -15.5247 -15.3440
   -15.1673 -14.9626  -9.0286  -8.9641  -8.8595  -8.7674  -8.6005  -8.4736
    -8.4397  -8.2686  -8.2563  -8.1861  -8.0632  -8.0423  -7.9074  -7.8811
    -7.7368  -7.6470  -7.5306  -7.4749  -7.4031  -7.3661  -7.3131  -7.2561
    -7.1988  -7.1627  -7.1010  -7.0586  -6.9339  -6.8869  -6.7943  -6.6614
    -6.6361  -6.6156  -6.5345  -6.4030  -6.3409  -6.2494  -6.1746  -6.1440
    -6.0659  -5.8526  -5.8298  -5.6890  -5.6380  -5.5412  -5.4045  -5.3187
    -5.1897  -5.1620  -4.9916  -4.9313  -4.7719  -4.7225  -4.5907  -4.4051
    -4.2913  -4.2445  -4.1378  -4.0622  -4.0596  -3.6974  -3.6127  -3.5575
    -3.4235  -3.3158  -3.1868  -2.9895  -2.7339  -2.5923  -2.5293  -2.4119
    -2.3142  -2.1933  -2.0405  -1.7773  -1.6727  -1.5356  -1.4533  -1.3968
    -1.2065

     the Fermi energy is    -3.3060 ev

!    total energy              =    -633.42877306 Ry
     Harris-Foulkes estimate   =    -633.42877315 Ry
     estimated scf accuracy    <       0.00000044 Ry

     The total energy is the sum of the following terms:

     one-electron contribution =   -7211.97453188 Ry
     hartree contribution      =    3639.01246445 Ry
     xc contribution           =    -249.91219616 Ry
     ewald contribution        =    3189.44853741 Ry
     smearing contrib. (-TS)   =      -0.00304689 Ry

     convergence has been achieved in  19 iterations

     negative rho (up, down):  5.169E-03 0.000E+00

     Forces acting on atoms (cartesian axes, Ry/au):

     atom    1 type  1   force =    -0.02914906   -0.00423607   -0.00173717
     atom    2 type  1   force =     0.04603993    0.02744523    0.02197736
     atom    3 type  1   force =    -0.01874081   -0.00442276    0.05297328
     atom    4 type  1   force =     0.01841436    0.06294434   -0.01613970
     atom    5 type  1   force =     0.01340531    0.00363258    0.04237913
     atom    6 type  1   force =     0.01194190   -0.05623641    0.01585850
     atom    7 type  1   force =    -0.04053359    0.03071778    0.03386010
     atom    8 type  1   force =     0.00183456   -0.00786006    0.00510095
     atom    9 type  1   force =    -0.04019768    0.00603473    0.01055915
     atom   10 type  2   force =    -0.00065104    0.00484451   -0.01299015
     atom   11 type  2   force =     0.00236021   -0.00381822   -0.01185718
     atom   12 type  2   force =     0.01030568   -0.01501859   -0.00633282
     atom   13 type  2   force =    -0.01147583   -0.00806193   -0.03392908
     atom   14 type  2   force =    -0.01563394    0.00709595    0.01522384
     atom   15 type  2   force =    -0.01012382   -0.00151660   -0.00021047
     atom   16 type  2   force =    -0.00593561   -0.00311200   -0.01659500
     atom   17 type  2   force =     0.01714698   -0.00451586    0.00187307
     atom   18 type  2   force =    -0.01054357   -0.00373657   -0.03744129
     atom   19 type  2   force =     0.00458676    0.02467872    0.01864123
     atom   20 type  2   force =     0.02979090   -0.00088718    0.00480876
     atom   21 type  2   force =     0.03035242   -0.00974074   -0.05989104
     atom   22 type  2   force =     0.00445271   -0.01769109    0.01900917
     atom   23 type  2   force =     0.01146114   -0.01628464   -0.02689414
     atom   24 type  2   force =     0.01110541   -0.00551808    0.01387364
     atom   25 type  2   force =    -0.01222029    0.02351354   -0.03273744
     atom   26 type  2   force =    -0.03745498   -0.00740771    0.02960476
     atom   27 type  2   force =     0.01946196   -0.02084287   -0.02898749

     Total force =     0.205869     Total SCF correction =     0.001139

     General routines

     Parallel routines

   This run was terminated on:  22:49:52  23Dec2021

   JOB DONE.