     Program PWSCF v.6.4 starts on 24Dec2021 at 21: 5: 8

     R & G space division:  proc/nbgrp/npool/nimage =      40
     Waiting for input...
     Reading input from standard input
Warning: card    &IONS ignored
Warning: card      ION_DYNAMICS = 'BFGS' ignored
Warning: card   / ignored
Warning: card    &CELL ignored
Warning: card      CELL_DYNAMICS = 'BFGS', ignored
Warning: card    / ignored

     Current dimensions of program PWSCF are:
     Max number of different atomic species (ntypx) = 10
     Max number of k-points (npk) =  40000
     Max angular momentum in pseudopotentials (lmaxx) =  3

     bravais-lattice index     =            0
     lattice parameter (alat)  =      18.2723  a.u.
     unit-cell volume          =    6208.2355 (a.u.)^3
     number of atoms/cell      =           42
     number of atomic types    =            2
     number of electrons       =       252.00
     number of Kohn-Sham states=          151
     kinetic-energy cutoff     =      45.0000  Ry
     charge density cutoff     =     360.0000  Ry
     convergence threshold     =      1.0E-06
     mixing beta               =       0.7000
     number of iterations used =            8  local-TF  mixing
     Exchange-correlation      = SLA PW GGX GGC ( 1  4  2  2 0 0)

     celldm(1)=  18.272279  celldm(2)=   0.000000  celldm(3)=   0.000000
     celldm(4)=   0.000000  celldm(5)=   0.000000  celldm(6)=   0.000000

     crystal axes: (cart. coord. in units of alat)
               a(1) = (   1.000000   0.000000   0.000000 )
               a(2) = (  -0.025762   1.015645   0.000000 )
               a(3) = (  -0.027835  -0.022113   1.001955 )

     reciprocal axes: (cart. coord. in units 2 pi/alat)
               b(1) = (  1.000000  0.025365  0.028341 )
               b(2) = (  0.000000  0.984596  0.021729 )
               b(3) = (  0.000000  0.000000  0.998049 )

     PseudoPot. # 1 for Mo read from file:
     ~/pseudo/Mo.pw91-n-van.UPF
     MD5 check sum: Not computed, couldn't open file
     Pseudo is Ultrasoft + core correction, Zval =  6.0
     Generated by new atomic code, or converted to UPF format
     Using radial grid of  965 points,  3 beta functions with:
                l(1) =   1
                l(2) =   2
                l(3) =   2
     Q(r) pseudized with  8 coefficients,  rinner =    1.000   1.000   1.000
                                                       1.200   1.200

     PseudoPot. # 2 for S  read from file:
     ~/pseudo/S.pw91-van_ak.UPF
     MD5 check sum: Not computed, couldn't open file
     Pseudo is Ultrasoft, Zval =  6.0
     Generated by new atomic code, or converted to UPF format
     Using radial grid of  811 points,  6 beta functions with:
                l(1) =   0
                l(2) =   0
                l(3) =   1
                l(4) =   1
                l(5) =   2
                l(6) =   2
     Q(r) pseudized with  8 coefficients,  rinner =    1.100   1.100   1.100
                                                       1.100   1.100

     atomic species   valence    mass     pseudopotential
        Mo             6.00    95.50000     Mo( 1.00)
        S              6.00    32.06500     S ( 1.00)

     No symmetry found

   Cartesian axes

     site n.     atom                  positions (alat units)
         1           Mo  tau(   1) = (   0.0902083   0.4033922   0.3942126  )
         2           Mo  tau(   2) = (   0.3742823   0.4099954   0.0960155  )
         3           Mo  tau(   3) = (   0.1435977   0.1491407   0.1796844  )
         4           Mo  tau(   4) = (   0.3862515   0.1168821   0.4096821  )
         5           Mo  tau(   5) = (   0.5640376   0.9087303   0.4163991  )
         6           Mo  tau(   6) = (   0.8287348   0.8615862   0.1862346  )
         7           Mo  tau(   7) = (   0.5832673   0.6261069   0.1086824  )
         8           Mo  tau(   8) = (   0.8786523   0.6335955   0.3817474  )
         9           Mo  tau(   9) = (   0.3548164   0.9017110   0.6212967  )
        10           Mo  tau(  10) = (   0.0787451   0.6094131   0.6036203  )
        11           Mo  tau(  11) = (   0.3614945   0.5972352   0.8913407  )
        12           Mo  tau(  12) = (   0.5599413   0.3994260   0.8958489  )
        13           Mo  tau(  13) = (   0.8458377   0.4174362   0.5605971  )
        14           Mo  tau(  14) = (   0.5795377   0.1020529   0.6194788  )
        15           S   tau(  15) = (   0.1226152   0.3764866   0.1309268  )
        16           S   tau(  16) = (   0.3391961   0.3706454   0.3635738  )
        17           S   tau(  17) = (   0.3237742   0.8897268   0.3666302  )
        18           S   tau(  18) = (   0.0957331   0.8962826   0.1431283  )
        19           S   tau(  19) = (   0.3342664   0.6504855   0.1334486  )
        20           S   tau(  20) = (   0.1199545   0.6439413   0.3674682  )
        21           S   tau(  21) = (   0.3378729   0.6364574   0.6373804  )
        22           S   tau(  22) = (   0.5963066   0.8758767   0.1467686  )
        23           S   tau(  23) = (   0.8369279   0.8792325   0.4023652  )
        24           S   tau(  24) = (   0.8489221   0.3789684   0.3267502  )
        25           S   tau(  25) = (   0.6178199   0.3751713   0.1236913  )
        26           S   tau(  26) = (   0.9460916   0.0446407   0.0625967  )
        27           S   tau(  27) = (   0.6341158   0.1316263   0.3988823  )
        28           S   tau(  28) = (   0.0990124   0.8590340   0.6457196  )
        29           S   tau(  29) = (   0.1214143   0.1430147   0.4071077  )
        30           S   tau(  30) = (   0.3374625   0.8669811   0.8708176  )
        31           S   tau(  31) = (   0.3252384   0.3550580   0.8577274  )
        32           S   tau(  32) = (   0.0711611   0.3549911   0.6311201  )
        33           S   tau(  33) = (   0.3496295   0.1247112   0.6507090  )
        34           S   tau(  34) = (   0.3803766   0.1451189   0.1336504  )
        35           S   tau(  35) = (   0.6098845   0.3706382   0.6382634  )
        36           S   tau(  36) = (   0.6088202   0.6546549   0.3721964  )
        37           S   tau(  37) = (   0.6925716   0.1839780   0.8313984  )
        38           S   tau(  38) = (   0.0978138   0.6177004   0.8649261  )
        39           S   tau(  39) = (   0.5959574   0.8871988   0.6508649  )
        40           S   tau(  40) = (   0.8365769   0.6408522   0.6233227  )
        41           S   tau(  41) = (   0.6091809   0.6272761   0.8796430  )
        42           S   tau(  42) = (   0.8496989   0.6419298   0.1269183  )

     number of k points=     8  Marzari-Vanderbilt smearing, width (Ry)=  0.0200
                       cart. coord. in units 2pi/alat
        k(    1) = (   0.0000000   0.0000000   0.0000000), wk =   0.2500000
        k(    2) = (   0.0000000   0.0000000  -0.4990246), wk =   0.2500000
        k(    3) = (   0.0000000  -0.4922979  -0.0108647), wk =   0.2500000
        k(    4) = (   0.0000000  -0.4922979  -0.5098893), wk =   0.2500000
        k(    5) = (  -0.5000000  -0.0126824  -0.0141705), wk =   0.2500000
        k(    6) = (  -0.5000000  -0.0126824  -0.5131951), wk =   0.2500000
        k(    7) = (  -0.5000000  -0.5049803  -0.0250352), wk =   0.2500000
        k(    8) = (  -0.5000000  -0.5049803  -0.5240598), wk =   0.2500000

     Initial potential from superposition of free atoms

     starting charge  251.97792, renormalised to  252.00000
     Starting wfcs are  238 randomized atomic wfcs

     Self-consistent Calculation

     iteration #  1     ecut=    45.00 Ry     beta= 0.70
     Davidson diagonalization with overlap
     ethr =  1.00E-02,  avg # of iterations =  2.0

     total energy              =    -983.46555546 Ry
     Harris-Foulkes estimate   =    -986.69112369 Ry
     estimated scf accuracy    <       9.06038007 Ry

[...]

     total energy              =    -985.11049086 Ry
     Harris-Foulkes estimate   =    -985.11049115 Ry
     estimated scf accuracy    <       0.00000193 Ry

     iteration # 14     ecut=    45.00 Ry     beta= 0.70
     Davidson diagonalization with overlap
     ethr =  7.66E-10,  avg # of iterations =  3.0

     End of self-consistent calculation

          k = 0.0000 0.0000 0.0000 ( 31659 PWs)   bands (ev):

    -8.3148  -7.8485  -7.7875  -7.5605  -7.5265  -7.4654  -7.3337  -7.2505
    -7.1804  -7.1398  -7.0891  -7.0327  -6.9729  -6.9511  -6.8637  -6.8021
    -6.7597  -6.7216  -6.6131  -6.5411  -6.1967  -5.9874  -5.7577  -5.7174
    -5.5432  -5.4881  -5.3672  -5.2939  -0.0237   0.0000   0.0244   0.1176
     0.2983   0.3148   0.4019   0.5635   0.6267   0.7303   0.7781   0.9137
     0.9455   1.0267   1.1116   1.1319   1.2058   1.2846   1.3850   1.3949
     1.4571   1.4838   1.5883   1.6503   1.6847   1.6913   1.7358   1.7529
     1.8521   1.8948   1.9533   1.9921   2.0218   2.0400   2.0974   2.1337
     2.1796   2.2537   2.2998   2.3198   2.3617   2.3857   2.4214   2.4611
     2.4846   2.5054   2.5800   2.6165   2.6324   2.6564   2.7245   2.7954
     2.8290   2.8790   2.9715   3.0147   3.0321   3.0601   3.1201   3.1858
     3.2400   3.2618   3.2999   3.4758   3.5167   3.6362   3.7203   3.8125
     3.8561   3.9507   4.0251   4.1608   4.2201   4.2874   4.3734   4.4167
     4.4989   4.5755   4.6670   4.7974   4.9032   4.9560   4.9954   5.0664
     5.1606   5.2319   5.2845   5.3460   5.3681   5.4499   5.6191   5.7383
     5.7685   5.7919   5.9350   5.9604   6.0152   6.1042   6.1681   6.2841
     6.3342   6.3928   6.5890   6.6228   6.7333   6.7802   6.8420   7.0163
     7.1099   7.2112   7.3668   7.4454   7.4945   7.6210   7.7138   7.7540
     7.9202   7.9397   8.0293   8.0857   8.1659   8.2300   8.2388

[...]

          k = 0.0000-0.4923-0.5099 ( 31648 PWs)   bands (ev):

[...]

          k =-0.5000-0.0127-0.0142 ( 31644 PWs)   bands (ev):

[...]

          k =-0.5000-0.5050-0.5241 ( 31596 PWs)   bands (ev):

    -8.0967  -7.9773  -7.7414  -7.6981  -7.6410  -7.4403  -7.3444  -7.2922
    -7.2359  -7.1716  -7.0810  -7.0000  -6.9816  -6.8869  -6.8449  -6.8197
    -6.7083  -6.6998  -6.6502  -6.5405  -6.1341  -5.9572  -5.7356  -5.7000
    -5.5563  -5.4924  -5.3617  -5.2944   0.1527   0.2634   0.2793   0.3247
     0.4219   0.5458   0.5686   0.6460   0.6726   0.7256   0.7820   0.8839
     0.9273   0.9372   0.9909   0.9992   1.0724   1.0975   1.1336   1.1719
     1.2688   1.3018   1.3274   1.3741   1.4434   1.4879   1.5561   1.6363
     1.6935   1.7419   1.8661   1.9450   1.9537   2.0441   2.1209   2.1646
     2.2344   2.2505   2.3220   2.3426   2.3714   2.3889   2.4230   2.4527
     2.4736   2.5270   2.5612   2.5954   2.6013   2.7236   2.7822   2.8625
     2.8857   2.9149   2.9604   2.9987   3.0202   3.1009   3.1884   3.2684
     3.3694   3.4223   3.5453   3.5861   3.7052   3.7452   3.8270   3.9359
     4.0532   4.0773   4.1408   4.1691   4.2235   4.3219   4.3418   4.4365
     4.5336   4.5854   4.7518   4.8072   4.8546   4.9548   5.0184   5.0713
     5.1346   5.1763   5.2459   5.3113   5.3871   5.5311   5.6148   5.6744
     5.7948   5.8401   5.9150   6.0150   6.0431   6.1250   6.1634   6.1864
     6.3204   6.3450   6.4686   6.5309   6.6072   6.6402   6.8432   7.0612
     7.1007   7.2978   7.3653   7.4853   7.5030   7.6116   7.8415   7.8690
     7.9040   8.0258   8.0876   8.1744   8.1833   8.2107   8.2829

     the Fermi energy is     6.1563 ev

!    total energy              =    -985.11049073 Ry
     Harris-Foulkes estimate   =    -985.11049111 Ry
     estimated scf accuracy    <       0.00000052 Ry

     The total energy is the sum of the following terms:

     one-electron contribution =    -154.67035507 Ry
     hartree contribution      =     215.68072698 Ry
     xc contribution           =    -389.94847395 Ry
     ewald contribution        =    -656.16897861 Ry
     smearing contrib. (-TS)   =      -0.00341008 Ry

     convergence has been achieved in  14 iterations

     Forces acting on atoms (cartesian axes, Ry/au):

     atom    1 type  1   force =     0.00003651   -0.04839797   -0.08291511
     atom    2 type  1   force =     0.00300238   -0.04054365    0.05506293
     atom    3 type  1   force =     0.02971064   -0.05547699   -0.00690760
     atom    4 type  1   force =    -0.05522937    0.00717504   -0.07935854
     atom    5 type  1   force =     0.02814823   -0.04029795   -0.09171706
     atom    6 type  1   force =     0.02086944    0.04826547   -0.14248821
     atom    7 type  1   force =     0.01703531   -0.01728267    0.06886143
     atom    8 type  1   force =    -0.05098883   -0.05781464   -0.01819236
     atom    9 type  1   force =    -0.02560734   -0.04669272   -0.00343440
     atom   10 type  1   force =     0.01242446   -0.00983391    0.04575203
     atom   11 type  1   force =    -0.07977406    0.08346642   -0.01101762
     atom   12 type  1   force =     0.01633851   -0.09078263   -0.06584478
     atom   13 type  1   force =    -0.01943824   -0.06005744    0.06839021
     atom   14 type  1   force =     0.03021901    0.06420291    0.12774619
     atom   15 type  2   force =    -0.04715677    0.06352788   -0.04146660
     atom   16 type  2   force =     0.04265851    0.01737097    0.02182996
     atom   17 type  2   force =     0.01190672    0.00203792    0.02181507
     atom   18 type  2   force =    -0.03013384    0.03864436   -0.01157516
     atom   19 type  2   force =     0.02673835   -0.00688772   -0.01334279
     atom   20 type  2   force =     0.04519465    0.02128328   -0.02871467
     atom   21 type  2   force =     0.00237042   -0.00071546   -0.01076161
     atom   22 type  2   force =    -0.04769657    0.05675905   -0.02409798
     atom   23 type  2   force =     0.02527592    0.04376910    0.17964697
     atom   24 type  2   force =     0.00827339    0.03466324    0.00014470
     atom   25 type  2   force =     0.00162916    0.00705871    0.05511416
     atom   26 type  2   force =     0.00539436    0.00057890   -0.00761207
     atom   27 type  2   force =     0.02340193    0.03991792   -0.10524786
     atom   28 type  2   force =     0.00176895    0.00617616    0.01091642
     atom   29 type  2   force =    -0.01069969   -0.02842677    0.04705154
     atom   30 type  2   force =    -0.00887224   -0.02965353    0.00096095
     atom   31 type  2   force =    -0.00510001   -0.01015752   -0.01717904
     atom   32 type  2   force =     0.00222864    0.01644160    0.03579369
     atom   33 type  2   force =    -0.06151160    0.04294011    0.02756969
     atom   34 type  2   force =    -0.00117680   -0.02024608    0.00595573
     atom   35 type  2   force =     0.01440410    0.00693880   -0.02101416
     atom   36 type  2   force =    -0.01189179   -0.02065722    0.00589435
     atom   37 type  2   force =     0.00083702   -0.00940671    0.01040998
     atom   38 type  2   force =     0.02418724    0.01260717   -0.01504815
     atom   39 type  2   force =     0.04433795   -0.07086702    0.05743397
     atom   40 type  2   force =    -0.03075080    0.05426817    0.03626132
     atom   41 type  2   force =     0.01851483    0.06751508   -0.05764798
     atom   42 type  2   force =     0.02912134   -0.07140966   -0.02702756

     Total force =     0.506888     Total SCF correction =     0.001420

     General routines

     Parallel routines

   This run was terminated on:  21: 7:49  24Dec2021

   JOB DONE.