     Program PWSCF v.6.4 starts on 25Dec2021 at  0: 9:18

     R & G space division:  proc/nbgrp/npool/nimage =      40
     Waiting for input...
     Reading input from standard input
Warning: card    &IONS ignored
Warning: card      ION_DYNAMICS = 'BFGS' ignored
Warning: card   / ignored
Warning: card    &CELL ignored
Warning: card      CELL_DYNAMICS = 'BFGS', ignored
Warning: card    / ignored

     Current dimensions of program PWSCF are:
     Max number of different atomic species (ntypx) = 10
     Max number of k-points (npk) =  40000
     Max angular momentum in pseudopotentials (lmaxx) =  3

     Found symmetry operation: I + (  0.0000 -0.5000  0.0000)
     This is a supercell, fractional translations are disabled

     bravais-lattice index     =            0
     lattice parameter (alat)  =      12.1536  a.u.
     unit-cell volume          =    5660.1662 (a.u.)^3
     number of atoms/cell      =           36
     number of atomic types    =            2
     number of electrons       =       216.00
     number of Kohn-Sham states=          130
     kinetic-energy cutoff     =      45.0000  Ry
     charge density cutoff     =     360.0000  Ry
     convergence threshold     =      1.0E-06
     mixing beta               =       0.7000
     number of iterations used =            8  local-TF  mixing
     Exchange-correlation      = SLA PW GGX GGC ( 1  4  2  2 0 0)

     celldm(1)=  12.153560  celldm(2)=   0.000000  celldm(3)=   0.000000
     celldm(4)=   0.000000  celldm(5)=   0.000000  celldm(6)=   0.000000

     crystal axes: (cart. coord. in units of alat)
               a(1) = (   1.000000   0.000000   0.000000 )
               a(2) = (  -0.500000   0.866026   0.000000 )
               a(3) = (   0.000000   0.000000   3.640726 )

     reciprocal axes: (cart. coord. in units 2 pi/alat)
               b(1) = (  1.000000  0.577350  0.000000 )
               b(2) = (  0.000000  1.154700  0.000000 )
               b(3) = (  0.000000  0.000000  0.274670 )

     PseudoPot. # 1 for Mo read from file:
     ~/pseudo/Mo.pw91-n-van.UPF
     MD5 check sum: Not computed, couldn't open file
     Pseudo is Ultrasoft + core correction, Zval =  6.0
     Generated by new atomic code, or converted to UPF format
     Using radial grid of  965 points,  3 beta functions with:
                l(1) =   1
                l(2) =   2
                l(3) =   2
     Q(r) pseudized with  8 coefficients,  rinner =    1.000   1.000   1.000
                                                       1.200   1.200

     PseudoPot. # 2 for S  read from file:
     ~/pseudo/S.pw91-van_ak.UPF
     MD5 check sum: Not computed, couldn't open file
     Pseudo is Ultrasoft, Zval =  6.0
     Generated by new atomic code, or converted to UPF format
     Using radial grid of  811 points,  6 beta functions with:
                l(1) =   0
                l(2) =   0
                l(3) =   1
                l(4) =   1
                l(5) =   2
                l(6) =   2
     Q(r) pseudized with  8 coefficients,  rinner =    1.100   1.100   1.100
                                                       1.100   1.100

     atomic species   valence    mass     pseudopotential
        Mo             6.00    95.50000     Mo( 1.00)
        S              6.00    32.06500     S ( 1.00)

     No symmetry found

   Cartesian axes

     site n.     atom                  positions (alat units)
         1           Mo  tau(   1) = (   0.1340206   0.7895504   1.4819445  )
         2           Mo  tau(   2) = (   0.3840201   0.0678628   2.5918402  )
         3           Mo  tau(   3) = (   0.3750000   0.6495192   0.3322790  )
         4           Mo  tau(   4) = (   0.3840207   0.3565377   1.4819445  )
         5           Mo  tau(   5) = (   0.6340202   0.5008755   2.5918402  )
         6           Mo  tau(   6) = (   0.6250000   0.2165063   0.3322790  )
         7           Mo  tau(   7) = (   0.8840203   0.0678628   2.5918402  )
         8           Mo  tau(   8) = (  -0.1159793   0.3565377   1.4819445  )
         9           Mo  tau(   9) = (  -0.3659794   0.7895504   1.4819446  )
        10           Mo  tau(  10) = (   0.1340202   0.5008755   2.5918402  )
        11           Mo  tau(  11) = (   0.1250000   0.2165063   0.3322790  )
        12           Mo  tau(  12) = (  -0.1250000   0.6495192   0.3322790  )
        13           S   tau(  13) = (   0.1340206   0.7895504   2.3463465  )
        14           S   tau(  14) = (   0.1340206   0.7895504   2.8372820  )
        15           S   tau(  15) = (   0.3749997   0.0721689   0.0867969  )
        16           S   tau(  16) = (   0.3749997   0.0721689   0.5776964  )
        17           S   tau(  17) = (   0.3840204   0.6452131   1.2363845  )
        18           S   tau(  18) = (   0.3840204   0.6452131   1.7274831  )
        19           S   tau(  19) = (   0.3840207   0.3565377   2.3463463  )
        20           S   tau(  20) = (   0.3840207   0.3565377   2.8372816  )
        21           S   tau(  21) = (   0.6249998   0.5051816   0.0867969  )
        22           S   tau(  22) = (   0.6249997   0.5051817   0.5776964  )
        23           S   tau(  23) = (   0.6340205   0.2122002   1.2363845  )
        24           S   tau(  24) = (   0.6340205   0.2122002   1.7274831  )
        25           S   tau(  25) = (   0.8749998   0.0721689   0.0867969  )
        26           S   tau(  26) = (   0.8749998   0.0721689   0.5776964  )
        27           S   tau(  27) = (  -0.1159793   0.3565377   2.3463465  )
        28           S   tau(  28) = (  -0.1159793   0.3565377   2.8372820  )
        29           S   tau(  29) = (  -0.3659794   0.7895504   2.3463465  )
        30           S   tau(  30) = (  -0.3659794   0.7895504   2.8372820  )
        31           S   tau(  31) = (   0.1249998   0.5051817   0.0867969  )
        32           S   tau(  32) = (   0.1249998   0.5051817   0.5776964  )
        33           S   tau(  33) = (   0.1340204   0.2122002   1.2363843  )
        34           S   tau(  34) = (   0.1340204   0.2122002   1.7274829  )
        35           S   tau(  35) = (  -0.1159796   0.6452131   1.2363845  )
        36           S   tau(  36) = (  -0.1159796   0.6452131   1.7274831  )

     number of k points=     5  Marzari-Vanderbilt smearing, width (Ry)=  0.0200
                       cart. coord. in units 2pi/alat
        k(    1) = (   0.0000000   0.0000000   0.0000000), wk =   0.2222222
        k(    2) = (   0.0000000   0.3849001   0.0000000), wk =   0.4444444
        k(    3) = (   0.3333333   0.5773502   0.0000000), wk =   0.4444444
        k(    4) = (  -0.3333333   0.1924501   0.0000000), wk =   0.4444444
        k(    5) = (   0.3333333   0.1924501   0.0000000), wk =   0.4444444

     Initial potential from superposition of free atoms

     starting charge  215.98107, renormalised to  216.00000
     Starting wfcs are  204 randomized atomic wfcs

     Self-consistent Calculation

     iteration #  1     ecut=    45.00 Ry     beta= 0.70
     Davidson diagonalization with overlap
     ethr =  1.00E-02,  avg # of iterations =  2.0

     total energy              =    -844.24822055 Ry
     Harris-Foulkes estimate   =    -846.85969722 Ry
     estimated scf accuracy    <       6.67249534 Ry

[...]

     total energy              =    -845.54428736 Ry
     Harris-Foulkes estimate   =    -845.54428767 Ry
     estimated scf accuracy    <       0.00000227 Ry

     iteration # 13     ecut=    45.00 Ry     beta= 0.70
     Davidson diagonalization with overlap
     ethr =  1.05E-09,  avg # of iterations =  2.0

     End of self-consistent calculation

          k = 0.0000 0.0000 0.0000 ( 28709 PWs)   bands (ev):

    -9.1178  -9.0943  -9.0871  -7.9289  -7.8957  -7.8850  -7.3751  -7.3751
    -7.3750  -7.3597  -7.3597  -7.3596  -7.3507  -7.3507  -7.3506  -7.1096
    -7.1096  -7.1096  -7.0928  -7.0928  -7.0928  -7.0838  -7.0837  -7.0837
    -0.7448  -0.7447  -0.7446  -0.7255  -0.7255  -0.7254  -0.7170  -0.7168
    -0.7168  -0.6664  -0.5681  -0.5057   0.1941   0.1942   0.1945   0.2205
     0.2206   0.2208   0.2276   0.2282   0.2282   0.8718   0.8719   0.8729
     0.9074   0.9074   0.9079   0.9211   0.9226   0.9227   1.7811   1.7811
     1.7812   1.7956   1.7956   1.7956   1.8047   1.8047   1.8047   2.2991
     2.2991   2.3110   2.3110   2.3195   2.3195   2.9631   2.9938   2.9940
     2.9964   3.0587   3.0589   3.0601   3.0857   3.0894   3.0897   3.1813
     3.4140   3.4140   3.4278   3.4279   3.4373   3.4373   3.4791   3.9398
     3.9399   3.9400   3.9591   3.9593   3.9593   3.9670   3.9671   3.9671
     4.2200   4.2201   4.2211   4.2514   4.2515   4.2519   4.2633   4.2650
     4.2651   4.7145   4.9232   5.0311   6.9018   6.9019   6.9020   6.9163
     6.9164   6.9165   6.9248   6.9249   6.9251   7.4148   7.4148   7.4153
     7.4407   7.4407   7.4409   7.4492   7.4497   7.4498   7.5868   7.5868
     7.6045   7.6045

[...]

          k =-0.3333 0.1925 0.0000 ( 28834 PWs)   bands (ev):

[...]

          k = 0.3333 0.1925 0.0000 ( 28834 PWs)   bands (ev):

    -8.7529  -8.7299  -8.7226  -7.9002  -7.8803  -7.8724  -7.7522  -7.7216
    -7.7122  -7.3976  -7.3976  -7.3813  -7.3812  -7.3726  -7.3725  -7.3477
    -7.3244  -7.3164  -7.0972  -7.0971  -7.0793  -7.0793  -7.0705  -7.0705
    -0.2972  -0.2972  -0.2727  -0.2727  -0.2651  -0.2649  -0.2629  -0.2317
    -0.1949  -0.1828  -0.1684  -0.1087   0.1297   0.1297   0.1462   0.1462
     0.1552   0.1552   0.7974   0.8371   0.8587   1.0105   1.0566   1.0756
     1.0933   1.0942   1.1293   1.1300   1.1432   1.1448   1.5768   1.5898
     1.5987   1.7200   1.7202   1.7591   1.7591   1.7762   1.7764   2.0123
     2.0971   2.1000   2.1114   2.1206   2.1722   2.5718   2.5720   2.5967
     2.5970   2.6045   2.6049   2.7021   2.7144   2.7230   2.8815   2.8956
     2.9049   3.1530   3.1544   3.1920   3.1928   3.2031   3.2053   3.2190
     3.3002   3.3714   3.5398   3.5549   3.5633   3.7204   3.8253   3.9060
     3.9415   3.9498   3.9681   4.3838   4.3839   4.4005   4.4005   4.4086
     4.4088   4.5073   4.6059   4.6430   6.9104   6.9105   6.9364   6.9558
     6.9637   6.9686   6.9687   6.9855   6.9882   6.9883   7.0004   7.1113
     7.1243   7.1729   7.1919   7.3482   7.3692   7.3916   7.3996   7.4003
     7.4198   7.4199

     the Fermi energy is     4.9902 ev

!    total energy              =    -845.54428682 Ry
     Harris-Foulkes estimate   =    -845.54428754 Ry
     estimated scf accuracy    <       0.00000077 Ry

     The total energy is the sum of the following terms:

     one-electron contribution =    -485.05268555 Ry
     hartree contribution      =     354.50930570 Ry
     xc contribution           =    -334.14610385 Ry
     ewald contribution        =    -380.87613119 Ry
     smearing contrib. (-TS)   =       0.02132807 Ry

     convergence has been achieved in  13 iterations

     Forces acting on atoms (cartesian axes, Ry/au):

     atom    1 type  1   force =     0.00005517    0.00048336    0.00059711
     atom    2 type  1   force =    -0.00054142   -0.00030126   -0.00178094
     atom    3 type  1   force =     0.00038090    0.00069099    0.00078424
     atom    4 type  1   force =     0.00045808   -0.00019041    0.00060879
     atom    5 type  1   force =     0.00007214    0.00059582   -0.00165747
     atom    6 type  1   force =     0.00043090   -0.00024694    0.00063858
     atom    7 type  1   force =     0.00057109   -0.00023529   -0.00166657
     atom    8 type  1   force =    -0.00043126   -0.00023444    0.00068052
     atom    9 type  1   force =    -0.00005644   -0.00005074    0.00052977
     atom   10 type  1   force =    -0.00005942   -0.00006279   -0.00154638
     atom   11 type  1   force =    -0.00040772   -0.00067193    0.00078403
     atom   12 type  1   force =    -0.00036418    0.00021015    0.00065118
     atom   13 type  2   force =     0.00013266    0.00001075   -0.00030808
     atom   14 type  2   force =     0.00001656   -0.00025467    0.00087480
     atom   15 type  2   force =    -0.00011479   -0.00025514   -0.00076317
     atom   16 type  2   force =     0.00010030   -0.00008346    0.00062502
     atom   17 type  2   force =     0.00002745    0.00000205   -0.00018833
     atom   18 type  2   force =    -0.00009162   -0.00004350    0.00005824
     atom   19 type  2   force =     0.00009978    0.00009159   -0.00029123
     atom   20 type  2   force =    -0.00024111    0.00014384    0.00090037
     atom   21 type  2   force =     0.00016952    0.00022758   -0.00076628
     atom   22 type  2   force =     0.00012852   -0.00004368    0.00062817
     atom   23 type  2   force =    -0.00002104   -0.00000398    0.00007500
     atom   24 type  2   force =    -0.00004374   -0.00002503   -0.00025696
     atom   25 type  2   force =     0.00007927   -0.00003880   -0.00090684
     atom   26 type  2   force =    -0.00018886    0.00011587    0.00081745
     atom   27 type  2   force =    -0.00016862   -0.00009484   -0.00024129
     atom   28 type  2   force =     0.00013861    0.00007028    0.00091267
     atom   29 type  2   force =    -0.00008827   -0.00002575   -0.00026148
     atom   30 type  2   force =     0.00000997    0.00003054    0.00069044
     atom   31 type  2   force =    -0.00021363    0.00011998   -0.00081976
     atom   32 type  2   force =     0.00000584   -0.00000593    0.00082225
     atom   33 type  2   force =     0.00004986   -0.00008228   -0.00000415
     atom   34 type  2   force =     0.00002508    0.00010763   -0.00010353
     atom   35 type  2   force =    -0.00004979    0.00009556   -0.00001697
     atom   36 type  2   force =     0.00013021   -0.00004512   -0.00009918

     Total force =     0.005186     Total SCF correction =     0.002480
     SCF correction compared to forces is large: reduce conv_thr to get better values

     General routines

     Parallel routines

   This run was terminated on:   0:10:51  25Dec2021

   JOB DONE.