     Program PWSCF v.6.4 starts on  2Dec2021 at 18:51: 4

     R & G space division:  proc/nbgrp/npool/nimage =      40
     Waiting for input...
     Reading input from standard input
Warning: card    &IONS ignored
Warning: card      ION_DYNAMICS = 'BFGS' ignored
Warning: card   / ignored
Warning: card    &CELL ignored
Warning: card      CELL_DYNAMICS = 'BFGS', ignored
Warning: card    / ignored

     Current dimensions of program PWSCF are:
     Max number of different atomic species (ntypx) = 10
     Max number of k-points (npk) =  40000
     Max angular momentum in pseudopotentials (lmaxx) =  3

     bravais-lattice index     =            0
     lattice parameter (alat)  =      10.5519  a.u.
     unit-cell volume          =    3120.9025 (a.u.)^3
     number of atoms/cell      =           15
     number of atomic types    =            2
     number of electrons       =        90.00
     number of Kohn-Sham states=           54
     kinetic-energy cutoff     =      45.0000  Ry
     charge density cutoff     =     360.0000  Ry
     convergence threshold     =      1.0E-06
     mixing beta               =       0.7000
     number of iterations used =            8  local-TF  mixing
     Exchange-correlation      = SLA PW GGX GGC ( 1  4  2  2 0 0)

     celldm(1)=  10.551855  celldm(2)=   0.000000  celldm(3)=   0.000000
     celldm(4)=   0.000000  celldm(5)=   0.000000  celldm(6)=   0.000000

     crystal axes: (cart. coord. in units of alat)
               a(1) = (   1.000000   0.000000   0.000000 )
               a(2) = (   0.466952   0.891709   0.000000 )
               a(3) = (   0.008187   0.557860   2.979002 )

     reciprocal axes: (cart. coord. in units 2 pi/alat)
               b(1) = (  1.000000 -0.523660  0.095314 )
               b(2) = (  0.000000  1.121443 -0.210006 )
               b(3) = (  0.000000  0.000000  0.335683 )

     PseudoPot. # 1 for Mo read from file:
     ~/pseudo/Mo.pw91-n-van.UPF
     MD5 check sum: Not computed, couldn't open file
     Pseudo is Ultrasoft + core correction, Zval =  6.0
     Generated by new atomic code, or converted to UPF format
     Using radial grid of  965 points,  3 beta functions with:
                l(1) =   1
                l(2) =   2
                l(3) =   2
     Q(r) pseudized with  8 coefficients,  rinner =    1.000   1.000   1.000
                                                       1.200   1.200

     PseudoPot. # 2 for S  read from file:
     ~/pseudo/S.pw91-van_ak.UPF
     MD5 check sum: Not computed, couldn't open file
     Pseudo is Ultrasoft, Zval =  6.0
     Generated by new atomic code, or converted to UPF format
     Using radial grid of  811 points,  6 beta functions with:
                l(1) =   0
                l(2) =   0
                l(3) =   1
                l(4) =   1
                l(5) =   2
                l(6) =   2
     Q(r) pseudized with  8 coefficients,  rinner =    1.100   1.100   1.100
                                                       1.100   1.100

     atomic species   valence    mass     pseudopotential
        Mo             6.00    95.50000     Mo( 1.00)
        S              6.00    32.06500     S ( 1.00)

     No symmetry found

   Cartesian axes

     site n.     atom                  positions (alat units)
         1           Mo  tau(   1) = (   0.3892645   0.8267607   1.1327149  )
         2           Mo  tau(   2) = (   0.8970497   1.0316958   1.1225459  )
         3           Mo  tau(   3) = (   0.9782660   0.4963014   1.1234534  )
         4           Mo  tau(   4) = (   0.5875622   1.0495869   2.1821379  )
         5           Mo  tau(   5) = (   0.4845965   0.5363343   2.1866813  )
         6           S   tau(   6) = (   0.5912545   0.4948556   0.9070971  )
         7           S   tau(   7) = (   0.1058229   0.1943823   0.8302748  )
         8           S   tau(   8) = (   1.0887992   0.7895592   0.8155044  )
         9           S   tau(   9) = (   0.4088551   0.7865178   1.8971621  )
        10           S   tau(  10) = (   0.9097778   1.0814736   1.9555736  )
        11           S   tau(  11) = (   1.2334978   1.1085263   1.4042445  )
        12           S   tau(  12) = (   0.7399144   0.7623335   1.4040522  )
        13           S   tau(  13) = (   0.2963631   0.4764792   1.3980784  )
        14           S   tau(  14) = (   0.5028101   0.8033868   2.5098629  )
        15           S   tau(  15) = (   0.9115437   0.4918100   2.2406785  )

     number of k points=     5  Marzari-Vanderbilt smearing, width (Ry)=  0.0200
                       cart. coord. in units 2pi/alat
        k(    1) = (   0.0000000   0.0000000   0.0000000), wk =   0.2222222
        k(    2) = (   0.0000000   0.3738142  -0.0700019), wk =   0.4444444
        k(    3) = (   0.3333333  -0.1745535   0.0317714), wk =   0.4444444
        k(    4) = (   0.3333333   0.1992607  -0.0382305), wk =   0.4444444
        k(    5) = (   0.3333333  -0.5483677   0.1017733), wk =   0.4444444

     Initial potential from superposition of free atoms

     starting charge   89.99211, renormalised to   90.00000

     negative rho (up, down):  9.042E-07 0.000E+00
     Starting wfcs are   85 randomized atomic wfcs

     Self-consistent Calculation

     iteration #  1     ecut=    45.00 Ry     beta= 0.70
     Davidson diagonalization with overlap
     ethr =  1.00E-02,  avg # of iterations =  2.0

     total energy              =    -351.27185103 Ry
     Harris-Foulkes estimate   =    -352.41670984 Ry
     estimated scf accuracy    <       2.95903075 Ry

[...]

     negative rho (up, down):  1.503E-06 0.000E+00

[...]

     total energy              =    -351.84742886 Ry
     Harris-Foulkes estimate   =    -351.84742970 Ry
     estimated scf accuracy    <       0.00001052 Ry

     iteration # 24     ecut=    45.00 Ry     beta= 0.70
     Davidson diagonalization with overlap
     ethr =  1.17E-08,  avg # of iterations =  1.0

[...]

     End of self-consistent calculation

          k = 0.0000 0.0000 0.0000 ( 15921 PWs)   bands (ev):

   -11.5469 -10.8437 -10.3850 -10.0208  -9.8033  -9.6853  -9.6419  -9.5989
    -9.4977  -9.0572  -2.9788  -2.6776  -2.3471  -2.2590  -2.1383  -2.0544
    -1.9981  -1.8940  -1.8409  -1.7115  -1.4788  -1.3205  -1.0804  -0.8417
    -0.7165  -0.6452  -0.6334  -0.5854  -0.4863  -0.4144  -0.3316  -0.2310
    -0.1587  -0.0626   0.0534   0.2326   0.7661   1.3569   1.8384   1.8996
     2.0808   2.1714   2.3409   2.5506   2.6473   3.0314   3.1654   3.3493
     3.4548   3.6253   3.7198   4.0578   4.2240   4.3660

[...]

          k = 0.3333-0.5484 0.1018 ( 15883 PWs)   bands (ev):

   -10.6732 -10.3725 -10.2312 -10.2125 -10.1450 -10.0456  -9.9366  -9.8526
    -9.6329  -9.3659  -2.6498  -2.5982  -2.5212  -2.3943  -2.2964  -2.1636
    -2.1017  -2.0174  -1.9241  -1.6418  -1.4486  -1.2690  -1.1876  -1.0817
    -0.9509  -0.7125  -0.6212  -0.5389  -0.3180  -0.1804  -0.0596   0.1983
     0.2728   0.4760   0.5929   0.6191   1.0353   1.1309   1.2365   1.2900
     1.5100   1.7694   2.1415   2.2079   2.3828   2.7904   3.5010   3.5965
     3.7411   3.8704   4.0555   4.2310   4.5136   4.6409

     the Fermi energy is     2.6442 ev

!    total energy              =    -351.84742866 Ry
     Harris-Foulkes estimate   =    -351.84742921 Ry
     estimated scf accuracy    <       0.00000070 Ry

     The total energy is the sum of the following terms:

     one-electron contribution =    -678.75072925 Ry
     hartree contribution      =     377.67650024 Ry
     xc contribution           =    -138.94477160 Ry
     ewald contribution        =      88.16368771 Ry
     smearing contrib. (-TS)   =       0.00788425 Ry

     convergence has been achieved in  24 iterations

     negative rho (up, down):  1.164E-05 0.000E+00

     Forces acting on atoms (cartesian axes, Ry/au):

     atom    1 type  1   force =    -0.01091381    0.02530057   -0.03652214
     atom    2 type  1   force =    -0.02626866   -0.01243085   -0.02494700
     atom    3 type  1   force =     0.02599438   -0.00168603   -0.02431630
     atom    4 type  1   force =    -0.05925230   -0.04803425    0.03124130
     atom    5 type  1   force =     0.01161524   -0.01319999    0.05456371
     atom    6 type  2   force =     0.00863435   -0.00562355   -0.00042050
     atom    7 type  2   force =     0.00112041   -0.00087594    0.00995164
     atom    8 type  2   force =    -0.00255986   -0.00256619    0.02426759
     atom    9 type  2   force =    -0.00274512    0.04630357   -0.05140991
     atom   10 type  2   force =     0.05665671   -0.01642606   -0.02958849
     atom   11 type  2   force =     0.00348512   -0.02284103    0.01651727
     atom   12 type  2   force =     0.02338348    0.01063497    0.00955465
     atom   13 type  2   force =    -0.02281086    0.01064881    0.01452321
     atom   14 type  2   force =     0.01148683    0.00400838    0.02367438
     atom   15 type  2   force =    -0.01782592    0.02678760   -0.01708941

     Total force =     0.171196     Total SCF correction =     0.002042

     General routines

     Parallel routines

   This run was terminated on:  18:51:43   2Dec2021

   JOB DONE.