     Program PWSCF v.6.4 starts on  8Sep2021 at 11:52: 7

     R & G space division:  proc/nbgrp/npool/nimage =      40
     Waiting for input...
     Reading input from standard input
Warning: card    &IONS ignored
Warning: card      ION_DYNAMICS = 'BFGS' ignored
Warning: card   / ignored
Warning: card    &CELL ignored
Warning: card      CELL_DYNAMICS = 'BFGS', ignored
Warning: card    / ignored

     Current dimensions of program PWSCF are:
     Max number of different atomic species (ntypx) = 10
     Max number of k-points (npk) =  40000
     Max angular momentum in pseudopotentials (lmaxx) =  3

     bravais-lattice index     =            0
     lattice parameter (alat)  =      12.1300  a.u.
     unit-cell volume          =    6500.6666 (a.u.)^3
     number of atoms/cell      =           24
     number of atomic types    =            2
     number of electrons       =       144.00
     number of Kohn-Sham states=           86
     kinetic-energy cutoff     =      45.0000  Ry
     charge density cutoff     =     360.0000  Ry
     convergence threshold     =      1.0E-06
     mixing beta               =       0.7000
     number of iterations used =            8  local-TF  mixing
     Exchange-correlation      = SLA PW GGX GGC ( 1  4  2  2 0 0)

     celldm(1)=  12.129986  celldm(2)=   0.000000  celldm(3)=   0.000000
     celldm(4)=   0.000000  celldm(5)=   0.000000  celldm(6)=   0.000000

     crystal axes: (cart. coord. in units of alat)
               a(1) = (   0.999989   0.001961   0.004276 )
               a(2) = (  -0.501926   0.864818   0.006105 )
               a(3) = (  -0.000854  -0.009524   4.206812 )

     reciprocal axes: (cart. coord. in units 2 pi/alat)
               b(1) = (  0.998868  0.579715  0.001515 )
               b(2) = ( -0.002276  1.154973  0.002614 )
               b(3) = ( -0.001012 -0.002265  0.237704 )

     PseudoPot. # 1 for Mo read from file:
     ~/pseudo/Mo.pw91-n-van.UPF
     MD5 check sum: Not computed, couldn't open file
     Pseudo is Ultrasoft + core correction, Zval =  6.0
     Generated by new atomic code, or converted to UPF format
     Using radial grid of  965 points,  3 beta functions with:
                l(1) =   1
                l(2) =   2
                l(3) =   2
     Q(r) pseudized with  8 coefficients,  rinner =    1.000   1.000   1.000
                                                       1.200   1.200

     PseudoPot. # 2 for S  read from file:
     ~/pseudo/S.pw91-van_ak.UPF
     MD5 check sum: Not computed, couldn't open file
     Pseudo is Ultrasoft, Zval =  6.0
     Generated by new atomic code, or converted to UPF format
     Using radial grid of  811 points,  6 beta functions with:
                l(1) =   0
                l(2) =   0
                l(3) =   1
                l(4) =   1
                l(5) =   2
                l(6) =   2
     Q(r) pseudized with  8 coefficients,  rinner =    1.100   1.100   1.100
                                                       1.100   1.100

     atomic species   valence    mass     pseudopotential
        Mo             6.00    95.50000     Mo( 1.00)
        S              6.00    32.06500     S ( 1.00)

     No symmetry found

   Cartesian axes

     site n.     atom                  positions (alat units)
         1           Mo  tau(   1) = (   0.2561651   0.1424793   0.6346966  )
         2           Mo  tau(   2) = (   0.0034579   0.5743485   0.6371432  )
         3           Mo  tau(   3) = (   0.7556140   0.1434101   0.6364315  )
         4           Mo  tau(   4) = (   0.5032531   0.5762540   0.6414152  )
         5           Mo  tau(   5) = (  -0.0075198   0.2811619   3.5776637  )
         6           Mo  tau(   6) = (  -0.2580154   0.7135125   3.5803919  )
         7           Mo  tau(   7) = (   0.4926144   0.2817235   3.5790484  )
         8           Mo  tau(   8) = (   0.2421926   0.7141416   3.5819441  )
         9           S   tau(   9) = (   0.0045798   0.2843883   0.8806259  )
        10           S   tau(  10) = (  -0.2472827   0.7166228   0.8848095  )
        11           S   tau(  11) = (   0.5048517   0.2844910   0.8839968  )
        12           S   tau(  12) = (   0.2504651   0.7182827   0.8870592  )
        13           S   tau(  13) = (   0.2419788   0.1352524   3.8234983  )
        14           S   tau(  14) = (  -0.0082916   0.5680065   3.8264051  )
        15           S   tau(  15) = (   0.7418307   0.1348809   3.8251741  )
        16           S   tau(  16) = (   0.4918000   0.5675107   3.8280770  )
        17           S   tau(  17) = (   0.0070814   0.2868262   0.3878980  )
        18           S   tau(  18) = (  -0.2462094   0.7206045   0.3922647  )
        19           S   tau(  19) = (   0.5068347   0.2911065   0.3913023  )
        20           S   tau(  20) = (   0.2543542   0.7209483   0.3942918  )
        21           S   tau(  21) = (   0.2433002   0.1394266   3.3306985  )
        22           S   tau(  22) = (  -0.0070033   0.5717297   3.3335765  )
        23           S   tau(  23) = (   0.7440003   0.1409324   3.3324458  )
        24           S   tau(  24) = (   0.4932906   0.5730758   3.3352893  )

     number of k points=     5  Marzari-Vanderbilt smearing, width (Ry)=  0.0200
                       cart. coord. in units 2pi/alat
        k(    1) = (   0.0000000   0.0000000   0.0000000), wk =   0.2222222
        k(    2) = (  -0.0007587   0.3849909   0.0008714), wk =   0.4444444
        k(    3) = (   0.3329559   0.1932384   0.0005051), wk =   0.4444444
        k(    4) = (   0.3321971   0.5782293   0.0013765), wk =   0.4444444
        k(    5) = (   0.3337146  -0.1917524  -0.0003664), wk =   0.4444444

     Initial potential from superposition of free atoms

     starting charge  143.98738, renormalised to  144.00000

     negative rho (up, down):  8.079E-04 0.000E+00
     Starting wfcs are  136 randomized atomic wfcs

     Self-consistent Calculation

     iteration #  1     ecut=    45.00 Ry     beta= 0.70
     Davidson diagonalization with overlap
     ethr =  1.00E-02,  avg # of iterations =  2.0

     negative rho (up, down):  6.632E-05 0.000E+00

     total energy              =    -562.83513127 Ry
     Harris-Foulkes estimate   =    -564.56254112 Ry
     estimated scf accuracy    <       4.41625337 Ry

[...]

     total energy              =    -563.69390787 Ry
     Harris-Foulkes estimate   =    -563.69391457 Ry
     estimated scf accuracy    <       0.00002573 Ry

     iteration # 14     ecut=    45.00 Ry     beta= 0.70
     Davidson diagonalization with overlap
     ethr =  1.79E-08,  avg # of iterations =  3.2

[...]

     End of self-consistent calculation

          k = 0.0000 0.0000 0.0000 ( 33057 PWs)   bands (ev):

   -13.6753 -13.6724 -12.4839 -12.4795 -11.9177 -11.9172 -11.9165 -11.9160
   -11.9150 -11.9149 -11.6619 -11.6611 -11.6607 -11.6596 -11.6593 -11.6587
    -5.3078  -5.3073  -5.3068  -5.3037  -5.3031  -5.3028  -5.1667  -5.1371
    -4.3676  -4.3666  -4.3664  -4.3635  -4.3633  -4.3621  -3.6730  -3.6723
    -3.6715  -3.6609  -3.6604  -3.6596  -2.7625  -2.7614  -2.7604  -2.7594
    -2.7584  -2.7563  -2.2399  -2.2376  -2.2372  -2.2346  -1.5310  -1.5290
    -1.5277  -1.5259  -1.5252  -1.5231  -1.4364  -1.3067  -1.1193  -1.1170
    -1.1160  -1.1140  -0.5868  -0.5857  -0.5844  -0.5836  -0.5831  -0.5810
    -0.3203  -0.3195  -0.3190  -0.3181  -0.3173  -0.3166   0.2394   0.3341
     2.3721   2.3736   2.3740   2.3741   2.3747   2.3749   2.8905   2.8909
     2.8914   2.9017   2.9026   2.9027   3.0581   3.0583

          k =-0.0008 0.3850 0.0009 ( 33119 PWs)   bands (ev):

[...]

          k = 0.3337-0.1918-0.0004 ( 33135 PWs)   bands (ev):

   -13.3075 -13.3046 -12.4481 -12.4452 -12.3062 -12.3025 -11.9421 -11.9378
   -11.9377 -11.9367 -11.9000 -11.8978 -11.6508 -11.6464 -11.6458 -11.6430
    -4.8565  -4.8515  -4.8500  -4.8471  -4.7747  -4.7668  -4.7617  -4.7335
    -4.4312  -4.4306  -4.4291  -4.4288  -3.7446  -3.7343  -3.5253  -3.5107
    -3.4466  -3.4433  -3.4355  -3.4327  -2.9664  -2.9640  -2.8246  -2.8188
    -2.8127  -2.8074  -2.4884  -2.4531  -2.4406  -2.4388  -1.9769  -1.9675
    -1.9661  -1.9596  -1.8293  -1.8280  -1.6521  -1.6498  -1.3901  -1.3882
    -1.3848  -1.3823  -1.2907  -1.2602  -0.9852  -0.9835  -0.7577  -0.6948
    -0.6437  -0.6336  -0.1608  -0.1584  -0.1571  -0.1557  -0.0160   0.0229
     2.3999   2.4022   2.4040   2.4078   2.4228   2.4254   2.4879   2.5175
     2.5632   2.5769   2.8079   2.8349   2.8370   2.8524

     the Fermi energy is     0.3846 ev

!    total energy              =    -563.69391378 Ry
     Harris-Foulkes estimate   =    -563.69391323 Ry
     estimated scf accuracy    <       0.00000027 Ry

     The total energy is the sum of the following terms:

     one-electron contribution =   -3736.41846477 Ry
     hartree contribution      =    1918.73666703 Ry
     xc contribution           =    -222.79813245 Ry
     ewald contribution        =    1476.76898231 Ry
     smearing contrib. (-TS)   =       0.01703411 Ry

     convergence has been achieved in  14 iterations

     negative rho (up, down):  1.141E-03 0.000E+00

     Forces acting on atoms (cartesian axes, Ry/au):

     atom    1 type  1   force =    -0.00081100   -0.00019472   -0.00004820
     atom    2 type  1   force =     0.00076080    0.00037115    0.00099150
     atom    3 type  1   force =    -0.00068754   -0.00001185    0.00064520
     atom    4 type  1   force =     0.00101174   -0.00048658   -0.00234316
     atom    5 type  1   force =     0.00036386   -0.00010410   -0.00047649
     atom    6 type  1   force =    -0.00019059   -0.00013217   -0.00018266
     atom    7 type  1   force =     0.00012604    0.00021248    0.00040005
     atom    8 type  1   force =    -0.00047803    0.00025499    0.00074360
     atom    9 type  2   force =    -0.00067200   -0.00200770    0.00165086
     atom   10 type  2   force =     0.00025799   -0.00049530    0.00019280
     atom   11 type  2   force =    -0.00105812    0.00097498    0.00037557
     atom   12 type  2   force =     0.00253449   -0.00177496   -0.00028447
     atom   13 type  2   force =     0.00003388   -0.00086620    0.00015641
     atom   14 type  2   force =    -0.00083539   -0.00129969    0.00046903
     atom   15 type  2   force =    -0.00008482    0.00160942    0.00078710
     atom   16 type  2   force =    -0.00145830    0.00128979    0.00095260
     atom   17 type  2   force =    -0.00126356    0.00326132    0.00044280
     atom   18 type  2   force =     0.00062861    0.00041846   -0.00107418
     atom   19 type  2   force =    -0.00107763   -0.00199410   -0.00077138
     atom   20 type  2   force =     0.00034723    0.00204486   -0.00149587
     atom   21 type  2   force =     0.00095490    0.00041667   -0.00075798
     atom   22 type  2   force =     0.00036645    0.00052256   -0.00034537
     atom   23 type  2   force =     0.00041149   -0.00110226   -0.00011235
     atom   24 type  2   force =     0.00081950   -0.00090704    0.00008460

     Total force =     0.008590     Total SCF correction =     0.000961
     SCF correction compared to forces is large: reduce conv_thr to get better values

     General routines

     Parallel routines

   This run was terminated on:  11:53:10   8Sep2021

   JOB DONE.