     Program PWSCF v.6.4 starts on 28Nov2021 at 10:12:23

     R & G space division:  proc/nbgrp/npool/nimage =      40
     Waiting for input...
     Reading input from standard input
Warning: card    &IONS ignored
Warning: card      ION_DYNAMICS = 'BFGS' ignored
Warning: card   / ignored
Warning: card    &CELL ignored
Warning: card      CELL_DYNAMICS = 'BFGS', ignored
Warning: card    / ignored

     Current dimensions of program PWSCF are:
     Max number of different atomic species (ntypx) = 10
     Max number of k-points (npk) =  40000
     Max angular momentum in pseudopotentials (lmaxx) =  3

     bravais-lattice index     =            0
     lattice parameter (alat)  =      11.9834  a.u.
     unit-cell volume          =    4909.9412 (a.u.)^3
     number of atoms/cell      =           24
     number of atomic types    =            2
     number of electrons       =       144.00
     number of Kohn-Sham states=           86
     kinetic-energy cutoff     =      45.0000  Ry
     charge density cutoff     =     360.0000  Ry
     convergence threshold     =      1.0E-06
     mixing beta               =       0.7000
     number of iterations used =            8  local-TF  mixing
     Exchange-correlation      = SLA PW GGX GGC ( 1  4  2  2 0 0)

     celldm(1)=  11.983378  celldm(2)=   0.000000  celldm(3)=   0.000000
     celldm(4)=   0.000000  celldm(5)=   0.000000  celldm(6)=   0.000000

     crystal axes: (cart. coord. in units of alat)
               a(1) = (   1.000000  -0.000300   0.000023 )
               a(2) = (   0.499664   0.908610  -0.000252 )
               a(3) = (   0.298865  -0.099952   3.139745 )

     reciprocal axes: (cart. coord. in units 2 pi/alat)
               b(1) = (  0.999837 -0.549863 -0.112677 )
               b(2) = (  0.000330  1.100411  0.035000 )
               b(3) = ( -0.000007  0.000092  0.318501 )

     PseudoPot. # 1 for Mo read from file:
     ~/pseudo/Mo.pw91-n-van.UPF
     MD5 check sum: Not computed, couldn't open file
     Pseudo is Ultrasoft + core correction, Zval =  6.0
     Generated by new atomic code, or converted to UPF format
     Using radial grid of  965 points,  3 beta functions with:
                l(1) =   1
                l(2) =   2
                l(3) =   2
     Q(r) pseudized with  8 coefficients,  rinner =    1.000   1.000   1.000
                                                       1.200   1.200

     PseudoPot. # 2 for S  read from file:
     ~/pseudo/S.pw91-van_ak.UPF
     MD5 check sum: Not computed, couldn't open file
     Pseudo is Ultrasoft, Zval =  6.0
     Generated by new atomic code, or converted to UPF format
     Using radial grid of  811 points,  6 beta functions with:
                l(1) =   0
                l(2) =   0
                l(3) =   1
                l(4) =   1
                l(5) =   2
                l(6) =   2
     Q(r) pseudized with  8 coefficients,  rinner =    1.100   1.100   1.100
                                                       1.100   1.100

     atomic species   valence    mass     pseudopotential
        Mo             6.00    95.50000     Mo( 1.00)
        S              6.00    32.06500     S ( 1.00)

     No symmetry found

   Cartesian axes

     site n.     atom                  positions (alat units)
         1           Mo  tau(   1) = (   0.9153885   0.3061879   2.5841299  )
         2           Mo  tau(   2) = (   1.4151994   0.3060483   2.5841973  )
         3           Mo  tau(   3) = (   0.7486799   0.0259421   0.4903805  )
         4           Mo  tau(   4) = (   1.1655018   0.7603732   2.5836968  )
         5           Mo  tau(   5) = (   0.4986011   0.4780928   0.6295182  )
         6           Mo  tau(   6) = (   1.6655432   0.7603364   2.5836549  )
         7           Mo  tau(   7) = (   0.9983197   0.4778793   0.6294635  )
         8           Mo  tau(   8) = (   0.2486359   0.0256554   0.4905407  )
         9           S   tau(   9) = (   0.9982875   0.7085643   0.3109453  )
        10           S   tau(  10) = (   0.7485590   0.7036637   0.8091720  )
        11           S   tau(  11) = (   0.4981817   0.7085949   0.3111140  )
        12           S   tau(  12) = (   1.2484392   0.7033994   0.8088406  )
        13           S   tau(  13) = (   1.4156170   0.6069487   2.8312594  )
        14           S   tau(  14) = (   1.4156265   0.6064138   2.3365024  )
        15           S   tau(  15) = (   0.4986573   0.2500804   0.3100679  )
        16           S   tau(  16) = (   0.2485011   0.2537753   0.8099870  )
        17           S   tau(  17) = (   0.6652806   0.1523106   2.8314929  )
        18           S   tau(  18) = (   0.6652708   0.1525692   2.3367867  )
        19           S   tau(  19) = (   0.9988166   0.2500011   0.3100281  )
        20           S   tau(  20) = (   0.7483314   0.2532361   0.8097995  )
        21           S   tau(  21) = (   1.1652154   0.1521299   2.8314276  )
        22           S   tau(  22) = (   1.1652106   0.1523813   2.3365650  )
        23           S   tau(  23) = (   0.9155803   0.6069495   2.8311565  )
        24           S   tau(  24) = (   0.9156121   0.6065371   2.3363465  )

     number of k points=     5  Marzari-Vanderbilt smearing, width (Ry)=  0.0200
                       cart. coord. in units 2pi/alat
        k(    1) = (   0.0000000   0.0000000   0.0000000), wk =   0.2222222
        k(    2) = (   0.0001099   0.3668037   0.0116666), wk =   0.4444444
        k(    3) = (   0.3332791  -0.1832877  -0.0375589), wk =   0.4444444
        k(    4) = (   0.3333891   0.1835160  -0.0258923), wk =   0.4444444
        k(    5) = (   0.3331692  -0.5500913  -0.0492255), wk =   0.4444444

     Initial potential from superposition of free atoms

     starting charge  143.98738, renormalised to  144.00000

     negative rho (up, down):  1.893E-04 0.000E+00
     Starting wfcs are  136 randomized atomic wfcs

     Self-consistent Calculation

     iteration #  1     ecut=    45.00 Ry     beta= 0.70
     Davidson diagonalization with overlap
     ethr =  1.00E-02,  avg # of iterations =  2.0

     negative rho (up, down):  2.162E-06 0.000E+00

     total energy              =    -562.43619248 Ry
     Harris-Foulkes estimate   =    -564.25669825 Ry
     estimated scf accuracy    <       4.66842540 Ry

[...]

     total energy              =    -563.38875707 Ry
     Harris-Foulkes estimate   =    -563.38875741 Ry
     estimated scf accuracy    <       0.00000287 Ry

     iteration # 19     ecut=    45.00 Ry     beta= 0.70
     Davidson diagonalization with overlap
     ethr =  1.99E-09,  avg # of iterations =  2.2

[...]

     End of self-consistent calculation

          k = 0.0000 0.0000 0.0000 ( 25077 PWs)   bands (ev):

   -11.5930 -11.5432 -10.7598 -10.3386 -10.0018  -9.8463  -9.8447  -9.7637
    -9.7616  -9.7265  -9.7214  -9.7077  -9.5962  -9.5217  -9.5189  -9.4670
    -3.7527  -3.2095  -3.1448  -3.1432  -3.0527  -2.9416  -2.4443  -2.4428
    -2.4411  -2.2782  -2.2664  -2.2402  -2.2315  -2.1469  -1.6134  -1.5595
    -1.5572  -1.4348  -1.1528  -1.1455  -1.1083  -1.0959  -1.0911  -0.8981
    -0.8908  -0.4910  -0.4181  -0.2658  -0.0162   0.2028   0.2905   0.3204
     0.3645   0.5556   0.5723   0.6191   0.6238   0.6971   0.7325   0.8474
     0.9971   1.2047   1.2113   1.2951   1.4530   1.5643   1.6137   1.6709
     1.8245   1.8277   1.8979   2.1831   2.4454   2.7524   2.9821   2.9866
     3.5167   3.5688   3.7184   3.7298   4.2261   4.2291   4.3059   4.7169
     4.8888   4.9135   4.9142   4.9677   5.0141   5.0157

[...]

          k = 0.3332-0.5501-0.0492 ( 25034 PWs)   bands (ev):

   -10.7296 -10.6400 -10.6368 -10.5809 -10.5672 -10.5583 -10.2953 -10.0764
   -10.0527  -9.9250  -9.9226  -9.8465  -9.6735  -9.4352  -9.2057  -9.1747
    -3.1080  -2.8552  -2.7864  -2.3993  -2.3820  -2.3754  -2.0874  -2.0196
    -2.0067  -1.9988  -1.9489  -1.7401  -1.5294  -1.4235  -1.4069  -1.3947
    -1.3893  -1.2810  -1.2704  -1.2044  -1.1460  -1.1289  -1.1175  -0.9659
    -0.9591  -0.7578  -0.6459  -0.6291  -0.5224  -0.4300  -0.4232  -0.4002
    -0.2209  -0.2083  -0.1300   0.0121   0.1888   0.3274   0.3877   0.3891
     0.4353   0.8474   0.8659   1.3203   1.3379   1.3862   1.5408   1.5560
     1.6267   1.6279   1.6302   2.2996   2.3293   2.7031   2.7295   2.9122
     3.3562   3.8279   4.1498   4.1803   4.1911   4.2427   4.2623   4.3055
     4.5813   4.5893   4.6919   4.7496   4.8510   4.8997

     the Fermi energy is     3.1972 ev

!    total energy              =    -563.38875627 Ry
     Harris-Foulkes estimate   =    -563.38875727 Ry
     estimated scf accuracy    <       0.00000078 Ry

     The total energy is the sum of the following terms:

     one-electron contribution =   -1482.25980247 Ry
     hartree contribution      =     802.81593075 Ry
     xc contribution           =    -222.67772038 Ry
     ewald contribution        =     338.72716813 Ry
     smearing contrib. (-TS)   =       0.00566770 Ry

     convergence has been achieved in  19 iterations

     negative rho (up, down):  3.291E-04 0.000E+00

     Forces acting on atoms (cartesian axes, Ry/au):

     atom    1 type  1   force =     0.00011873    0.00027340   -0.00020778
     atom    2 type  1   force =     0.00008516    0.00022774   -0.00022209
     atom    3 type  1   force =     0.00003468   -0.00015656    0.00139773
     atom    4 type  1   force =    -0.00007479    0.00023993   -0.00020131
     atom    5 type  1   force =    -0.00004783    0.00017131   -0.00073823
     atom    6 type  1   force =    -0.00009592    0.00021395   -0.00018701
     atom    7 type  1   force =     0.00006693    0.00020787   -0.00058815
     atom    8 type  1   force =    -0.00006609   -0.00009793    0.00136649
     atom    9 type  2   force =    -0.00008705   -0.00017694    0.00059975
     atom   10 type  2   force =    -0.00002162    0.00017008    0.00008822
     atom   11 type  2   force =     0.00002326   -0.00006228    0.00004363
     atom   12 type  2   force =    -0.00003889    0.00037417   -0.00004556
     atom   13 type  2   force =    -0.00012382   -0.00024138   -0.00125113
     atom   14 type  2   force =    -0.00025146   -0.00027424    0.00055103
     atom   15 type  2   force =     0.00004172    0.00017390    0.00047269
     atom   16 type  2   force =     0.00001060   -0.00033908   -0.00025212
     atom   17 type  2   force =     0.00002891   -0.00003525   -0.00113833
     atom   18 type  2   force =     0.00018937   -0.00017891    0.00066351
     atom   19 type  2   force =     0.00002125    0.00018303    0.00053202
     atom   20 type  2   force =     0.00010429   -0.00001995   -0.00008740
     atom   21 type  2   force =     0.00014226   -0.00015457   -0.00094384
     atom   22 type  2   force =     0.00025938   -0.00016466    0.00070673
     atom   23 type  2   force =    -0.00004591   -0.00010116   -0.00113287
     atom   24 type  2   force =    -0.00027317   -0.00023248    0.00057402

     Total force =     0.003714     Total SCF correction =     0.002398
     SCF correction compared to forces is large: reduce conv_thr to get better values

     General routines

     Parallel routines

   This run was terminated on:  10:13:38  28Nov2021

   JOB DONE.