     Program PWSCF v.6.4.1 starts on  2Aug2021 at 10:17: 4

     R & G space division:  proc/nbgrp/npool/nimage =      20
     Waiting for input...
     Reading input from standard input
Warning: card    &IONS ignored
Warning: card      ION_DYNAMICS = 'BFGS' ignored
Warning: card   / ignored
Warning: card    &CELL ignored
Warning: card      CELL_DYNAMICS = 'BFGS', ignored
Warning: card    / ignored

     Current dimensions of program PWSCF are:
     Max number of different atomic species (ntypx) = 10
     Max number of k-points (npk) =  40000
     Max angular momentum in pseudopotentials (lmaxx) =  3

     Subspace diagonalization in iterative solution of the eigenvalue problem:
     a serial algorithm will be used

     bravais-lattice index     =            0
     lattice parameter (alat)  =      12.6605  a.u.
     unit-cell volume          =    6852.5983 (a.u.)^3
     number of atoms/cell      =           24
     number of atomic types    =            2
     number of electrons       =       144.00
     number of Kohn-Sham states=           86
     kinetic-energy cutoff     =      45.0000  Ry
     charge density cutoff     =     360.0000  Ry
     convergence threshold     =      1.0E-06
     mixing beta               =       0.7000
     number of iterations used =            8  local-TF  mixing
     Exchange-correlation      = SLA PW GGX GGC ( 1  4  2  2 0 0)

     celldm(1)=  12.660525  celldm(2)=   0.000000  celldm(3)=   0.000000
     celldm(4)=   0.000000  celldm(5)=   0.000000  celldm(6)=   0.000000

     crystal axes: (cart. coord. in units of alat)
               a(1) = (   1.000000   0.000000   0.000000 )
               a(2) = (  -0.500000   0.866025   0.000000 )
               a(3) = (   0.000000   0.000000   3.899145 )

     reciprocal axes: (cart. coord. in units 2 pi/alat)
               b(1) = (  1.000000  0.577350 -0.000000 )
               b(2) = (  0.000000  1.154700  0.000000 )
               b(3) = (  0.000000 -0.000000  0.256466 )

     PseudoPot. # 1 for Mo read from file:
     /home/kkety/pseudo/Mo.pw91-n-van.UPF
     MD5 check sum: 875977911cf57e7168990cb144db214a
     Pseudo is Ultrasoft + core correction, Zval =  6.0
     Generated by new atomic code, or converted to UPF format
     Using radial grid of  965 points,  3 beta functions with:
                l(1) =   1
                l(2) =   2
                l(3) =   2
     Q(r) pseudized with  8 coefficients,  rinner =    1.000   1.000   1.000
                                                       1.200   1.200

     PseudoPot. # 2 for S  read from file:
     /home/kkety/pseudo/S.pw91-van_ak.UPF
     MD5 check sum: 708c80e9edb6b1bde406d41998b2c042
     Pseudo is Ultrasoft, Zval =  6.0
     Generated by new atomic code, or converted to UPF format
     Using radial grid of  811 points,  6 beta functions with:
                l(1) =   0
                l(2) =   0
                l(3) =   1
                l(4) =   1
                l(5) =   2
                l(6) =   2
     Q(r) pseudized with  8 coefficients,  rinner =    1.100   1.100   1.100
                                                       1.100   1.100

     atomic species   valence    mass     pseudopotential
        Mo             6.00    95.50000     Mo( 1.00)
        S              6.00    32.06500     S ( 1.00)

     No symmetry found

   Cartesian axes

     site n.     atom                  positions (alat units)
         1           Mo  tau(   1) = (   0.2498717   0.1441826   0.5531252  )
         2           Mo  tau(   2) = (  -0.0192538   0.5604435   0.5982937  )
         3           Mo  tau(   3) = (   0.7364810   0.1702194   0.5891825  )
         4           Mo  tau(   4) = (   0.4824142   0.5536060   0.5872322  )
         5           Mo  tau(   5) = (  -0.0107184   0.2749753   3.2919076  )
         6           Mo  tau(   6) = (  -0.2508889   0.7261391   3.2866634  )
         7           Mo  tau(   7) = (   0.5007646   0.2718055   3.2915518  )
         8           Mo  tau(   8) = (   0.2435888   0.7155762   3.3446765  )
         9           S   tau(   9) = (  -0.0134696   0.2707742   0.8479634  )
        10           S   tau(  10) = (  -0.2502128   0.7230260   0.8580546  )
        11           S   tau(  11) = (   0.4881122   0.2773243   0.8531529  )
        12           S   tau(  12) = (   0.2587933   0.6948016   0.8377697  )
        13           S   tau(  13) = (   0.2326611   0.1489590   3.5375678  )
        14           S   tau(  14) = (   0.0168551   0.5536440   3.5681393  )
        15           S   tau(  15) = (   0.7492150   0.1457940   3.5316184  )
        16           S   tau(  16) = (   0.5255631   0.5621760   3.5586973  )
        17           S   tau(  17) = (  -0.0174348   0.2915030   0.3617871  )
        18           S   tau(  18) = (  -0.2385951   0.7174718   0.3104570  )
        19           S   tau(  19) = (   0.5141599   0.3143762   0.3432077  )
        20           S   tau(  20) = (   0.2204717   0.7209874   0.3333882  )
        21           S   tau(  21) = (   0.2403558   0.1710799   3.0800216  )
        22           S   tau(  22) = (  -0.0269854   0.5896309   3.0674309  )
        23           S   tau(  23) = (   0.7274768   0.1269114   3.0619578  )
        24           S   tau(  24) = (   0.4921492   0.5842500   3.0988750  )

     number of k points=     5  Marzari-Vanderbilt smearing, width (Ry)=  0.0200
                       cart. coord. in units 2pi/alat
        k(    1) = (   0.0000000   0.0000000   0.0000000), wk =   0.2222222
        k(    2) = (   0.0000000   0.3849002   0.0000000), wk =   0.4444444
        k(    3) = (   0.3333333   0.5773503   0.0000000), wk =   0.4444444
        k(    4) = (  -0.3333333   0.1924500   0.0000000), wk =   0.4444444
        k(    5) = (   0.3333333   0.1924501   0.0000000), wk =   0.4444444

     Initial potential from superposition of free atoms

     starting charge  143.98738, renormalised to  144.00000

     negative rho (up, down):  8.398E-04 0.000E+00
     Starting wfcs are  136 randomized atomic wfcs

     Self-consistent Calculation

     iteration #  1     ecut=    45.00 Ry     beta= 0.70
     Davidson diagonalization with overlap
     ethr =  1.00E-02,  avg # of iterations =  2.0

     negative rho (up, down):  4.335E-04 0.000E+00

     total energy              =    -561.87982295 Ry
     Harris-Foulkes estimate   =    -564.24220385 Ry
     estimated scf accuracy    <       6.39235977 Ry

[...]

     iteration #  6     ecut=    45.00 Ry     beta= 0.70
     Davidson diagonalization with overlap
     c_bands:  1 eigenvalues not converged
     ethr =  1.21E-05,  avg # of iterations =  6.8

[...]

     total energy              =    -563.15092753 Ry
     Harris-Foulkes estimate   =    -563.15092829 Ry
     estimated scf accuracy    <       0.00000152 Ry

     iteration # 18     ecut=    45.00 Ry     beta= 0.70
     Davidson diagonalization with overlap
     ethr =  1.06E-09,  avg # of iterations =  3.6

[...]

     End of self-consistent calculation

          k = 0.0000 0.0000 0.0000 ( 35091 PWs)   bands (ev):

   -13.6026 -13.3077 -12.5181 -12.4509 -12.3582 -12.2958 -12.2104 -12.1192
   -11.8675 -11.8021 -11.7030 -11.6931 -11.5819 -11.5659 -11.4481 -11.3110
    -5.2263  -5.1787  -5.1340  -5.1109  -5.0548  -4.9652  -4.7163  -4.6953
    -4.3133  -4.2670  -4.2340  -4.1151  -4.0855  -3.9345  -3.7844  -3.7520
    -3.7102  -3.5540  -3.3773  -3.1947  -3.1488  -3.0818  -2.9708  -2.8843
    -2.8184  -2.6504  -2.4890  -2.2580  -2.1979  -2.0285  -2.0154  -1.9881
    -1.8978  -1.8531  -1.7637  -1.7131  -1.6575  -1.6090  -1.4598  -1.3859
    -1.1995  -1.1345  -0.9458  -0.9334  -0.8502  -0.7998  -0.7731  -0.6291
    -0.5743  -0.4577  -0.2898  -0.2275  -0.2248  -0.1981   0.1105   0.3881
     1.2458   1.4579   1.5230   1.5293   1.5873   1.6188   1.7553   1.8296
     1.8475   1.8726   1.9146   2.0189   2.0518   2.1301

[...]

          k =-0.3333 0.1925 0.0000 ( 34940 PWs)   bands (ev):

[...]

          k = 0.3333 0.1925 0.0000 ( 34940 PWs)   bands (ev):

   -13.3110 -13.0603 -12.6736 -12.5093 -12.4269 -12.2840 -12.2389 -12.1462
   -11.9600 -11.9093 -11.8133 -11.7068 -11.6445 -11.6339 -11.4597 -11.3905
    -4.9283  -4.8280  -4.7467  -4.7337  -4.6189  -4.5607  -4.4214  -4.3945
    -4.3573  -4.2697  -4.0467  -3.9181  -3.8346  -3.7584  -3.6605  -3.5359
    -3.5208  -3.4683  -3.3084  -3.2734  -3.1644  -3.0694  -2.9423  -2.8804
    -2.8440  -2.7417  -2.6409  -2.5474  -2.4338  -2.3889  -2.2644  -2.2367
    -2.1149  -1.9980  -1.9237  -1.8899  -1.8022  -1.7023  -1.6411  -1.6191
    -1.5249  -1.4416  -1.3799  -1.2582  -1.2298  -1.0938  -1.0501  -0.8749
    -0.7116  -0.6341  -0.4415  -0.4249  -0.2948  -0.2109   0.0289   0.0382
     1.2329   1.3805   1.4156   1.5123   1.5657   1.6005   1.6967   1.7215
     1.8077   1.8199   1.8672   1.8972   1.9966   2.0762

     the Fermi energy is     0.3424 ev

!    total energy              =    -563.15092728 Ry
     Harris-Foulkes estimate   =    -563.15092780 Ry
     estimated scf accuracy    <       0.00000026 Ry

     The total energy is the sum of the following terms:

     one-electron contribution =   -3171.01249686 Ry
     hartree contribution      =    1634.72167686 Ry
     xc contribution           =    -220.92436634 Ry
     ewald contribution        =    1194.05026895 Ry
     smearing contrib. (-TS)   =       0.01399011 Ry

     convergence has been achieved in  18 iterations

     negative rho (up, down):  1.169E-03 0.000E+00

     Forces acting on atoms (cartesian axes, Ry/au):

     atom    1 type  1   force =     0.00558491   -0.01765302    0.12531017
     atom    2 type  1   force =     0.03753225    0.05652495    0.01891171
     atom    3 type  1   force =    -0.00521275   -0.12449865    0.05344493
     atom    4 type  1   force =     0.04776543    0.10479410    0.05214877
     atom    5 type  1   force =    -0.03276363    0.08164279    0.06559146
     atom    6 type  1   force =    -0.02040444    0.01926392    0.15794959
     atom    7 type  1   force =    -0.01426269    0.08150115    0.11599550
     atom    8 type  1   force =     0.02599515   -0.03417497   -0.09278431
     atom    9 type  2   force =     0.01228974    0.02202165   -0.09495511
     atom   10 type  2   force =    -0.01373361   -0.01610389   -0.13186861
     atom   11 type  2   force =    -0.00521831    0.00882957   -0.11432258
     atom   12 type  2   force =    -0.04761332    0.02794752   -0.07729432
     atom   13 type  2   force =     0.02626875   -0.02322983   -0.04718464
     atom   14 type  2   force =    -0.03948802    0.01257618   -0.07073418
     atom   15 type  2   force =    -0.01134049   -0.00008586    0.01692965
     atom   16 type  2   force =    -0.02633440    0.01172373   -0.07126091
     atom   17 type  2   force =     0.02109539    0.00003364   -0.02580209
     atom   18 type  2   force =    -0.02775228    0.00508403    0.10853002
     atom   19 type  2   force =    -0.04347786   -0.06518227   -0.01590539
     atom   20 type  2   force =     0.01866310   -0.00176354    0.10165070
     atom   21 type  2   force =     0.01269340   -0.07402305   -0.07761298
     atom   22 type  2   force =     0.07322382   -0.04030654    0.01403724
     atom   23 type  2   force =     0.04106131   -0.02104935    0.02393089
     atom   24 type  2   force =    -0.03457146   -0.01387225   -0.03470551

     Total force =     0.494970     Total SCF correction =     0.001078

     General routines

     Parallel routines

   This run was terminated on:  10:40:51   2Aug2021

   JOB DONE.