     Program PWSCF v.6.4 starts on  8Sep2021 at 11:11:43

     R & G space division:  proc/nbgrp/npool/nimage =      40
     Waiting for input...
     Reading input from standard input
Warning: card    &IONS ignored
Warning: card      ION_DYNAMICS = 'BFGS' ignored
Warning: card   / ignored
Warning: card    &CELL ignored
Warning: card      CELL_DYNAMICS = 'BFGS', ignored
Warning: card    / ignored

     Current dimensions of program PWSCF are:
     Max number of different atomic species (ntypx) = 10
     Max number of k-points (npk) =  40000
     Max angular momentum in pseudopotentials (lmaxx) =  3

     bravais-lattice index     =            0
     lattice parameter (alat)  =      12.7354  a.u.
     unit-cell volume          =    6332.8191 (a.u.)^3
     number of atoms/cell      =           24
     number of atomic types    =            2
     number of electrons       =       144.00
     number of Kohn-Sham states=           86
     kinetic-energy cutoff     =      45.0000  Ry
     charge density cutoff     =     360.0000  Ry
     convergence threshold     =      1.0E-06
     mixing beta               =       0.7000
     number of iterations used =            8  local-TF  mixing
     Exchange-correlation      = SLA PW GGX GGC ( 1  4  2  2 0 0)

     celldm(1)=  12.735414  celldm(2)=   0.000000  celldm(3)=   0.000000
     celldm(4)=   0.000000  celldm(5)=   0.000000  celldm(6)=   0.000000

     crystal axes: (cart. coord. in units of alat)
               a(1) = (   0.999058  -0.042736  -0.007510 )
               a(2) = (  -0.523636   0.855289   0.017009 )
               a(3) = (  -0.207754  -0.471205   3.678536 )

     reciprocal axes: (cart. coord. in units 2 pi/alat)
               b(1) = (  1.028809  0.627118  0.138436 )
               b(2) = (  0.052429  1.198184  0.156443 )
               b(3) = (  0.001858 -0.004260  0.271407 )

     PseudoPot. # 1 for Mo read from file:
     ~/pseudo/Mo.pw91-n-van.UPF
     MD5 check sum: Not computed, couldn't open file
     Pseudo is Ultrasoft + core correction, Zval =  6.0
     Generated by new atomic code, or converted to UPF format
     Using radial grid of  965 points,  3 beta functions with:
                l(1) =   1
                l(2) =   2
                l(3) =   2
     Q(r) pseudized with  8 coefficients,  rinner =    1.000   1.000   1.000
                                                       1.200   1.200

     PseudoPot. # 2 for S  read from file:
     ~/pseudo/S.pw91-van_ak.UPF
     MD5 check sum: Not computed, couldn't open file
     Pseudo is Ultrasoft, Zval =  6.0
     Generated by new atomic code, or converted to UPF format
     Using radial grid of  811 points,  6 beta functions with:
                l(1) =   0
                l(2) =   0
                l(3) =   1
                l(4) =   1
                l(5) =   2
                l(6) =   2
     Q(r) pseudized with  8 coefficients,  rinner =    1.100   1.100   1.100
                                                       1.100   1.100

     atomic species   valence    mass     pseudopotential
        Mo             6.00    95.50000     Mo( 1.00)
        S              6.00    32.06500     S ( 1.00)

     No symmetry found

   Cartesian axes

     site n.     atom                  positions (alat units)
         1           Mo  tau(   1) = (   0.2739421   0.0448507   0.6475140  )
         2           Mo  tau(   2) = (  -0.0586068   0.5042741   0.5292835  )
         3           Mo  tau(   3) = (   0.7072221   0.0534847   0.5152533  )
         4           Mo  tau(   4) = (   0.5092218   0.4502293   0.6522830  )
         5           Mo  tau(   5) = (  -0.2179462  -0.0567618   3.0939701  )
         6           Mo  tau(   6) = (  -0.4079206   0.3185202   3.1149678  )
         7           Mo  tau(   7) = (   0.3527625  -0.1306081   3.1038109  )
         8           Mo  tau(   8) = (   0.0209107   0.3561083   3.0960863  )
         9           S   tau(   9) = (  -0.0520031  -0.0425325   0.7738780  )
        10           S   tau(  10) = (  -0.1943945   0.5832189   0.8486987  )
        11           S   tau(  11) = (   0.5619379   0.1449709   0.8318728  )
        12           S   tau(  12) = (   0.1838052   0.3705857   0.7837732  )
        13           S   tau(  13) = (  -0.1620079  -0.3690902   3.2896008  )
        14           S   tau(  14) = (  -0.4346498   0.0610419   3.3619928  )
        15           S   tau(  15) = (   0.3184392  -0.3871776   3.3518291  )
        16           S   tau(  16) = (   0.0689023   0.0368191   3.2946638  )
        17           S   tau(  17) = (   0.0276167   0.1865082   0.3873532  )
        18           S   tau(  18) = (  -0.1189359   0.8113287   0.3554003  )
        19           S   tau(  19) = (   0.6478251   0.3594409   0.3409036  )
        20           S   tau(  20) = (   0.2307625   0.6068422   0.3390105  )
        21           S   tau(  21) = (   0.0606512  -0.2212855   2.8976668  )
        22           S   tau(  22) = (  -0.1864841   0.2012403   2.8472884  )
        23           S   tau(  23) = (   0.5721091  -0.2457738   2.8335561  )
        24           S   tau(  24) = (   0.2970527   0.1843531   2.9043067  )

     number of k points=     5  Marzari-Vanderbilt smearing, width (Ry)=  0.0200
                       cart. coord. in units 2pi/alat
        k(    1) = (   0.0000000   0.0000000   0.0000000), wk =   0.2222222
        k(    2) = (   0.0174765   0.3993946   0.0521478), wk =   0.4444444
        k(    3) = (   0.3429363   0.2090393   0.0461452), wk =   0.4444444
        k(    4) = (   0.3604128   0.6084340   0.0982930), wk =   0.4444444
        k(    5) = (   0.3254598  -0.1903553  -0.0060026), wk =   0.4444444

     Initial potential from superposition of free atoms

     starting charge  143.98738, renormalised to  144.00000

     negative rho (up, down):  7.166E-04 0.000E+00
     Starting wfcs are  136 randomized atomic wfcs

     Self-consistent Calculation

     iteration #  1     ecut=    45.00 Ry     beta= 0.70
     Davidson diagonalization with overlap
     ethr =  1.00E-02,  avg # of iterations =  2.4

     negative rho (up, down):  5.018E-05 0.000E+00

     total energy              =    -562.21669790 Ry
     Harris-Foulkes estimate   =    -564.13474626 Ry
     estimated scf accuracy    <       5.43781801 Ry

[...]

     iteration #  6     ecut=    45.00 Ry     beta= 0.70
     Davidson diagonalization with overlap
     c_bands:  1 eigenvalues not converged
     ethr =  8.34E-06,  avg # of iterations =  7.0

[...]

     iteration #  8     ecut=    45.00 Ry     beta= 0.70
     Davidson diagonalization with overlap
     c_bands:  1 eigenvalues not converged
     ethr =  3.48E-06,  avg # of iterations =  5.0

[...]

     total energy              =    -563.23543019 Ry
     Harris-Foulkes estimate   =    -563.23542801 Ry
     estimated scf accuracy    <       0.00000283 Ry

     iteration # 15     ecut=    45.00 Ry     beta= 0.70
     Davidson diagonalization with overlap
     ethr =  1.97E-09,  avg # of iterations =  2.0

[...]

     End of self-consistent calculation

          k = 0.0000 0.0000 0.0000 ( 32311 PWs)   bands (ev):

   -13.6243 -13.0425 -12.8032 -12.1465 -12.1020 -11.9315 -11.8406 -11.6046
   -11.5957 -11.5669 -11.5529 -11.4503 -11.4226 -11.3759 -10.9285 -10.8928
    -5.6374  -4.9733  -4.9497  -4.9350  -4.8858  -4.6344  -4.5521  -4.4326
    -4.3493  -4.3345  -4.2609  -3.7006  -3.6203  -3.5947  -3.5362  -3.4273
    -3.3828  -3.3610  -3.1765  -2.9714  -2.9149  -2.8659  -2.8229  -2.5204
    -2.4415  -2.2907  -2.2037  -2.1433  -2.1147  -2.0978  -2.0628  -1.9455
    -1.6065  -1.4415  -1.3160  -1.2852  -1.1924  -1.1777  -1.1115  -1.0274
    -0.9437  -0.7311  -0.7132  -0.6022  -0.4904  -0.2807  -0.1164  -0.0273
     0.0725   0.1236   0.1482   0.2844   0.4317   0.4707   0.6608   0.9646
     1.0004   1.3328   1.3428   1.3651   1.9905   2.2411   2.5952   2.6280
     2.6494   2.7166   2.8747   2.8826   2.9737   3.1796

[...]

          k = 0.3255-0.1904-0.0060 ( 32273 PWs)   bands (ev):

   -13.3174 -12.7448 -12.7352 -12.3600 -12.2368 -12.1715 -12.1139 -11.8169
   -11.7349 -11.5201 -11.5028 -11.3612 -11.3461 -11.1997 -11.0143 -10.9730
    -5.1389  -5.0784  -4.8430  -4.5078  -4.4966  -4.4768  -4.4305  -4.2727
    -4.1531  -4.1181  -4.0738  -3.8819  -3.8477  -3.7785  -3.7577  -3.6349
    -3.5152  -3.0896  -3.0395  -2.9903  -2.9204  -2.7695  -2.6862  -2.5751
    -2.3246  -2.2239  -2.2144  -2.1634  -2.0824  -1.9416  -1.9147  -1.8628
    -1.8498  -1.7543  -1.7272  -1.5152  -1.4922  -1.2923  -1.1935  -1.1255
    -0.9841  -0.9288  -0.8442  -0.8174  -0.7469  -0.4909  -0.4191  -0.2464
    -0.1973  -0.1137   0.0959   0.2131   0.3263   0.3942   0.4510   0.7230
     1.0535   1.3302   1.4296   1.8670   2.1966   2.4131   2.4860   2.7356
     2.7832   2.8206   2.8404   2.8728   3.0233   3.0817

     the Fermi energy is     0.8575 ev

!    total energy              =    -563.23543134 Ry
     Harris-Foulkes estimate   =    -563.23543043 Ry
     estimated scf accuracy    <       0.00000084 Ry

     The total energy is the sum of the following terms:

     one-electron contribution =   -2846.86980773 Ry
     hartree contribution      =    1475.15386188 Ry
     xc contribution           =    -222.44536778 Ry
     ewald contribution        =    1030.91403455 Ry
     smearing contrib. (-TS)   =       0.01184774 Ry

     convergence has been achieved in  15 iterations

     negative rho (up, down):  1.004E-03 0.000E+00

     Forces acting on atoms (cartesian axes, Ry/au):

     atom    1 type  1   force =    -0.00399748   -0.01844640    0.00628434
     atom    2 type  1   force =     0.00271542    0.00171723   -0.00718242
     atom    3 type  1   force =    -0.01273193   -0.00524687   -0.01514083
     atom    4 type  1   force =    -0.00207169   -0.00575386   -0.01248797
     atom    5 type  1   force =    -0.01005112    0.01526096   -0.01482155
     atom    6 type  1   force =     0.01298053   -0.00259171    0.00096010
     atom    7 type  1   force =     0.00669507    0.00366750    0.00656281
     atom    8 type  1   force =    -0.02269564   -0.01888598    0.01008420
     atom    9 type  2   force =    -0.00493310    0.00445907    0.01127538
     atom   10 type  2   force =    -0.02623857    0.02736249   -0.00803549
     atom   11 type  2   force =    -0.00738969    0.00287681    0.00419464
     atom   12 type  2   force =     0.00081877   -0.00597145   -0.00271368
     atom   13 type  2   force =    -0.00884799   -0.00321424    0.00501513
     atom   14 type  2   force =    -0.00395423    0.00035798    0.00193141
     atom   15 type  2   force =     0.01306975    0.00422920   -0.00860074
     atom   16 type  2   force =     0.01091534    0.00407095    0.00622156
     atom   17 type  2   force =     0.01625916   -0.00900259   -0.00114336
     atom   18 type  2   force =     0.00447940    0.01025664    0.00210559
     atom   19 type  2   force =     0.00114633    0.00675499   -0.00503727
     atom   20 type  2   force =     0.03184303   -0.01018505    0.02712837
     atom   21 type  2   force =     0.00617921   -0.00398401    0.00116714
     atom   22 type  2   force =    -0.00736590   -0.00044922   -0.00206353
     atom   23 type  2   force =    -0.00386612    0.00288728   -0.00490798
     atom   24 type  2   force =     0.00704144   -0.00016970   -0.00079585

     Total force =     0.088635     Total SCF correction =     0.002653

     General routines

     Parallel routines

   This run was terminated on:  11:13: 1   8Sep2021

   JOB DONE.