     Program PWSCF v.6.4 starts on  3Sep2021 at 12: 6:45

     R & G space division:  proc/nbgrp/npool/nimage =      40
     Waiting for input...
     Reading input from standard input
Warning: card    &IONS ignored
Warning: card      ION_DYNAMICS = 'BFGS' ignored
Warning: card   / ignored
Warning: card    &CELL ignored
Warning: card      CELL_DYNAMICS = 'BFGS', ignored
Warning: card    / ignored

     Current dimensions of program PWSCF are:
     Max number of different atomic species (ntypx) = 10
     Max number of k-points (npk) =  40000
     Max angular momentum in pseudopotentials (lmaxx) =  3

     bravais-lattice index     =            0
     lattice parameter (alat)  =      13.8353  a.u.
     unit-cell volume          =    2526.9111 (a.u.)^3
     number of atoms/cell      =           15
     number of atomic types    =            2
     number of electrons       =        90.00
     number of Kohn-Sham states=           54
     kinetic-energy cutoff     =      45.0000  Ry
     charge density cutoff     =     360.0000  Ry
     convergence threshold     =      1.0E-06
     mixing beta               =       0.7000
     number of iterations used =            8  local-TF  mixing
     Exchange-correlation      = SLA PW GGX GGC ( 1  4  2  2 0 0)

     celldm(1)=  13.835307  celldm(2)=   0.000000  celldm(3)=   0.000000
     celldm(4)=   0.000000  celldm(5)=   0.000000  celldm(6)=   0.000000

     crystal axes: (cart. coord. in units of alat)
               a(1) = (   0.990478   0.119990   0.067489 )
               a(2) = (  -0.101025   0.766437   0.056737 )
               a(3) = (  -0.061219  -0.166024   1.220018 )

     reciprocal axes: (cart. coord. in units 2 pi/alat)
               b(1) = (  0.989857  0.125533  0.066753 )
               b(2) = ( -0.165166  1.270779  0.164643 )
               b(3) = ( -0.047076 -0.066042  0.808311 )

     PseudoPot. # 1 for Mo read from file:
     ~/pseudo/Mo.pw91-n-van.UPF
     MD5 check sum: Not computed, couldn't open file
     Pseudo is Ultrasoft + core correction, Zval =  6.0
     Generated by new atomic code, or converted to UPF format
     Using radial grid of  965 points,  3 beta functions with:
                l(1) =   1
                l(2) =   2
                l(3) =   2
     Q(r) pseudized with  8 coefficients,  rinner =    1.000   1.000   1.000
                                                       1.200   1.200

     PseudoPot. # 2 for S  read from file:
     ~/pseudo/S.pw91-van_ak.UPF
     MD5 check sum: Not computed, couldn't open file
     Pseudo is Ultrasoft, Zval =  6.0
     Generated by new atomic code, or converted to UPF format
     Using radial grid of  811 points,  6 beta functions with:
                l(1) =   0
                l(2) =   0
                l(3) =   1
                l(4) =   1
                l(5) =   2
                l(6) =   2
     Q(r) pseudized with  8 coefficients,  rinner =    1.100   1.100   1.100
                                                       1.100   1.100

     atomic species   valence    mass     pseudopotential
        Mo             6.00    95.50000     Mo( 1.00)
        S              6.00    32.06500     S ( 1.00)

     No symmetry found

   Cartesian axes

     site n.     atom                  positions (alat units)
         1           Mo  tau(   1) = (   0.3890665   0.2377979   1.3474354  )
         2           Mo  tau(   2) = (   0.4130023   0.5085921   0.4890056  )
         3           Mo  tau(   3) = (   0.3960072   0.7821377   0.2156733  )
         4           Mo  tau(   4) = (   0.6660225   0.6741520   1.0200529  )
         5           Mo  tau(   5) = (   0.1593286  -0.1659731   0.9215142  )
         6           S   tau(   6) = (   0.4575716   0.1984791   0.4249936  )
         7           S   tau(   7) = (  -0.1127849   0.3538126   1.0741373  )
         8           S   tau(   8) = (   0.1672365   0.5075948   0.7047337  )
         9           S   tau(   9) = (   0.6652150   0.6005365   0.2916188  )
        10           S   tau(  10) = (   0.3729894   0.4802342   1.1197478  )
        11           S   tau(  11) = (   0.6199051   0.5629013   0.7357343  )
        12           S   tau(  12) = (   0.6528998   0.0715092   1.2213781  )
        13           S   tau(  13) = (   0.1736250   0.5372913   0.2594779  )
        14           S   tau(  14) = (  -0.0538912   0.0449060   0.8164264  )
        15           S   tau(  15) = (   0.2537215   0.1791983  -0.0272464  )

     number of k points=    10  Marzari-Vanderbilt smearing, width (Ry)=  0.0200
                       cart. coord. in units 2pi/alat
        k(    1) = (   0.0000000   0.0000000   0.0000000), wk =   0.1111111
        k(    2) = (   0.0235380   0.0330208  -0.4041553), wk =   0.1111111
        k(    3) = (  -0.0550552   0.4235931   0.0548811), wk =   0.2222222
        k(    4) = (  -0.0315172   0.4566139  -0.3492741), wk =   0.2222222
        k(    5) = (   0.3299524   0.0418443   0.0222510), wk =   0.2222222
        k(    6) = (   0.3534903   0.0748651  -0.3819043), wk =   0.2222222
        k(    7) = (   0.2748972   0.4654374   0.0771321), wk =   0.2222222
        k(    8) = (   0.2984351   0.4984582  -0.3270231), wk =   0.2222222
        k(    9) = (   0.3850076  -0.3817488  -0.0326302), wk =   0.2222222
        k(   10) = (   0.4085455  -0.3487280  -0.4367854), wk =   0.2222222

     Initial potential from superposition of free atoms

     starting charge   89.99211, renormalised to   90.00000
     Starting wfcs are   85 randomized atomic wfcs

     Self-consistent Calculation

     iteration #  1     ecut=    45.00 Ry     beta= 0.70
     Davidson diagonalization with overlap
     ethr =  1.00E-02,  avg # of iterations =  2.1

     total energy              =    -351.15549619 Ry
     Harris-Foulkes estimate   =    -352.40373264 Ry
     estimated scf accuracy    <       3.19250772 Ry

[...]

     total energy              =    -351.79958902 Ry
     Harris-Foulkes estimate   =    -351.79958984 Ry
     estimated scf accuracy    <       0.00000482 Ry

     iteration # 11     ecut=    45.00 Ry     beta= 0.70
     Davidson diagonalization with overlap
     ethr =  5.35E-09,  avg # of iterations =  4.1

     End of self-consistent calculation

          k = 0.0000 0.0000 0.0000 ( 12903 PWs)   bands (ev):

    -9.2108  -8.3841  -8.0875  -8.0705  -8.0113  -7.9014  -7.8734  -7.6459
    -7.5279  -7.4997  -1.0896  -0.7890  -0.7470  -0.7035  -0.1472  -0.0727
     0.0387   0.2471   0.4479   0.4847   0.6291   0.6578   0.9912   1.1060
     1.2147   1.2550   1.3268   1.4208   1.6197   1.8791   1.9388   2.0903
     2.1430   2.1800   2.3600   2.6938   2.9478   2.9884   3.2288   3.4477
     3.4553   3.7668   4.0310   4.2532   4.2938   4.8666   5.0414   5.2661
     5.6100   5.6372   5.8899   6.2630   6.2675   6.3747

[...]

          k =-0.0551 0.4236 0.0549 ( 12898 PWs)   bands (ev):

[...]

          k =-0.0315 0.4566-0.3493 ( 12879 PWs)   bands (ev):

[...]

          k = 0.4085-0.3487-0.4368 ( 12884 PWs)   bands (ev):

    -8.7834  -8.4140  -8.3071  -8.1691  -8.0767  -7.8972  -7.8362  -7.6324
    -7.5826  -7.5364  -0.7936  -0.6322  -0.5593  -0.4360  -0.3407  -0.0583
     0.0254   0.1349   0.2757   0.3977   0.4278   0.6009   0.7737   0.8816
     1.0305   1.2237   1.3070   1.3450   1.6107   1.6338   1.7848   2.0115
     2.2328   2.3433   2.4412   2.6443   2.7353   3.1201   3.3042   3.5870
     3.6536   3.9262   4.0964   4.4313   4.7379   4.8377   5.1364   5.3256
     5.4919   5.7708   5.9300   6.0305   6.2137   6.4398

     the Fermi energy is     4.7308 ev

!    total energy              =    -351.79958995 Ry
     Harris-Foulkes estimate   =    -351.79959026 Ry
     estimated scf accuracy    <       0.00000044 Ry

     The total energy is the sum of the following terms:

     one-electron contribution =     -77.33829455 Ry
     hartree contribution      =      83.43779039 Ry
     xc contribution           =    -138.76346062 Ry
     ewald contribution        =    -219.13177830 Ry
     smearing contrib. (-TS)   =      -0.00384686 Ry

     convergence has been achieved in  11 iterations

     Forces acting on atoms (cartesian axes, Ry/au):

     atom    1 type  1   force =    -0.00064234    0.00037875    0.00013252
     atom    2 type  1   force =     0.00019684   -0.00010382   -0.00064060
     atom    3 type  1   force =     0.00015748    0.00021498   -0.00127807
     atom    4 type  1   force =     0.00066197   -0.00059638    0.00026013
     atom    5 type  1   force =    -0.00028238    0.00024524    0.00165765
     atom    6 type  2   force =    -0.00042891    0.00071072    0.00034523
     atom    7 type  2   force =    -0.00142122    0.00030981    0.00046480
     atom    8 type  2   force =     0.00093109   -0.00054229   -0.00050255
     atom    9 type  2   force =    -0.00014260   -0.00046713    0.00069050
     atom   10 type  2   force =    -0.00002297    0.00000058   -0.00021318
     atom   11 type  2   force =     0.00041013    0.00003187    0.00059862
     atom   12 type  2   force =     0.00033127   -0.00015033    0.00030408
     atom   13 type  2   force =     0.00062534    0.00011065   -0.00039338
     atom   14 type  2   force =    -0.00020991   -0.00050086   -0.00034762
     atom   15 type  2   force =    -0.00016378    0.00035820   -0.00107812

     Total force =     0.003853     Total SCF correction =     0.001080
     SCF correction compared to forces is large: reduce conv_thr to get better values

     General routines

     Parallel routines

   This run was terminated on:  12: 7:12   3Sep2021

   JOB DONE.