     Program PWSCF v.6.4 starts on  8Sep2021 at 11:31: 9

     R & G space division:  proc/nbgrp/npool/nimage =      40
     Waiting for input...
     Reading input from standard input
Warning: card    &IONS ignored
Warning: card      ION_DYNAMICS = 'BFGS' ignored
Warning: card   / ignored
Warning: card    &CELL ignored
Warning: card      CELL_DYNAMICS = 'BFGS', ignored
Warning: card    / ignored

     Current dimensions of program PWSCF are:
     Max number of different atomic species (ntypx) = 10
     Max number of k-points (npk) =  40000
     Max angular momentum in pseudopotentials (lmaxx) =  3

     bravais-lattice index     =            0
     lattice parameter (alat)  =      12.4899  a.u.
     unit-cell volume          =    3315.4241 (a.u.)^3
     number of atoms/cell      =           24
     number of atomic types    =            2
     number of electrons       =       144.00
     number of Kohn-Sham states=           86
     kinetic-energy cutoff     =      45.0000  Ry
     charge density cutoff     =     360.0000  Ry
     convergence threshold     =      1.0E-06
     mixing beta               =       0.7000
     number of iterations used =            8  local-TF  mixing
     Exchange-correlation      = SLA PW GGX GGC ( 1  4  2  2 0 0)

     celldm(1)=  12.489859  celldm(2)=   0.000000  celldm(3)=   0.000000
     celldm(4)=   0.000000  celldm(5)=   0.000000  celldm(6)=   0.000000

     crystal axes: (cart. coord. in units of alat)
               a(1) = (   0.999682   0.024158  -0.007175 )
               a(2) = (  -0.246283   0.421741  -0.007160 )
               a(3) = (  -0.479446  -1.081203   4.005669 )

     reciprocal axes: (cart. coord. in units 2 pi/alat)
               b(1) = (  0.988235  0.581769  0.275314 )
               b(2) = ( -0.052310  2.351243  0.628382 )
               b(3) = (  0.001677  0.005245  0.251263 )

     PseudoPot. # 1 for Mo read from file:
     ~/pseudo/Mo.pw91-n-van.UPF
     MD5 check sum: Not computed, couldn't open file
     Pseudo is Ultrasoft + core correction, Zval =  6.0
     Generated by new atomic code, or converted to UPF format
     Using radial grid of  965 points,  3 beta functions with:
                l(1) =   1
                l(2) =   2
                l(3) =   2
     Q(r) pseudized with  8 coefficients,  rinner =    1.000   1.000   1.000
                                                       1.200   1.200

     PseudoPot. # 2 for S  read from file:
     ~/pseudo/S.pw91-van_ak.UPF
     MD5 check sum: Not computed, couldn't open file
     Pseudo is Ultrasoft, Zval =  6.0
     Generated by new atomic code, or converted to UPF format
     Using radial grid of  811 points,  6 beta functions with:
                l(1) =   0
                l(2) =   0
                l(3) =   1
                l(4) =   1
                l(5) =   2
                l(6) =   2
     Q(r) pseudized with  8 coefficients,  rinner =    1.100   1.100   1.100
                                                       1.100   1.100

     atomic species   valence    mass     pseudopotential
        Mo             6.00    95.50000     Mo( 1.00)
        S              6.00    32.06500     S ( 1.00)

     No symmetry found

   Cartesian axes

     site n.     atom                  positions (alat units)
         1           Mo  tau(   1) = (  -0.0812198  -0.3510331   1.4528856  )
         2           Mo  tau(   2) = (  -0.4914287  -1.0111737   3.5283921  )
         3           Mo  tau(   3) = (   0.4959561  -0.2861212   1.4636513  )
         4           Mo  tau(   4) = (  -0.0622061  -1.0474660   3.5557955  )
         5           Mo  tau(   5) = (  -0.0953443  -0.0649571   0.5160668  )
         6           Mo  tau(   6) = (  -0.3388759  -0.6342644   2.4766972  )
         7           Mo  tau(   7) = (   0.3313995  -0.0990421   0.5241185  )
         8           Mo  tau(   8) = (   0.2263399  -0.5869115   2.4736852  )
         9           S   tau(   9) = (   0.2136982  -0.4569693   1.6692502  )
        10           S   tau(  10) = (  -0.2762419  -0.8864745   3.8026183  )
        11           S   tau(  11) = (   0.6949365  -0.4447987   1.7226795  )
        12           S   tau(  12) = (   0.2168111  -0.8791974   3.7354873  )
        13           S   tau(  13) = (  -0.1366526   0.1854750   0.2548689  )
        14           S   tau(  14) = (  -0.3091502  -0.3296309   2.2543662  )
        15           S   tau(  15) = (   0.3747635   0.2111084   0.3051785  )
        16           S   tau(  16) = (   0.1765584  -0.3333338   2.2145945  )
        17           S   tau(  17) = (   0.1269759   0.0728889   0.7756434  )
        18           S   tau(  18) = (  -0.5423360  -0.4537789   2.7288595  )
        19           S   tau(  19) = (   0.6233307   0.0747646   0.7291198  )
        20           S   tau(  20) = (  -0.0515535  -0.4754739   2.6879309  )
        21           S   tau(  21) = (   0.2030702  -0.1816631   1.2539931  )
        22           S   tau(  22) = (  -0.0257806  -0.7403909   3.3331600  )
        23           S   tau(  23) = (   0.7206349  -0.1669620   1.1864914  )
        24           S   tau(  24) = (   0.4712667  -0.7312646   3.2661622  )

     number of k points=    10  Marzari-Vanderbilt smearing, width (Ry)=  0.0200
                       cart. coord. in units 2pi/alat
        k(    1) = (   0.0000000   0.0000000   0.0000000), wk =   0.1111111
        k(    2) = (  -0.0087183   0.3918738   0.1047304), wk =   0.2222222
        k(    3) = (  -0.0174367   0.7837475   0.2094608), wk =   0.2222222
        k(    4) = (   0.0261550  -1.1756213  -0.3141911), wk =   0.1111111
        k(    5) = (   0.3294116   0.1939231   0.0917713), wk =   0.2222222
        k(    6) = (   0.3206932   0.5857969   0.1965016), wk =   0.2222222
        k(    7) = (   0.3119749   0.9776707   0.3012320), wk =   0.2222222
        k(    8) = (   0.3555666  -0.9816982  -0.2224199), wk =   0.2222222
        k(    9) = (   0.3468482  -0.5898244  -0.1176895), wk =   0.2222222
        k(   10) = (   0.3381299  -0.1979506  -0.0129591), wk =   0.2222222

     Initial potential from superposition of free atoms

     starting charge  143.98738, renormalised to  144.00000
     Starting wfcs are  136 randomized atomic wfcs

     Self-consistent Calculation

     iteration #  1     ecut=    45.00 Ry     beta= 0.70
     Davidson diagonalization with overlap
     ethr =  1.00E-02,  avg # of iterations =  2.0

     total energy              =    -562.34401902 Ry
     Harris-Foulkes estimate   =    -564.27261345 Ry
     estimated scf accuracy    <       5.08035933 Ry

[...]

     iteration #  7     ecut=    45.00 Ry     beta= 0.70
     Davidson diagonalization with overlap
     c_bands:  1 eigenvalues not converged
     ethr =  9.23E-07,  avg # of iterations = 10.1

[...]

     total energy              =    -563.34679293 Ry
     Harris-Foulkes estimate   =    -563.34679303 Ry
     estimated scf accuracy    <       0.00000101 Ry

     iteration # 14     ecut=    45.00 Ry     beta= 0.70
     Davidson diagonalization with overlap
     ethr =  6.99E-10,  avg # of iterations =  3.3

     End of self-consistent calculation

          k = 0.0000 0.0000 0.0000 ( 17007 PWs)   bands (ev):

    -7.4324  -7.3800  -7.3436  -7.2612  -6.4987  -6.4198  -6.3702  -6.3172
    -5.8061  -5.7361  -5.6833  -5.6465  -5.5845  -5.5724  -5.4942  -5.4747
     0.6874   0.7149   0.7878   0.8362   0.9440   1.1756   1.3113   1.6158
     1.9450   2.0385   2.0743   2.1662   2.2095   2.3070   2.3654   2.3949
     3.1728   3.2154   3.2481   3.2732   3.2843   3.3715   3.3788   3.3914
     3.6504   3.7011   3.7517   3.8909   4.0599   4.1028   4.2741   4.3728
     4.5437   4.6866   4.7941   5.0914   5.3098   5.3905   5.3977   5.4094
     5.4862   5.5260   5.5511   5.6220   5.9088   6.1409   6.2612   6.2953
     6.4283   6.4323   6.4621   6.4971   6.5186   6.5324   6.5915   6.6644
     6.7804   6.8393   6.8511   6.9248   7.0639   7.0819   7.2833   7.2984
     8.3250   8.3798   8.4296   8.4751   8.5295   8.5978

          k =-0.0087 0.3919 0.1047 ( 16940 PWs)   bands (ev):

[...]

          k =-0.0174 0.7837 0.2095 ( 16874 PWs)   bands (ev):

[...]

          k = 0.3381-0.1980-0.0130 ( 16930 PWs)   bands (ev):

    -7.0619  -7.0100  -6.9709  -6.8951  -6.3585  -6.3001  -6.2469  -6.2016
    -5.7374  -5.7092  -5.6727  -5.6204  -5.5889  -5.5256  -5.4931  -5.4789
     1.1903   1.2223   1.2379   1.2532   1.5050   1.5939   1.6432   1.7285
     1.7931   1.8425   1.8780   2.0321   2.3369   2.4307   2.4797   2.5302
     2.8908   2.9577   3.0192   3.0847   3.1421   3.2368   3.3466   3.4526
     3.5173   3.5787   3.6182   3.6617   3.9126   3.9288   4.0010   4.0498
     4.0960   4.1785   4.2447   4.3190   4.5045   4.5314   4.5602   4.5854
     5.1819   5.2552   5.3778   5.4326   5.4773   5.5636   5.6447   5.8009
     5.8850   5.9553   6.0073   6.0358   6.1176   6.3012   6.4416   6.5085
     6.8384   6.8900   6.9713   6.9943   7.6259   7.6664   7.7227   7.7603
     8.5846   8.6774   8.7055   8.7411   8.7802   8.8239

     the Fermi energy is     6.6316 ev

!    total energy              =    -563.34679260 Ry
     Harris-Foulkes estimate   =    -563.34679305 Ry
     estimated scf accuracy    <       0.00000050 Ry

     The total energy is the sum of the following terms:

     one-electron contribution =     -44.00914704 Ry
     hartree contribution      =     104.81650419 Ry
     xc contribution           =    -222.40040631 Ry
     ewald contribution        =    -401.75990153 Ry
     smearing contrib. (-TS)   =       0.00615810 Ry

     convergence has been achieved in  14 iterations

     Forces acting on atoms (cartesian axes, Ry/au):

     atom    1 type  1   force =     0.00875848    0.00640533    0.00523936
     atom    2 type  1   force =     0.00508419   -0.00278971    0.01366572
     atom    3 type  1   force =    -0.00499621   -0.00465967    0.00361148
     atom    4 type  1   force =    -0.02366977   -0.01145120   -0.01892574
     atom    5 type  1   force =     0.00255110   -0.00109367   -0.00696812
     atom    6 type  1   force =    -0.02732293   -0.01031662    0.00612318
     atom    7 type  1   force =     0.00370900    0.00353486    0.01166962
     atom    8 type  1   force =     0.01935451    0.02402026   -0.00751799
     atom    9 type  2   force =    -0.00373536    0.00152471   -0.01411478
     atom   10 type  2   force =    -0.00768618    0.00251986    0.00459344
     atom   11 type  2   force =     0.01674518   -0.00215380   -0.00756152
     atom   12 type  2   force =     0.01312785    0.01193154   -0.00031725
     atom   13 type  2   force =     0.00486226    0.00598657    0.00133840
     atom   14 type  2   force =     0.00860003    0.00130103    0.01045389
     atom   15 type  2   force =    -0.00238416   -0.00434466    0.01117988
     atom   16 type  2   force =     0.01720727   -0.00198820   -0.01395877
     atom   17 type  2   force =     0.00140635   -0.00473015    0.00615929
     atom   18 type  2   force =    -0.00763047   -0.02581015    0.01621310
     atom   19 type  2   force =    -0.00763461   -0.00188310   -0.02547682
     atom   20 type  2   force =    -0.00964108    0.01453390   -0.00740095
     atom   21 type  2   force =    -0.00122737   -0.00063002    0.00498464
     atom   22 type  2   force =     0.00608126   -0.00048515   -0.00248096
     atom   23 type  2   force =    -0.01736189   -0.00039034    0.01058869
     atom   24 type  2   force =     0.00580255    0.00096837   -0.00109777

     Total force =     0.089894     Total SCF correction =     0.001872

     General routines

     Parallel routines

   This run was terminated on:  11:32:13   8Sep2021

   JOB DONE.