     Program PWSCF v.6.4 starts on 19Nov2021 at 21:29:46

     R & G space division:  proc/nbgrp/npool/nimage =      40
     Waiting for input...
     Reading input from standard input
Warning: card    &IONS ignored
Warning: card      ION_DYNAMICS = 'BFGS' ignored
Warning: card   / ignored
Warning: card    &CELL ignored
Warning: card      CELL_DYNAMICS = 'BFGS', ignored
Warning: card    / ignored

     Current dimensions of program PWSCF are:
     Max number of different atomic species (ntypx) = 10
     Max number of k-points (npk) =  40000
     Max angular momentum in pseudopotentials (lmaxx) =  3

     bravais-lattice index     =            0
     lattice parameter (alat)  =      11.7624  a.u.
     unit-cell volume          =    6530.1161 (a.u.)^3
     number of atoms/cell      =           36
     number of atomic types    =            2
     number of electrons       =       216.00
     number of Kohn-Sham states=          130
     kinetic-energy cutoff     =      45.0000  Ry
     charge density cutoff     =     360.0000  Ry
     convergence threshold     =      1.0E-06
     mixing beta               =       0.7000
     number of iterations used =            8  local-TF  mixing
     Exchange-correlation      = SLA PW GGX GGC ( 1  4  2  2 0 0)

     celldm(1)=  11.762419  celldm(2)=   0.000000  celldm(3)=   0.000000
     celldm(4)=   0.000000  celldm(5)=   0.000000  celldm(6)=   0.000000

     crystal axes: (cart. coord. in units of alat)
               a(1) = (   1.000000   0.000000   0.000000 )
               a(2) = (  -0.095291   1.800298   0.000000 )
               a(3) = (  -0.127450  -0.269576   2.228879 )

     reciprocal axes: (cart. coord. in units 2 pi/alat)
               b(1) = (  1.000000  0.052931  0.063583 )
               b(2) = (  0.000000  0.555464  0.067182 )
               b(3) = (  0.000000  0.000000  0.448656 )

     PseudoPot. # 1 for Mo read from file:
     ~/pseudo/Mo.pw91-n-van.UPF
     MD5 check sum: Not computed, couldn't open file
     Pseudo is Ultrasoft + core correction, Zval =  6.0
     Generated by new atomic code, or converted to UPF format
     Using radial grid of  965 points,  3 beta functions with:
                l(1) =   1
                l(2) =   2
                l(3) =   2
     Q(r) pseudized with  8 coefficients,  rinner =    1.000   1.000   1.000
                                                       1.200   1.200

     PseudoPot. # 2 for S  read from file:
     ~/pseudo/S.pw91-van_ak.UPF
     MD5 check sum: Not computed, couldn't open file
     Pseudo is Ultrasoft, Zval =  6.0
     Generated by new atomic code, or converted to UPF format
     Using radial grid of  811 points,  6 beta functions with:
                l(1) =   0
                l(2) =   0
                l(3) =   1
                l(4) =   1
                l(5) =   2
                l(6) =   2
     Q(r) pseudized with  8 coefficients,  rinner =    1.100   1.100   1.100
                                                       1.100   1.100

     atomic species   valence    mass     pseudopotential
        Mo             6.00    95.50000     Mo( 1.00)
        S              6.00    32.06500     S ( 1.00)

     No symmetry found

   Cartesian axes

     site n.     atom                  positions (alat units)
         1           Mo  tau(   1) = (  -0.1050470   1.3972933   0.7060103  )
         2           Mo  tau(   2) = (   0.6682152   0.9479687   0.7020714  )
         3           Mo  tau(   3) = (   0.3944399   1.3978730   0.7062050  )
         4           Mo  tau(   4) = (   0.1671626   0.9490568   0.7007205  )
         5           Mo  tau(   5) = (   0.4420301   0.4999831   0.7040991  )
         6           Mo  tau(   6) = (  -0.0591980   0.5000094   0.7032067  )
         7           Mo  tau(   7) = (   0.2160661   0.0503581   0.7078470  )
         8           Mo  tau(   8) = (   0.7157827   0.0498680   0.7075451  )
         9           Mo  tau(   9) = (   0.2819336   1.4802668   1.9868348  )
        10           Mo  tau(  10) = (   0.7325085   1.4482579   1.9874023  )
        11           Mo  tau(  11) = (   0.5834423   0.3635801   1.8168191  )
        12           Mo  tau(  12) = (   0.0296958   0.3353223   1.8251919  )
        13           S   tau(  13) = (   0.6461137   1.2451876   0.4486826  )
        14           S   tau(  14) = (   0.8733086   1.6961898   0.4498472  )
        15           S   tau(  15) = (   0.1469807   1.2472595   0.4455490  )
        16           S   tau(  16) = (   0.3731318   1.6965886   0.4490625  )
        17           S   tau(  17) = (   0.8034397   0.3066527   1.5417637  )
        18           S   tau(  18) = (   0.3349096   0.0830190   1.8178826  )
        19           S   tau(  19) = (   0.6487449   1.2444110   0.9615412  )
        20           S   tau(  20) = (  -0.0300531  -0.1047784   0.9631981  )
        21           S   tau(  21) = (   0.1490132   1.2441611   0.9618375  )
        22           S   tau(  22) = (   0.4706797  -0.1041937   0.9636297  )
        23           S   tau(  23) = (   0.8028844   0.4127580   2.1013599  )
        24           S   tau(  24) = (   0.2968803   0.5948732   1.7833309  )
        25           S   tau(  25) = (   0.4195360   0.7943022   0.4440686  )
        26           S   tau(  26) = (   0.9195986   0.7940828   0.4412961  )
        27           S   tau(  27) = (   0.4209276   0.7965485   0.9590507  )
        28           S   tau(  28) = (  -0.0773203   0.7954091   0.9595950  )
        29           S   tau(  29) = (   0.1952400   0.3479461   0.9613430  )
        30           S   tau(  30) = (   0.6962385   0.3462080   0.9644122  )
        31           S   tau(  31) = (   0.4975862   1.2934592   1.7615779  )
        32           S   tau(  32) = (   0.0171978   1.2638240   2.1327676  )
        33           S   tau(  33) = (   0.1938216   0.3446123   0.4491383  )
        34           S   tau(  34) = (   0.6931394   0.3423456   0.4461799  )
        35           S   tau(  35) = (   0.7451892   0.0634360   0.0079202  )
        36           S   tau(  36) = (   0.0737669  -0.1031205   1.8522950  )

     number of k points=     8  Marzari-Vanderbilt smearing, width (Ry)=  0.0200
                       cart. coord. in units 2pi/alat
        k(    1) = (   0.0000000   0.0000000   0.0000000), wk =   0.1666667
        k(    2) = (   0.0000000   0.0000000  -0.2243280), wk =   0.1666667
        k(    3) = (   0.0000000  -0.2777318  -0.0335908), wk =   0.1666667
        k(    4) = (   0.0000000  -0.2777318  -0.2579188), wk =   0.1666667
        k(    5) = (   0.3333333   0.0176435   0.0211944), wk =   0.3333333
        k(    6) = (   0.3333333   0.0176435  -0.2031336), wk =   0.3333333
        k(    7) = (   0.3333333  -0.2600883  -0.0123964), wk =   0.3333333
        k(    8) = (   0.3333333  -0.2600883  -0.2367244), wk =   0.3333333

     Initial potential from superposition of free atoms

     starting charge  215.98107, renormalised to  216.00000
     Starting wfcs are  204 randomized atomic wfcs

     Self-consistent Calculation

     iteration #  1     ecut=    45.00 Ry     beta= 0.70
     Davidson diagonalization with overlap
     ethr =  1.00E-02,  avg # of iterations =  2.0

     total energy              =    -843.65631058 Ry
     Harris-Foulkes estimate   =    -846.06168879 Ry
     estimated scf accuracy    <       6.13353721 Ry

[...]

     iteration #  5     ecut=    45.00 Ry     beta= 0.70
     Davidson diagonalization with overlap
     c_bands:  1 eigenvalues not converged
     ethr =  2.57E-05,  avg # of iterations = 12.9

[...]

     total energy              =    -844.82400256 Ry
     Harris-Foulkes estimate   =    -844.82400292 Ry
     estimated scf accuracy    <       0.00000226 Ry

     iteration # 16     ecut=    45.00 Ry     beta= 0.70
     Davidson diagonalization with overlap
     ethr =  1.05E-09,  avg # of iterations =  3.4

     End of self-consistent calculation

          k = 0.0000 0.0000 0.0000 ( 33331 PWs)   bands (ev):

   -12.3293 -10.5644  -9.7930  -9.7795  -9.4385  -9.0894  -9.0588  -8.9246
    -8.8658  -8.7694  -8.7293  -8.6768  -8.6607  -8.6156  -8.5763  -8.5580
    -8.5363  -8.4987  -8.4249  -8.4115  -8.3585  -8.3127  -8.2846  -7.8707
    -2.8131  -2.2627  -2.2510  -2.1492  -2.1192  -2.0556  -1.6124  -1.6058
    -1.4174  -1.3869  -1.3817  -1.3747  -1.3725  -1.2850  -1.2571  -1.1472
    -0.8921  -0.5893  -0.5243  -0.5102  -0.4863  -0.3737  -0.3205  -0.2288
    -0.2183  -0.1685  -0.0812  -0.0675  -0.0058   0.0263   0.0319   0.0650
     0.0949   0.2082   0.2308   0.2771   0.3090   0.5471   0.6852   0.7492
     0.7670   0.7802   0.7876   0.8432   0.9140   1.0390   1.0925   1.1292
     1.4373   1.4520   1.4575   1.4778   1.4895   1.5950   1.7277   1.7742
     1.8544   1.8627   1.9538   2.0335   2.0874   2.1019   2.1208   2.1840
     2.2233   2.2998   2.3605   2.4813   2.5353   2.6545   2.6594   2.6852
     2.7211   2.9092   2.9807   2.9905   3.0043   3.0055   3.0877   3.3006
     3.4773   3.5652   3.7209   3.8587   4.1127   4.4479   4.8386   4.9232
     5.0488   5.4089   5.4635   5.5140   5.5539   5.5927   5.6438   5.6610
     5.7939   5.8064   5.8602   5.8884   5.9734   5.9815   6.0527   6.1151
     6.2470   6.2606

[...]

          k = 0.3333-0.2601-0.2367 ( 33268 PWs)   bands (ev):

   -12.3158 -10.0908 -10.0301  -9.3856  -9.2847  -9.2141  -9.1429  -8.9696
    -8.8875  -8.8616  -8.7978  -8.7583  -8.7048  -8.6702  -8.6541  -8.5946
    -8.5412  -8.5122  -8.5066  -8.4825  -8.4588  -8.4093  -8.3160  -7.8720
    -2.7622  -2.1123  -1.7041  -1.6063  -1.5857  -1.5775  -1.5289  -1.5238
    -1.5115  -1.4950  -1.4814  -1.4023  -1.1009  -0.9551  -0.9407  -0.6326
    -0.5282  -0.4615  -0.4262  -0.3728  -0.3202  -0.2805  -0.2358  -0.2023
    -0.1794  -0.1651  -0.0280  -0.0108   0.0385   0.0626   0.1230   0.1586
     0.2473   0.3133   0.3527   0.3940   0.4330   0.4471   0.4695   0.5179
     0.6171   0.6606   0.6849   0.7222   0.7499   0.8051   0.8935   0.9285
     0.9740   1.0073   1.1431   1.1896   1.3269   1.3793   1.3854   1.4547
     1.5096   1.5671   1.5833   1.6860   1.7568   1.7777   1.8384   1.9073
     1.9450   1.9807   2.0817   2.2820   2.3677   2.4174   2.5305   2.5450
     2.6959   2.8595   2.9614   3.0477   3.0993   3.1268   3.2477   3.3299
     3.4308   3.5161   4.0065   4.0735   4.4595   4.7110   4.9919   5.2627
     5.3251   5.4392   5.4641   5.4868   5.5082   5.5484   5.5681   5.5964
     5.6387   5.6726   5.6855   5.7529   5.7959   5.8129   5.8697   5.9460
     5.9706   6.0336

     the Fermi energy is     4.1862 ev

!    total energy              =    -844.82400223 Ry
     Harris-Foulkes estimate   =    -844.82400290 Ry
     estimated scf accuracy    <       0.00000076 Ry

     The total energy is the sum of the following terms:

     one-electron contribution =    -705.91244035 Ry
     hartree contribution      =     454.33918737 Ry
     xc contribution           =    -334.18507978 Ry
     ewald contribution        =    -259.06511283 Ry
     smearing contrib. (-TS)   =      -0.00055664 Ry

     convergence has been achieved in  16 iterations

     Forces acting on atoms (cartesian axes, Ry/au):

     atom    1 type  1   force =    -0.00797951    0.00289681   -0.00470176
     atom    2 type  1   force =    -0.00849407   -0.00669491    0.00002415
     atom    3 type  1   force =    -0.00821427    0.00210163   -0.00581466
     atom    4 type  1   force =    -0.00682970   -0.00646371    0.00122020
     atom    5 type  1   force =    -0.00669815   -0.01087729    0.00083403
     atom    6 type  1   force =    -0.00996575   -0.01008796    0.00001480
     atom    7 type  1   force =    -0.00855010   -0.01307323   -0.00641999
     atom    8 type  1   force =    -0.00653522   -0.00900012   -0.00655284
     atom    9 type  1   force =    -0.09120652    0.03967316   -0.00778022
     atom   10 type  1   force =     0.11063132    0.00836475   -0.00393617
     atom   11 type  1   force =    -0.11248668   -0.00518874    0.00666003
     atom   12 type  1   force =     0.10046986   -0.03064854    0.00641937
     atom   13 type  2   force =     0.00741503    0.00456344    0.00197357
     atom   14 type  2   force =     0.00661964    0.00052846    0.01414496
     atom   15 type  2   force =     0.00524470    0.00183450    0.01005663
     atom   16 type  2   force =     0.00446405    0.00070060    0.01414369
     atom   17 type  2   force =     0.01677216   -0.00371538   -0.06266348
     atom   18 type  2   force =     0.19887981    0.09081596   -0.00595464
     atom   19 type  2   force =     0.00208558   -0.00158194   -0.00327755
     atom   20 type  2   force =     0.00298635    0.00086689   -0.00343003
     atom   21 type  2   force =     0.00086840   -0.00080781   -0.00509394
     atom   22 type  2   force =    -0.00021589    0.00009496   -0.00367558
     atom   23 type  2   force =     0.01233498   -0.00432038    0.04032890
     atom   24 type  2   force =    -0.01130784    0.05303087   -0.00720193
     atom   25 type  2   force =     0.00792866    0.00412030    0.00819998
     atom   26 type  2   force =     0.00561289    0.00552290    0.01773256
     atom   27 type  2   force =     0.00327987    0.00377285   -0.00464891
     atom   28 type  2   force =     0.00053357    0.00495247   -0.00644972
     atom   29 type  2   force =     0.00247309    0.00420742   -0.00303418
     atom   30 type  2   force =     0.00059881    0.00742089   -0.01439536
     atom   31 type  2   force =    -0.01171609   -0.02602255   -0.05437052
     atom   32 type  2   force =     0.00726834   -0.05129053    0.02601536
     atom   33 type  2   force =     0.00669449    0.00439315    0.00169001
     atom   34 type  2   force =     0.00603162    0.01218612    0.01699363
     atom   35 type  2   force =    -0.01770793    0.03318538    0.03924190
     atom   36 type  2   force =    -0.20128550   -0.10546040    0.00370773

     Total force =     0.410017     Total SCF correction =     0.002082

     General routines

     Parallel routines

   This run was terminated on:  21:32:24  19Nov2021

   JOB DONE.