     Program PWSCF v.6.4 starts on 18Oct2021 at 15:31:23

     R & G space division:  proc/nbgrp/npool/nimage =      40
     Waiting for input...
     Reading input from standard input
Warning: card    &IONS ignored
Warning: card      ION_DYNAMICS = 'BFGS' ignored
Warning: card   / ignored
Warning: card    &CELL ignored
Warning: card      CELL_DYNAMICS = 'BFGS', ignored
Warning: card    / ignored

     Current dimensions of program PWSCF are:
     Max number of different atomic species (ntypx) = 10
     Max number of k-points (npk) =  40000
     Max angular momentum in pseudopotentials (lmaxx) =  3

     bravais-lattice index     =            0
     lattice parameter (alat)  =      11.9900  a.u.
     unit-cell volume          =    2153.8314 (a.u.)^3
     number of atoms/cell      =           12
     number of atomic types    =            2
     number of electrons       =        72.00
     number of Kohn-Sham states=           43
     kinetic-energy cutoff     =      45.0000  Ry
     charge density cutoff     =     360.0000  Ry
     convergence threshold     =      1.0E-06
     mixing beta               =       0.7000
     number of iterations used =            8  local-TF  mixing
     Exchange-correlation      = SLA PW GGX GGC ( 1  4  2  2 0 0)

     celldm(1)=  11.990026  celldm(2)=   0.000000  celldm(3)=   0.000000
     celldm(4)=   0.000000  celldm(5)=   0.000000  celldm(6)=   0.000000

     crystal axes: (cart. coord. in units of alat)
               a(1) = (   0.999717   0.023714   0.001773 )
               a(2) = (   0.498732   0.905782   0.004354 )
               a(3) = (   0.443498   0.353579   1.400288 )

     reciprocal axes: (cart. coord. in units 2 pi/alat)
               b(1) = (  1.013823 -0.557354 -0.180363 )
               b(2) = ( -0.026073  1.119694 -0.274470 )
               b(3) = ( -0.001203 -0.002776  0.715221 )

     PseudoPot. # 1 for Mo read from file:
     ~/pseudo/Mo.pw91-n-van.UPF
     MD5 check sum: Not computed, couldn't open file
     Pseudo is Ultrasoft + core correction, Zval =  6.0
     Generated by new atomic code, or converted to UPF format
     Using radial grid of  965 points,  3 beta functions with:
                l(1) =   1
                l(2) =   2
                l(3) =   2
     Q(r) pseudized with  8 coefficients,  rinner =    1.000   1.000   1.000
                                                       1.200   1.200

     PseudoPot. # 2 for S  read from file:
     ~/pseudo/S.pw91-van_ak.UPF
     MD5 check sum: Not computed, couldn't open file
     Pseudo is Ultrasoft, Zval =  6.0
     Generated by new atomic code, or converted to UPF format
     Using radial grid of  811 points,  6 beta functions with:
                l(1) =   0
                l(2) =   0
                l(3) =   1
                l(4) =   1
                l(5) =   2
                l(6) =   2
     Q(r) pseudized with  8 coefficients,  rinner =    1.100   1.100   1.100
                                                       1.100   1.100

     atomic species   valence    mass     pseudopotential
        Mo             6.00    95.50000     Mo( 1.00)
        S              6.00    32.06500     S ( 1.00)

     No symmetry found

   Cartesian axes

     site n.     atom                  positions (alat units)
         1           Mo  tau(   1) = (   1.0339879   1.1453274   1.3097292  )
         2           Mo  tau(   2) = (   1.6910225   0.8627725   1.3787110  )
         3           Mo  tau(   3) = (   0.7632715   0.4343509   0.0628712  )
         4           Mo  tau(   4) = (   1.0137760   0.9384531   0.0298655  )
         5           S   tau(   5) = (   0.1832465   0.1580526   0.1863825  )
         6           S   tau(   6) = (   0.4874212   0.6240315   0.2314349  )
         7           S   tau(   7) = (   1.0143797   0.6264816   0.2720223  )
         8           S   tau(   8) = (   0.6834521   0.1676006   0.3254521  )
         9           S   tau(   9) = (   0.7390062   0.5361548   1.1367899  )
        10           S   tau(  10) = (   0.8369778   0.9755359   1.0435474  )
        11           S   tau(  11) = (   1.3688331   0.9931611   1.1718494  )
        12           S   tau(  12) = (   1.2314977   0.5111113   1.1975338  )

     number of k points=    14  Marzari-Vanderbilt smearing, width (Ry)=  0.0200
                       cart. coord. in units 2pi/alat
        k(    1) = (   0.0000000   0.0000000   0.0000000), wk =   0.0833333
        k(    2) = (   0.0006015   0.0013880  -0.3576103), wk =   0.0833333
        k(    3) = (  -0.0086908   0.3732312  -0.0914899), wk =   0.1666667
        k(    4) = (  -0.0080894   0.3746192  -0.4491002), wk =   0.1666667
        k(    5) = (   0.2534558  -0.1393384  -0.0450908), wk =   0.1666667
        k(    6) = (   0.2540573  -0.1379504  -0.4027011), wk =   0.1666667
        k(    7) = (   0.2447650   0.2338928  -0.1365807), wk =   0.1666667
        k(    8) = (   0.2453665   0.2352808  -0.4941910), wk =   0.1666667
        k(    9) = (   0.2621467  -0.5125696   0.0463991), wk =   0.1666667
        k(   10) = (   0.2627481  -0.5111816  -0.3112112), wk =   0.1666667
        k(   11) = (  -0.5069117   0.2786768   0.0901816), wk =   0.0833333
        k(   12) = (  -0.5063102   0.2800649  -0.2674287), wk =   0.0833333
        k(   13) = (  -0.5156025   0.6519080  -0.0013083), wk =   0.1666667
        k(   14) = (  -0.5150011   0.6532961  -0.3589186), wk =   0.1666667

     Initial potential from superposition of free atoms

     starting charge   71.99369, renormalised to   72.00000
     Starting wfcs are   68 randomized atomic wfcs

     Self-consistent Calculation

     iteration #  1     ecut=    45.00 Ry     beta= 0.70
     Davidson diagonalization with overlap
     ethr =  1.00E-02,  avg # of iterations =  2.0

     total energy              =    -280.97900376 Ry
     Harris-Foulkes estimate   =    -281.96753648 Ry
     estimated scf accuracy    <       2.67293385 Ry

[...]

     total energy              =    -281.50165140 Ry
     Harris-Foulkes estimate   =    -281.50165205 Ry
     estimated scf accuracy    <       0.00000423 Ry

     iteration # 12     ecut=    45.00 Ry     beta= 0.70
     Davidson diagonalization with overlap
     ethr =  5.88E-09,  avg # of iterations =  1.0

     End of self-consistent calculation

          k = 0.0000 0.0000 0.0000 ( 10969 PWs)   bands (ev):

   -10.3935  -9.4100  -8.9708  -8.7303  -8.5811  -8.3284  -8.0855  -7.9582
    -2.2485  -1.9328  -1.6887  -1.5922  -1.2806  -1.1023  -0.7640  -0.5736
    -0.1913   0.0437   0.2954   0.4829   0.6793   0.9484   1.2376   1.2819
     1.5171   1.6850   1.8370   1.9464   1.9952   2.1344   2.3930   2.5494
     3.0967   3.3081   3.5547   3.7398   4.4646   4.6853   5.1530   5.4242
     5.6227   5.6825   5.8221

[...]

          k =-0.0087 0.3732-0.0915 ( 10991 PWs)   bands (ev):

[...]

          k = 0.2627-0.5112-0.3112 ( 10985 PWs)   bands (ev):

[...]

          k =-0.5150 0.6533-0.3589 ( 10990 PWs)   bands (ev):

    -9.8888  -9.4225  -9.1627  -8.9835  -8.8580  -8.3582  -8.1591  -7.9235
    -1.7642  -1.4649  -1.4322  -1.3050  -0.8938  -0.7396  -0.5680  -0.3924
    -0.1946  -0.0452   0.1045   0.2331   0.3942   0.6194   0.8615   1.1398
     1.1759   1.3339   1.4995   1.8720   2.1232   2.2994   2.5240   2.7528
     3.0534   3.1113   3.2445   3.6846   4.0769   4.4632   4.6868   5.3347
     5.5958   5.6533   5.8877

     the Fermi energy is     3.8578 ev

!    total energy              =    -281.50165075 Ry
     Harris-Foulkes estimate   =    -281.50165157 Ry
     estimated scf accuracy    <       0.00000090 Ry

     The total energy is the sum of the following terms:

     one-electron contribution =    -197.48354843 Ry
     hartree contribution      =     132.62266164 Ry
     xc contribution           =    -111.17062588 Ry
     ewald contribution        =    -105.47258347 Ry
     smearing contrib. (-TS)   =       0.00244540 Ry

     convergence has been achieved in  12 iterations

     Forces acting on atoms (cartesian axes, Ry/au):

     atom    1 type  1   force =     0.00565198    0.00447119   -0.00004277
     atom    2 type  1   force =    -0.00707143   -0.00403537   -0.00257853
     atom    3 type  1   force =     0.00387932   -0.00322125   -0.00171642
     atom    4 type  1   force =    -0.00620191   -0.00282202    0.00383027
     atom    5 type  2   force =     0.00022722   -0.00174671   -0.00952737
     atom    6 type  2   force =     0.00158351   -0.00163965    0.00017295
     atom    7 type  2   force =     0.00045937    0.00171234    0.00298971
     atom    8 type  2   force =     0.00270205    0.00500107    0.00476867
     atom    9 type  2   force =    -0.00284304    0.00253614   -0.00081808
     atom   10 type  2   force =     0.00394195    0.00290372   -0.00227992
     atom   11 type  2   force =     0.00100897    0.00099962    0.00202022
     atom   12 type  2   force =    -0.00333799   -0.00415907    0.00318129

     Total force =     0.021670     Total SCF correction =     0.002064

     General routines

     Parallel routines

   This run was terminated on:  15:31:49  18Oct2021

   JOB DONE.