     Program PWSCF v.6.4 starts on 12Aug2021 at 13:58:43

     R & G space division:  proc/nbgrp/npool/nimage =      40
     Waiting for input...
     Reading input from standard input
Warning: card    &IONS ignored
Warning: card      ION_DYNAMICS = 'BFGS' ignored
Warning: card   / ignored
Warning: card    &CELL ignored
Warning: card      CELL_DYNAMICS = 'BFGS', ignored
Warning: card    / ignored

     Current dimensions of program PWSCF are:
     Max number of different atomic species (ntypx) = 10
     Max number of k-points (npk) =  40000
     Max angular momentum in pseudopotentials (lmaxx) =  3

     bravais-lattice index     =            0
     lattice parameter (alat)  =      12.1840  a.u.
     unit-cell volume          =    3225.0842 (a.u.)^3
     number of atoms/cell      =           24
     number of atomic types    =            2
     number of electrons       =       144.00
     number of Kohn-Sham states=           86
     kinetic-energy cutoff     =      45.0000  Ry
     charge density cutoff     =     360.0000  Ry
     convergence threshold     =      1.0E-06
     mixing beta               =       0.7000
     number of iterations used =            8  local-TF  mixing
     Exchange-correlation      = SLA PW GGX GGC ( 1  4  2  2 0 0)

     celldm(1)=  12.184033  celldm(2)=   0.000000  celldm(3)=   0.000000
     celldm(4)=   0.000000  celldm(5)=   0.000000  celldm(6)=   0.000000

     crystal axes: (cart. coord. in units of alat)
               a(1) = (   0.999233  -0.002188  -0.039090 )
               a(2) = (  -0.499928   0.871488   0.039678 )
               a(3) = (  -0.139537  -0.079479   2.053764 )

     reciprocal axes: (cart. coord. in units 2 pi/alat)
               b(1) = (  1.005561  0.572720  0.090484 )
               b(2) = (  0.004263  1.147873  0.044711 )
               b(3) = (  0.019057 -0.011276  0.487769 )

     PseudoPot. # 1 for Mo read from file:
     ~/pseudo/Mo.pw91-n-van.UPF
     MD5 check sum: Not computed, couldn't open file
     Pseudo is Ultrasoft + core correction, Zval =  6.0
     Generated by new atomic code, or converted to UPF format
     Using radial grid of  965 points,  3 beta functions with:
                l(1) =   1
                l(2) =   2
                l(3) =   2
     Q(r) pseudized with  8 coefficients,  rinner =    1.000   1.000   1.000
                                                       1.200   1.200

     PseudoPot. # 2 for S  read from file:
     ~/pseudo/S.pw91-van_ak.UPF
     MD5 check sum: Not computed, couldn't open file
     Pseudo is Ultrasoft, Zval =  6.0
     Generated by new atomic code, or converted to UPF format
     Using radial grid of  811 points,  6 beta functions with:
                l(1) =   0
                l(2) =   0
                l(3) =   1
                l(4) =   1
                l(5) =   2
                l(6) =   2
     Q(r) pseudized with  8 coefficients,  rinner =    1.100   1.100   1.100
                                                       1.100   1.100

     atomic species   valence    mass     pseudopotential
        Mo             6.00    95.50000     Mo( 1.00)
        S              6.00    32.06500     S ( 1.00)

     No symmetry found

   Cartesian axes

     site n.     atom                  positions (alat units)
         1           Mo  tau(   1) = (  -0.0628974  -0.0362368   1.4803260  )
         2           Mo  tau(   2) = (  -0.3147799   0.3388296   1.5787077  )
         3           Mo  tau(   3) = (   0.4177666  -0.0598745   1.5237715  )
         4           Mo  tau(   4) = (   0.1813707   0.3603466   1.5750218  )
         5           Mo  tau(   5) = (  -0.0856039  -0.0084323   0.5112785  )
         6           Mo  tau(   6) = (  -0.3125611   0.4361250   0.5327154  )
         7           Mo  tau(   7) = (   0.4176704  -0.0078021   0.4862148  )
         8           Mo  tau(   8) = (   0.1834976   0.4233214   0.5051649  )
         9           S   tau(   9) = (   0.1483856   0.0442640   1.7717101  )
        10           S   tau(  10) = (  -0.0845793   0.4937828   1.8343071  )
        11           S   tau(  11) = (   0.7154502   0.0198124   1.7407493  )
        12           S   tau(  12) = (   0.4524535   0.4045273   1.8405865  )
        13           S   tau(  13) = (  -0.0687926   0.2646765   0.2681510  )
        14           S   tau(  14) = (  -0.3312971   0.7324627   0.2931670  )
        15           S   tau(  15) = (   0.4385291   0.2762383   0.2430520  )
        16           S   tau(  16) = (   0.1639875   0.7207921   0.2656549  )
        17           S   tau(  17) = (  -0.0649445   0.3008298   0.7652068  )
        18           S   tau(  18) = (  -0.3172039   0.7156889   0.7926929  )
        19           S   tau(  19) = (   0.4315778   0.2885119   0.7377813  )
        20           S   tau(  20) = (   0.1715594   0.7042950   0.7627793  )
        21           S   tau(  21) = (   0.2027357   0.1294129   1.2765105  )
        22           S   tau(  22) = (  -0.0566396   0.5124263   1.3343116  )
        23           S   tau(  23) = (   0.6573384   0.1017795   1.2318107  )
        24           S   tau(  24) = (   0.4236947   0.5068053   1.3144623  )

     number of k points=    10  Marzari-Vanderbilt smearing, width (Ry)=  0.0200
                       cart. coord. in units 2pi/alat
        k(    1) = (   0.0000000   0.0000000   0.0000000), wk =   0.1111111
        k(    2) = (  -0.0095285   0.0056378  -0.2438846), wk =   0.1111111
        k(    3) = (   0.0014209   0.3826242   0.0149038), wk =   0.2222222
        k(    4) = (  -0.0081076   0.3882620  -0.2289808), wk =   0.2222222
        k(    5) = (   0.3351871   0.1909066   0.0301613), wk =   0.2222222
        k(    6) = (   0.3256585   0.1965444  -0.2137234), wk =   0.2222222
        k(    7) = (   0.3366080   0.5735309   0.0450651), wk =   0.2222222
        k(    8) = (   0.3270795   0.5791686  -0.1988196), wk =   0.2222222
        k(    9) = (   0.3337662  -0.1917176   0.0152574), wk =   0.2222222
        k(   10) = (   0.3242376  -0.1860798  -0.2286272), wk =   0.2222222

     Initial potential from superposition of free atoms

     starting charge  143.98738, renormalised to  144.00000
     Starting wfcs are  136 randomized atomic wfcs

     Self-consistent Calculation

     iteration #  1     ecut=    45.00 Ry     beta= 0.70
     Davidson diagonalization with overlap
     ethr =  1.00E-02,  avg # of iterations =  2.0

     total energy              =    -562.40236811 Ry
     Harris-Foulkes estimate   =    -564.29687803 Ry
     estimated scf accuracy    <       4.97043089 Ry

[...]

     iteration #  6     ecut=    45.00 Ry     beta= 0.70
     Davidson diagonalization with overlap
     c_bands:  2 eigenvalues not converged
     ethr =  8.99E-06,  avg # of iterations =  5.1

[...]

     total energy              =    -563.37196868 Ry
     Harris-Foulkes estimate   =    -563.37196893 Ry
     estimated scf accuracy    <       0.00000135 Ry

     iteration # 16     ecut=    45.00 Ry     beta= 0.70
     Davidson diagonalization with overlap
     ethr =  9.37E-10,  avg # of iterations =  2.5

     End of self-consistent calculation

          k = 0.0000 0.0000 0.0000 ( 16395 PWs)   bands (ev):

    -7.2536  -7.0665  -6.3428  -5.9858  -5.5347  -5.4818  -5.4077  -5.3948
    -5.3669  -5.3573  -5.2825  -5.1629  -5.1400  -5.1248  -5.0938  -4.6992
     0.9541   1.1116   1.2241   1.2550   1.3000   1.3221   1.3453   1.7664
     1.9180   1.9895   2.0806   2.1621   2.2636   2.3644   2.7057   2.8267
     2.8678   2.9112   2.9864   3.2408   3.5639   3.7570   3.7847   3.8091
     3.8305   3.8748   3.9335   4.2321   4.3020   4.3967   4.4276   4.4700
     4.6476   4.6999   4.8793   5.0645   5.1494   5.2102   5.2955   5.3887
     5.4278   5.6361   5.8571   5.8829   5.9226   5.9538   6.0099   6.1254
     6.1424   6.1817   6.2885   6.3031   6.3956   6.5446   6.8889   7.0998
     7.4002   8.4312   8.5983   8.6887   8.7821   8.8025   8.8311   8.8894
     8.9690   9.1448   9.2476   9.2545   9.2854   9.3289

          k =-0.0095 0.0056-0.2439 ( 16404 PWs)   bands (ev):

[...]

          k =-0.0081 0.3883-0.2290 ( 16433 PWs)   bands (ev):

[...]

          k = 0.3242-0.1861-0.2286 ( 16431 PWs)   bands (ev):

    -6.9012  -6.7525  -6.2640  -5.9421  -5.9361  -5.8230  -5.6579  -5.5025
    -5.4063  -5.3751  -5.2798  -5.2481  -5.1373  -5.1015  -5.0720  -4.7462
     1.4828   1.5158   1.6778   1.7138   1.7317   1.7964   1.8319   1.8978
     1.9936   2.0984   2.1459   2.1905   2.6282   2.6854   2.7832   2.9148
     3.0529   3.1024   3.1592   3.2312   3.4597   3.5011   3.5535   3.6603
     3.7294   3.7890   3.8921   3.9936   4.0499   4.0966   4.3292   4.4661
     4.5351   4.6110   4.7145   4.7406   4.7980   4.9656   5.0316   5.0726
     5.1276   5.1666   5.2332   5.4200   5.5114   5.5787   5.6830   5.8523
     5.9902   6.1827   6.3117   6.3902   6.4028   6.5929   6.6566   6.8275
     7.6024   8.3082   8.3788   8.5773   8.7139   8.7388   8.7860   8.8342
     8.8778   8.9240   8.9702   9.1000   9.1594   9.1801

     the Fermi energy is     7.2091 ev

!    total energy              =    -563.37196853 Ry
     Harris-Foulkes estimate   =    -563.37196878 Ry
     estimated scf accuracy    <       0.00000029 Ry

     The total energy is the sum of the following terms:

     one-electron contribution =       1.25993531 Ry
     hartree contribution      =      84.13503337 Ry
     xc contribution           =    -222.36703015 Ry
     ewald contribution        =    -426.40713798 Ry
     smearing contrib. (-TS)   =       0.00723091 Ry

     convergence has been achieved in  16 iterations

     Forces acting on atoms (cartesian axes, Ry/au):

     atom    1 type  1   force =    -0.02310834   -0.08106225    0.03847841
     atom    2 type  1   force =    -0.01223714    0.04454186   -0.00818544
     atom    3 type  1   force =     0.03923770   -0.04300127   -0.00138882
     atom    4 type  1   force =     0.01368930    0.00291973    0.01603321
     atom    5 type  1   force =     0.04550403   -0.00944454    0.04579431
     atom    6 type  1   force =    -0.03782369   -0.01583337   -0.04161989
     atom    7 type  1   force =     0.04767183    0.00605968    0.04365355
     atom    8 type  1   force =    -0.02563208    0.01587054   -0.02898782
     atom    9 type  2   force =     0.04771899    0.01153016   -0.00150714
     atom   10 type  2   force =     0.03030952    0.01486274   -0.06073112
     atom   11 type  2   force =    -0.03107893    0.02279785   -0.01231279
     atom   12 type  2   force =    -0.00475662    0.04455771   -0.05004399
     atom   13 type  2   force =    -0.02237990    0.05963889    0.00982664
     atom   14 type  2   force =    -0.02918812   -0.02164429    0.00243548
     atom   15 type  2   force =    -0.02066154    0.03462838    0.02774864
     atom   16 type  2   force =    -0.00549684   -0.00550836    0.02524394
     atom   17 type  2   force =     0.01904755   -0.05701282   -0.01282467
     atom   18 type  2   force =    -0.01214693    0.01239159   -0.03629126
     atom   19 type  2   force =     0.03023874   -0.02946426   -0.00459218
     atom   20 type  2   force =     0.01106320    0.01515190   -0.02150324
     atom   21 type  2   force =    -0.03754318   -0.03240642    0.00976080
     atom   22 type  2   force =    -0.05181212    0.01224398    0.00846903
     atom   23 type  2   force =     0.01515333   -0.01533605    0.04887194
     atom   24 type  2   force =     0.01423123    0.01351864    0.00367242

     Total force =     0.258758     Total SCF correction =     0.001521

     General routines

     Parallel routines

   This run was terminated on:  14: 0: 0  12Aug2021

   JOB DONE.