     Program PWSCF v.6.4 starts on  3Sep2021 at 18:20:40

     R & G space division:  proc/nbgrp/npool/nimage =      40
     Waiting for input...
     Reading input from standard input
Warning: card    &IONS ignored
Warning: card      ION_DYNAMICS = 'BFGS' ignored
Warning: card   / ignored
Warning: card    &CELL ignored
Warning: card      CELL_DYNAMICS = 'BFGS', ignored
Warning: card    / ignored

     Current dimensions of program PWSCF are:
     Max number of different atomic species (ntypx) = 10
     Max number of k-points (npk) =  40000
     Max angular momentum in pseudopotentials (lmaxx) =  3

     bravais-lattice index     =            0
     lattice parameter (alat)  =      10.7273  a.u.
     unit-cell volume          =    2532.0585 (a.u.)^3
     number of atoms/cell      =           15
     number of atomic types    =            2
     number of electrons       =        90.00
     number of Kohn-Sham states=           54
     kinetic-energy cutoff     =      45.0000  Ry
     charge density cutoff     =     360.0000  Ry
     convergence threshold     =      1.0E-06
     mixing beta               =       0.7000
     number of iterations used =            8  local-TF  mixing
     Exchange-correlation      = SLA PW GGX GGC ( 1  4  2  2 0 0)

     celldm(1)=  10.727344  celldm(2)=   0.000000  celldm(3)=   0.000000
     celldm(4)=   0.000000  celldm(5)=   0.000000  celldm(6)=   0.000000

     crystal axes: (cart. coord. in units of alat)
               a(1) = (   0.999957   0.008704  -0.003132 )
               a(2) = (  -0.006736   1.292778  -0.014323 )
               a(3) = (  -0.075799   0.012579   1.586707 )

     reciprocal axes: (cart. coord. in units 2 pi/alat)
               b(1) = (  1.000142  0.005740  0.047733 )
               b(2) = ( -0.006753  0.773421 -0.006454 )
               b(3) = (  0.001913  0.006993  0.630272 )

     PseudoPot. # 1 for Mo read from file:
     ~/pseudo/Mo.pw91-n-van.UPF
     MD5 check sum: Not computed, couldn't open file
     Pseudo is Ultrasoft + core correction, Zval =  6.0
     Generated by new atomic code, or converted to UPF format
     Using radial grid of  965 points,  3 beta functions with:
                l(1) =   1
                l(2) =   2
                l(3) =   2
     Q(r) pseudized with  8 coefficients,  rinner =    1.000   1.000   1.000
                                                       1.200   1.200

     PseudoPot. # 2 for S  read from file:
     ~/pseudo/S.pw91-van_ak.UPF
     MD5 check sum: Not computed, couldn't open file
     Pseudo is Ultrasoft, Zval =  6.0
     Generated by new atomic code, or converted to UPF format
     Using radial grid of  811 points,  6 beta functions with:
                l(1) =   0
                l(2) =   0
                l(3) =   1
                l(4) =   1
                l(5) =   2
                l(6) =   2
     Q(r) pseudized with  8 coefficients,  rinner =    1.100   1.100   1.100
                                                       1.100   1.100

     atomic species   valence    mass     pseudopotential
        Mo             6.00    95.50000     Mo( 1.00)
        S              6.00    32.06500     S ( 1.00)

     No symmetry found

   Cartesian axes

     site n.     atom                  positions (alat units)
         1           Mo  tau(   1) = (   0.5334845   0.6293278  -0.1002788  )
         2           Mo  tau(   2) = (   0.2837336   0.6368172   1.0299558  )
         3           Mo  tau(   3) = (  -0.0431017   0.6360864   1.4087531  )
         4           Mo  tau(   4) = (   0.0588662   0.2323227   0.3910724  )
         5           Mo  tau(   5) = (   0.0538124   1.0264880   0.3833419  )
         6           S   tau(   6) = (   0.6925130   0.6403220   1.0801235  )
         7           S   tau(   7) = (   0.3290428   1.2745495   0.2153052  )
         8           S   tau(   8) = (   0.2186589   0.9276365   0.7316060  )
         9           S   tau(   9) = (   0.2319027   0.3185730   1.3128010  )
        10           S   tau(  10) = (   0.2438985   0.6291077   0.2144592  )
        11           S   tau(  11) = (   0.2243488   0.3393320   0.7366954  )
        12           S   tau(  12) = (   0.8054768   0.3330689   0.0636207  )
        13           S   tau(  13) = (   0.2244285   0.9577825   1.3077531  )
        14           S   tau(  14) = (   0.7600929   1.2858103   0.5186731  )
        15           S   tau(  15) = (   0.8008926   0.9322315   0.0592376  )

     number of k points=     8  Marzari-Vanderbilt smearing, width (Ry)=  0.0200
                       cart. coord. in units 2pi/alat
        k(    1) = (   0.0000000   0.0000000   0.0000000), wk =   0.1666667
        k(    2) = (  -0.0009567  -0.0034963  -0.3151360), wk =   0.1666667
        k(    3) = (   0.0033763  -0.3867106   0.0032271), wk =   0.1666667
        k(    4) = (   0.0024196  -0.3902070  -0.3119090), wk =   0.1666667
        k(    5) = (   0.3333808   0.0019134   0.0159110), wk =   0.3333333
        k(    6) = (   0.3324241  -0.0015830  -0.2992251), wk =   0.3333333
        k(    7) = (   0.3367571  -0.3847972   0.0191380), wk =   0.3333333
        k(    8) = (   0.3358004  -0.3882936  -0.2959980), wk =   0.3333333

     Initial potential from superposition of free atoms

     starting charge   89.99211, renormalised to   90.00000
     Starting wfcs are   85 randomized atomic wfcs

     Self-consistent Calculation

     iteration #  1     ecut=    45.00 Ry     beta= 0.70
     Davidson diagonalization with overlap
     ethr =  1.00E-02,  avg # of iterations =  2.1

     total energy              =    -351.15515798 Ry
     Harris-Foulkes estimate   =    -352.40351383 Ry
     estimated scf accuracy    <       3.19145110 Ry

[...]

     total energy              =    -351.79892354 Ry
     Harris-Foulkes estimate   =    -351.79892439 Ry
     estimated scf accuracy    <       0.00000459 Ry

     iteration # 11     ecut=    45.00 Ry     beta= 0.70
     Davidson diagonalization with overlap
     ethr =  5.10E-09,  avg # of iterations =  4.0

     End of self-consistent calculation

          k = 0.0000 0.0000 0.0000 ( 12929 PWs)   bands (ev):

    -9.2294  -8.3945  -8.1006  -8.0987  -8.0388  -7.9134  -7.8964  -7.6637
    -7.5516  -7.5224  -1.0980  -0.8070  -0.7581  -0.7188  -0.1676  -0.0937
     0.0202   0.2458   0.4276   0.4624   0.6154   0.6315   0.9725   1.0816
     1.2042   1.2386   1.3067   1.3960   1.5977   1.8529   1.9265   2.0741
     2.1077   2.1556   2.3345   2.6619   2.9299   2.9667   3.2061   3.4281
     3.4413   3.7467   4.0279   4.2264   4.2748   4.8386   5.0217   5.2514
     5.5869   5.6119   5.8656   6.2501   6.2573   6.3458

          k =-0.0010-0.0035-0.3151 ( 12934 PWs)   bands (ev):

[...]

          k = 0.3358-0.3883-0.2960 ( 12913 PWs)   bands (ev):

    -8.7713  -8.3910  -8.3869  -8.1846  -8.1315  -7.8991  -7.8593  -7.6489
    -7.6022  -7.5639  -0.7691  -0.6540  -0.5368  -0.4558  -0.3161  -0.0437
     0.0637   0.1102   0.1816   0.3959   0.4211   0.5473   0.7507   0.9323
     0.9727   1.1548   1.2491   1.2572   1.5644   1.6803   1.6982   1.9603
     2.2104   2.2946   2.4746   2.6083   2.6678   3.0994   3.2199   3.6357
     3.6478   3.9835   4.0624   4.4319   4.7267   4.8842   4.9913   5.3039
     5.4831   5.7722   5.7952   6.0504   6.2807   6.3368

     the Fermi energy is     4.7031 ev

!    total energy              =    -351.79892433 Ry
     Harris-Foulkes estimate   =    -351.79892471 Ry
     estimated scf accuracy    <       0.00000058 Ry

     The total energy is the sum of the following terms:

     one-electron contribution =     -77.91405895 Ry
     hartree contribution      =      83.65806248 Ry
     xc contribution           =    -138.75762695 Ry
     ewald contribution        =    -218.78225317 Ry
     smearing contrib. (-TS)   =      -0.00304775 Ry

     convergence has been achieved in  11 iterations

     Forces acting on atoms (cartesian axes, Ry/au):

     atom    1 type  1   force =     0.00059581   -0.00000825   -0.00030406
     atom    2 type  1   force =    -0.00043527   -0.00097108    0.00059989
     atom    3 type  1   force =     0.00061558   -0.00006865   -0.00011490
     atom    4 type  1   force =    -0.00054748    0.00028599   -0.00042627
     atom    5 type  1   force =    -0.00088342   -0.00037480   -0.00054910
     atom    6 type  2   force =     0.00007560    0.00036354    0.00019828
     atom    7 type  2   force =    -0.00086043    0.00055181    0.00052681
     atom    8 type  2   force =     0.00018143    0.00070577   -0.00026534
     atom    9 type  2   force =    -0.00094280   -0.00026797    0.00015809
     atom   10 type  2   force =     0.00064022   -0.00002588    0.00087477
     atom   11 type  2   force =     0.00020150   -0.00019218   -0.00001162
     atom   12 type  2   force =     0.00025238    0.00050290   -0.00012720
     atom   13 type  2   force =     0.00031697    0.00053453    0.00019593
     atom   14 type  2   force =     0.00080071   -0.00063521   -0.00033590
     atom   15 type  2   force =    -0.00001081   -0.00040052   -0.00041936

     Total force =     0.003273     Total SCF correction =     0.001130
     SCF correction compared to forces is large: reduce conv_thr to get better values

     General routines

     Parallel routines

   This run was terminated on:  18:21: 3   3Sep2021

   JOB DONE.