     Program PWSCF v.6.4 starts on 19Nov2021 at 17: 3:42

     R & G space division:  proc/nbgrp/npool/nimage =      40
     Waiting for input...
     Reading input from standard input
Warning: card    &IONS ignored
Warning: card      ION_DYNAMICS = 'BFGS' ignored
Warning: card   / ignored
Warning: card    &CELL ignored
Warning: card      CELL_DYNAMICS = 'BFGS', ignored
Warning: card    / ignored

     Current dimensions of program PWSCF are:
     Max number of different atomic species (ntypx) = 10
     Max number of k-points (npk) =  40000
     Max angular momentum in pseudopotentials (lmaxx) =  3

     bravais-lattice index     =            0
     lattice parameter (alat)  =      11.7684  a.u.
     unit-cell volume          =    6981.9165 (a.u.)^3
     number of atoms/cell      =           36
     number of atomic types    =            2
     number of electrons       =       216.00
     number of Kohn-Sham states=          130
     kinetic-energy cutoff     =      45.0000  Ry
     charge density cutoff     =     360.0000  Ry
     convergence threshold     =      1.0E-06
     mixing beta               =       0.7000
     number of iterations used =            8  local-TF  mixing
     Exchange-correlation      = SLA PW GGX GGC ( 1  4  2  2 0 0)

     celldm(1)=  11.768356  celldm(2)=   0.000000  celldm(3)=   0.000000
     celldm(4)=   0.000000  celldm(5)=   0.000000  celldm(6)=   0.000000

     crystal axes: (cart. coord. in units of alat)
               a(1) = (   1.000000   0.000000   0.000000 )
               a(2) = (  -0.003195   1.814113   0.000000 )
               a(3) = (  -0.017398  -0.684829   2.361364 )

     reciprocal axes: (cart. coord. in units 2 pi/alat)
               b(1) = (  1.000000  0.001761  0.007879 )
               b(2) = (  0.000000  0.551234  0.159866 )
               b(3) = (  0.000000  0.000000  0.423484 )

     PseudoPot. # 1 for Mo read from file:
     ~/pseudo/Mo.pw91-n-van.UPF
     MD5 check sum: Not computed, couldn't open file
     Pseudo is Ultrasoft + core correction, Zval =  6.0
     Generated by new atomic code, or converted to UPF format
     Using radial grid of  965 points,  3 beta functions with:
                l(1) =   1
                l(2) =   2
                l(3) =   2
     Q(r) pseudized with  8 coefficients,  rinner =    1.000   1.000   1.000
                                                       1.200   1.200

     PseudoPot. # 2 for S  read from file:
     ~/pseudo/S.pw91-van_ak.UPF
     MD5 check sum: Not computed, couldn't open file
     Pseudo is Ultrasoft, Zval =  6.0
     Generated by new atomic code, or converted to UPF format
     Using radial grid of  811 points,  6 beta functions with:
                l(1) =   0
                l(2) =   0
                l(3) =   1
                l(4) =   1
                l(5) =   2
                l(6) =   2
     Q(r) pseudized with  8 coefficients,  rinner =    1.100   1.100   1.100
                                                       1.100   1.100

     atomic species   valence    mass     pseudopotential
        Mo             6.00    95.50000     Mo( 1.00)
        S              6.00    32.06500     S ( 1.00)

     No symmetry found

   Cartesian axes

     site n.     atom                  positions (alat units)
         1           Mo  tau(   1) = (   0.5848991   0.6533717   0.7555519  )
         2           Mo  tau(   2) = (   0.8349241   1.1072270   0.7562294  )
         3           Mo  tau(   3) = (   0.0851624   0.6532300   0.7555274  )
         4           Mo  tau(   4) = (   0.3355491   1.1073650   0.7557202  )
         5           Mo  tau(   5) = (   0.0838251   1.5601288   0.7551969  )
         6           Mo  tau(   6) = (   0.5842147   1.5601148   0.7551561  )
         7           Mo  tau(   7) = (   0.3356697   0.1999666   0.7543737  )
         8           Mo  tau(   8) = (   0.8353202   0.1994920   0.7548082  )
         9           Mo  tau(   9) = (   0.2059866   1.2093824   1.9422921  )
        10           Mo  tau(  10) = (   0.7476405   1.2144314   1.9432931  )
        11           Mo  tau(  11) = (   0.1065261   0.3140787   2.0448396  )
        12           Mo  tau(  12) = (   0.6470543   0.3170263   2.0498701  )
        13           S   tau(  13) = (   0.8351512   0.8083649   0.5012907  )
        14           S   tau(  14) = (   0.5856091   0.3548162   0.4986288  )
        15           S   tau(  15) = (   0.3346753   0.8082572   0.4988330  )
        16           S   tau(  16) = (   0.0846114   0.3545907   0.4984526  )
        17           S   tau(  17) = (   0.8777922   0.0233434   1.9704463  )
        18           S   tau(  18) = (   0.3786841   0.3845971   1.7962348  )
        19           S   tau(  19) = (   0.8352911   0.8083572   1.0115302  )
        20           S   tau(  20) = (   0.5854791   0.3544431   1.0111163  )
        21           S   tau(  21) = (   0.3351062   0.8087408   1.0115820  )
        22           S   tau(  22) = (   0.0854603   0.3542608   1.0107736  )
        23           S   tau(  23) = (   0.8890687   0.6096623   2.1122666  )
        24           S   tau(  24) = (   0.3726248   0.2359737   2.2925013  )
        25           S   tau(  25) = (   0.0844992   1.2615189   0.5001116  )
        26           S   tau(  26) = (   0.5856172   1.2617582   0.4999605  )
        27           S   tau(  27) = (   0.0854068   1.2616548   1.0118980  )
        28           S   tau(  28) = (   0.5854678   1.2620117   1.0127578  )
        29           S   tau(  29) = (   0.3372980  -0.0982655   1.0104559  )
        30           S   tau(  30) = (   0.8371272  -0.0987708   1.0111789  )
        31           S   tau(  31) = (  -0.0195829  -0.3002770   1.9354482  )
        32           S   tau(  32) = (   0.4796425  -0.5830689   2.2006457  )
        33           S   tau(  33) = (   0.3365468  -0.0992575   0.4988502  )
        34           S   tau(  34) = (   0.8370839  -0.0991061   0.4985094  )
        35           S   tau(  35) = (   0.9649360   0.9072084   1.9679159  )
        36           S   tau(  36) = (   0.4791781   1.2017757   1.6829706  )

     number of k points=     4  Marzari-Vanderbilt smearing, width (Ry)=  0.0200
                       cart. coord. in units 2pi/alat
        k(    1) = (   0.0000000   0.0000000   0.0000000), wk =   0.3333333
        k(    2) = (   0.0000000  -0.2756168  -0.0799328), wk =   0.3333333
        k(    3) = (   0.3333333   0.0005871   0.0026262), wk =   0.6666667
        k(    4) = (   0.3333333  -0.2750298  -0.0773066), wk =   0.6666667

     Initial potential from superposition of free atoms

     starting charge  215.98107, renormalised to  216.00000
     Starting wfcs are  204 randomized atomic wfcs

     Self-consistent Calculation

     iteration #  1     ecut=    45.00 Ry     beta= 0.70
     Davidson diagonalization with overlap
     ethr =  1.00E-02,  avg # of iterations =  2.5

     total energy              =    -843.62241338 Ry
     Harris-Foulkes estimate   =    -846.06893917 Ry
     estimated scf accuracy    <       6.24888296 Ry

[...]

     iteration #  6     ecut=    45.00 Ry     beta= 0.70
     Davidson diagonalization with overlap
     c_bands:  2 eigenvalues not converged
     ethr =  1.47E-05,  avg # of iterations = 13.2

[...]

     iteration # 13     ecut=    45.00 Ry     beta= 0.70
     Davidson diagonalization with overlap
     c_bands:  1 eigenvalues not converged
     ethr =  2.31E-07,  avg # of iterations = 19.5

[...]

     total energy              =    -844.83739128 Ry
     Harris-Foulkes estimate   =    -844.83739409 Ry
     estimated scf accuracy    <       0.00001118 Ry

     iteration # 17     ecut=    45.00 Ry     beta= 0.70
     Davidson diagonalization with overlap
     ethr =  3.01E-09,  avg # of iterations =  3.0

     End of self-consistent calculation

          k = 0.0000 0.0000 0.0000 ( 35577 PWs)   bands (ev):

   -11.5931 -11.4377 -11.1600 -10.4075 -10.4044 -10.0009  -9.6626  -9.6588
    -9.4359  -9.3204  -9.2973  -9.2962  -9.2770  -9.2698  -9.2559  -9.1946
    -9.0492  -9.0402  -9.0272  -9.0238  -8.7956  -8.7861  -8.3775  -8.3494
    -3.1048  -2.9405  -2.8471  -2.7803  -2.7751  -2.6372  -2.2307  -2.2275
    -2.0084  -2.0077  -1.9937  -1.9900  -1.9178  -1.9132  -1.8185  -1.4313
    -1.1705  -1.1412  -1.1101  -1.0946  -0.9842  -0.9773  -0.8024  -0.7073
    -0.6962  -0.6797  -0.6749  -0.6690  -0.6293  -0.5898  -0.3993  -0.3978
    -0.3367  -0.3138  -0.1983  -0.1566  -0.1074  -0.0633   0.0374   0.1077
     0.1543   0.1567   0.1763   0.1895   0.2739   0.3285   0.5517   0.6544
     0.7832   0.8237   0.8295   0.8440   1.0256   1.0364   1.1316   1.1407
     1.2506   1.2630   1.3554   1.3670   1.4658   1.4690   1.4725   1.4849
     1.7224   1.8921   1.9114   1.9232   1.9919   2.0175   2.0539   2.2157
     2.2897   2.3045   2.3134   2.3203   2.3522   2.5084   2.7204   2.9081
     3.0600   3.1577   3.1982   3.2257   3.2443   3.9011   4.0668   4.6034
     4.8072   4.8530   4.9242   4.9652   4.9752   5.0006   5.0175   5.0255
     5.2059   5.2549   5.3207   5.3583   5.3685   5.3871   5.4232   5.4557
     5.4600   5.5504

[...]

          k = 0.3333-0.2750-0.0773 ( 35577 PWs)   bands (ev):

   -11.5744 -11.4454 -10.6682 -10.6618  -9.9507  -9.9441  -9.7535  -9.7475
    -9.5763  -9.5703  -9.3763  -9.3686  -9.2604  -9.2551  -9.2392  -9.2314
    -9.1919  -9.1885  -9.0294  -9.0226  -8.7854  -8.7767  -8.4132  -8.4044
    -2.9979  -2.9395  -2.2228  -2.2164  -2.1545  -2.1524  -2.1272  -2.1199
    -2.1169  -2.1106  -2.1026  -2.0950  -1.6253  -1.6166  -1.2110  -1.1665
    -1.0867  -1.0786  -0.9295  -0.9035  -0.8840  -0.8716  -0.8641  -0.8516
    -0.8444  -0.6559  -0.5467  -0.5167  -0.4680  -0.4584  -0.3088  -0.2757
    -0.2681  -0.2580  -0.2351  -0.2116  -0.1992  -0.1669  -0.0513  -0.0443
     0.0145   0.0318   0.0604   0.0639   0.2608   0.2946   0.5894   0.6395
     0.6631   0.6777   0.6818   0.6877   0.6968   0.7585   0.8655   0.8793
     0.9251   0.9795   1.0064   1.0281   1.2631   1.2668   1.3425   1.3861
     1.4094   1.4237   1.4375   1.4764   1.8341   1.8460   1.8553   1.9328
     1.9700   1.9756   2.3389   2.3481   2.4227   2.4316   2.6400   2.6435
     3.1096   3.2250   3.5566   3.6156   3.8152   4.0856   4.4608   4.5681
     4.7606   4.7888   4.8326   4.8415   4.9032   4.9116   4.9464   4.9727
     4.9786   4.9873   5.0087   5.2287   5.2355   5.2711   5.2792   5.3008
     5.3086   5.3222

     the Fermi energy is     3.6612 ev

!    total energy              =    -844.83739227 Ry
     Harris-Foulkes estimate   =    -844.83739260 Ry
     estimated scf accuracy    <       0.00000038 Ry

     The total energy is the sum of the following terms:

     one-electron contribution =    -759.42180389 Ry
     hartree contribution      =     476.30036419 Ry
     xc contribution           =    -333.67097226 Ry
     ewald contribution        =    -228.04563660 Ry
     smearing contrib. (-TS)   =       0.00065629 Ry

     convergence has been achieved in  17 iterations

     Forces acting on atoms (cartesian axes, Ry/au):

     atom    1 type  1   force =    -0.00035371    0.00557859    0.00064445
     atom    2 type  1   force =     0.00161037    0.00532897    0.00144298
     atom    3 type  1   force =     0.00222550    0.00603699    0.00101018
     atom    4 type  1   force =    -0.00066855    0.00341506    0.00027438
     atom    5 type  1   force =     0.00149936    0.00811076    0.00106275
     atom    6 type  1   force =     0.00042987    0.00787109    0.00057202
     atom    7 type  1   force =     0.00046332    0.00615393    0.00004688
     atom    8 type  1   force =     0.00208081    0.00684671   -0.00005281
     atom    9 type  1   force =     0.04751376   -0.00844753    0.00020337
     atom   10 type  1   force =    -0.06966279    0.00590188    0.00118114
     atom   11 type  1   force =     0.06831776   -0.02305926   -0.00956976
     atom   12 type  1   force =    -0.04164190   -0.00103846   -0.00526505
     atom   13 type  2   force =    -0.00073017   -0.00225945   -0.00125817
     atom   14 type  2   force =    -0.00070344   -0.00229638    0.00430240
     atom   15 type  2   force =     0.00055505   -0.00265196    0.00869071
     atom   16 type  2   force =     0.00138079   -0.00234902    0.00508226
     atom   17 type  2   force =    -0.03826084    0.14903739    0.01922693
     atom   18 type  2   force =    -0.00281200    0.01175574   -0.01360485
     atom   19 type  2   force =    -0.00078942   -0.00425215   -0.00265309
     atom   20 type  2   force =    -0.00055467   -0.00328933   -0.00421192
     atom   21 type  2   force =    -0.00021380   -0.00407141   -0.00399058
     atom   22 type  2   force =    -0.00006994   -0.00337372   -0.00358812
     atom   23 type  2   force =    -0.03612819   -0.11531488    0.04492192
     atom   24 type  2   force =     0.00152958    0.00065190    0.02105805
     atom   25 type  2   force =     0.00090181   -0.00339549    0.00207661
     atom   26 type  2   force =    -0.00142777   -0.00327457    0.00182876
     atom   27 type  2   force =    -0.00051543   -0.00182459   -0.00375850
     atom   28 type  2   force =    -0.00161965   -0.00218414   -0.00607096
     atom   29 type  2   force =    -0.00111959   -0.00394221   -0.00280985
     atom   30 type  2   force =    -0.00059798   -0.00334038   -0.00387259
     atom   31 type  2   force =     0.03591133   -0.14984701   -0.01325993
     atom   32 type  2   force =     0.00341674   -0.00448112    0.01945453
     atom   33 type  2   force =     0.00075763   -0.00338931    0.00408404
     atom   34 type  2   force =    -0.00094363   -0.00364843    0.00498427
     atom   35 type  2   force =     0.03091909    0.13802377   -0.05612064
     atom   36 type  2   force =    -0.00069931   -0.00298197   -0.01206180

     Total force =     0.322753     Total SCF correction =     0.001452

     General routines

     Parallel routines

   This run was terminated on:  17: 5:36  19Nov2021

   JOB DONE.