     Program PWSCF v.6.4 starts on 10Nov2021 at 17:59:58

     R & G space division:  proc/nbgrp/npool/nimage =      40
     Waiting for input...
     Reading input from standard input
Warning: card    &IONS ignored
Warning: card      ION_DYNAMICS = 'BFGS' ignored
Warning: card   / ignored
Warning: card    &CELL ignored
Warning: card      CELL_DYNAMICS = 'BFGS', ignored
Warning: card    / ignored

     Current dimensions of program PWSCF are:
     Max number of different atomic species (ntypx) = 10
     Max number of k-points (npk) =  40000
     Max angular momentum in pseudopotentials (lmaxx) =  3

     bravais-lattice index     =            0
     lattice parameter (alat)  =       6.1352  a.u.
     unit-cell volume          =    1247.1865 (a.u.)^3
     number of atoms/cell      =            9
     number of atomic types    =            2
     number of electrons       =        54.00
     number of Kohn-Sham states=           32
     kinetic-energy cutoff     =      45.0000  Ry
     charge density cutoff     =     360.0000  Ry
     convergence threshold     =      1.0E-06
     mixing beta               =       0.7000
     number of iterations used =            8  local-TF  mixing
     Exchange-correlation      = SLA PW GGX GGC ( 1  4  2  2 0 0)

     celldm(1)=   6.135200  celldm(2)=   0.000000  celldm(3)=   0.000000
     celldm(4)=   0.000000  celldm(5)=   0.000000  celldm(6)=   0.000000

     crystal axes: (cart. coord. in units of alat)
               a(1) = (   1.000000   0.000000   0.000000 )
               a(2) = (  -0.502069   0.855918   0.000000 )
               a(3) = (  -0.205746  -0.162243   6.309763 )

     reciprocal axes: (cart. coord. in units 2 pi/alat)
               b(1) = (  1.000000  0.586585  0.047690 )
               b(2) = (  0.000000  1.168336  0.030041 )
               b(3) = (  0.000000  0.000000  0.158485 )

     PseudoPot. # 1 for Mo read from file:
     ~/pseudo/Mo.pw91-n-van.UPF
     MD5 check sum: Not computed, couldn't open file
     Pseudo is Ultrasoft + core correction, Zval =  6.0
     Generated by new atomic code, or converted to UPF format
     Using radial grid of  965 points,  3 beta functions with:
                l(1) =   1
                l(2) =   2
                l(3) =   2
     Q(r) pseudized with  8 coefficients,  rinner =    1.000   1.000   1.000
                                                       1.200   1.200

     PseudoPot. # 2 for S  read from file:
     ~/pseudo/S.pw91-van_ak.UPF
     MD5 check sum: Not computed, couldn't open file
     Pseudo is Ultrasoft, Zval =  6.0
     Generated by new atomic code, or converted to UPF format
     Using radial grid of  811 points,  6 beta functions with:
                l(1) =   0
                l(2) =   0
                l(3) =   1
                l(4) =   1
                l(5) =   2
                l(6) =   2
     Q(r) pseudized with  8 coefficients,  rinner =    1.100   1.100   1.100
                                                       1.100   1.100

     atomic species   valence    mass     pseudopotential
        Mo             6.00    95.50000     Mo( 1.00)
        S              6.00    32.06500     S ( 1.00)

     No symmetry found

   Cartesian axes

     site n.     atom                  positions (alat units)
         1           Mo  tau(   1) = (   0.0811744   0.2672673   4.2048899  )
         2           Mo  tau(   2) = (   0.5204358   0.0922133   2.2879337  )
         3           Mo  tau(   3) = (   0.4874292   0.1652596   6.1305436  )
         4           S   tau(   4) = (  -0.0194783  -0.1191227   5.6418539  )
         5           S   tau(   5) = (   0.5890455  -0.0135860   4.6856512  )
         6           S   tau(   6) = (   0.5717318  -0.0131854   3.7246772  )
         7           S   tau(   7) = (  -0.4938304   0.6602453   2.7763513  )
         8           S   tau(   8) = (  -0.4695015   0.6735786   1.8091026  )
         9           S   tau(   9) = (   0.2002183   0.0501283   0.3007120  )

     number of k points=    20  Marzari-Vanderbilt smearing, width (Ry)=  0.0200
                       cart. coord. in units 2pi/alat
        k(    1) = (   0.0000000   0.0000000   0.0000000), wk =   0.0555556
        k(    2) = (   0.0000000   0.1947227   0.0050069), wk =   0.1111111
        k(    3) = (   0.0000000   0.3894454   0.0100138), wk =   0.1111111
        k(    4) = (   0.0000000  -0.5841681  -0.0150207), wk =   0.0555556
        k(    5) = (   0.1666667   0.0977642   0.0079484), wk =   0.1111111
        k(    6) = (   0.1666667   0.2924869   0.0129553), wk =   0.1111111
        k(    7) = (   0.1666667   0.4872096   0.0179622), wk =   0.1111111
        k(    8) = (   0.1666667  -0.4864038  -0.0070723), wk =   0.1111111
        k(    9) = (   0.1666667  -0.2916811  -0.0020654), wk =   0.1111111
        k(   10) = (   0.1666667  -0.0969585   0.0029415), wk =   0.1111111
        k(   11) = (   0.3333333   0.1955285   0.0158968), wk =   0.1111111
        k(   12) = (   0.3333333   0.3902512   0.0209037), wk =   0.1111111
        k(   13) = (   0.3333333   0.5849739   0.0259106), wk =   0.1111111
        k(   14) = (   0.3333333  -0.3886396   0.0008761), wk =   0.1111111
        k(   15) = (   0.3333333  -0.1939169   0.0058830), wk =   0.1111111
        k(   16) = (   0.3333333   0.0008058   0.0108899), wk =   0.1111111
        k(   17) = (  -0.5000000  -0.2932927  -0.0238452), wk =   0.0555556
        k(   18) = (  -0.5000000  -0.0985700  -0.0188383), wk =   0.1111111
        k(   19) = (  -0.5000000   0.0961527  -0.0138314), wk =   0.1111111
        k(   20) = (  -0.5000000  -0.8774608  -0.0388659), wk =   0.0555556

     Initial potential from superposition of free atoms

     starting charge   53.99527, renormalised to   54.00000
     Starting wfcs are   51 randomized atomic wfcs

     Self-consistent Calculation

     iteration #  1     ecut=    45.00 Ry     beta= 0.70
     Davidson diagonalization with overlap
     ethr =  1.00E-02,  avg # of iterations =  2.0

     total energy              =    -211.04734924 Ry
     Harris-Foulkes estimate   =    -211.70494391 Ry
     estimated scf accuracy    <       1.67915613 Ry

[...]

     total energy              =    -211.37708594 Ry
     Harris-Foulkes estimate   =    -211.37708933 Ry
     estimated scf accuracy    <       0.00001616 Ry

     iteration # 13     ecut=    45.00 Ry     beta= 0.70
     Davidson diagonalization with overlap
     ethr =  1.10E-08,  avg # of iterations =  2.5

     End of self-consistent calculation

          k = 0.0000 0.0000 0.0000 (  6423 PWs)   bands (ev):

    -7.7538  -7.6276  -7.5682  -6.5619  -6.4047  -6.2845   0.5016   0.8807
     1.1775   3.5990   3.6680   3.7004   3.7008   3.7738   3.8001   4.0604
     4.6208   4.6977   4.7743   4.7884   4.8724   4.9279   4.9510   5.5683
     6.1364   6.6647   6.9222   8.9230   8.9519   8.9896   9.0149   9.0189

[...]

          k = 0.3333 0.0008 0.0109 (  6365 PWs)   bands (ev):

[...]

          k =-0.5000-0.2933-0.0238 (  6312 PWs)   bands (ev):

[...]

          k =-0.5000-0.8775-0.0389 (  6320 PWs)   bands (ev):

    -6.0015  -5.9368  -5.9186  -5.7125  -5.6592  -5.6412   0.6556   0.7225
     0.7397   1.6322   1.6932   1.7227   2.3099   2.3630   2.4180   3.2282
     3.2997   3.3186   4.4216   4.5073   4.5902   5.3303   5.4295   5.4543
     5.6330   5.7026   5.7273   8.2965   8.3340   8.3464   8.8327   8.8574

     the Fermi energy is     7.1197 ev

!    total energy              =    -211.37708646 Ry
     Harris-Foulkes estimate   =    -211.37708731 Ry
     estimated scf accuracy    <       0.00000095 Ry

     The total energy is the sum of the following terms:

     one-electron contribution =     -69.75603234 Ry
     hartree contribution      =      65.78028599 Ry
     xc contribution           =     -83.57346907 Ry
     ewald contribution        =    -123.82811766 Ry
     smearing contrib. (-TS)   =       0.00024663 Ry

     convergence has been achieved in  13 iterations

     Forces acting on atoms (cartesian axes, Ry/au):

     atom    1 type  1   force =    -0.00341727    0.00940004    0.00133695
     atom    2 type  1   force =     0.00093295    0.00809734    0.01717391
     atom    3 type  1   force =     0.00045093    0.00805860   -0.01633749
     atom    4 type  2   force =     0.01054895   -0.00056913    0.01042219
     atom    5 type  2   force =    -0.01057831   -0.00345508    0.00639931
     atom    6 type  2   force =     0.01036421   -0.00424732   -0.00835675
     atom    7 type  2   force =     0.01476023    0.00318836   -0.00736018
     atom    8 type  2   force =    -0.01480556   -0.01179285   -0.01425950
     atom    9 type  2   force =    -0.00825614   -0.00867996    0.01098155

     Total force =     0.049835     Total SCF correction =     0.002736

     General routines

     Parallel routines

   This run was terminated on:  18: 0:23  10Nov2021

   JOB DONE.