     Program PWSCF v.6.4.1 starts on  2Aug2021 at 12:47:24

     R & G space division:  proc/nbgrp/npool/nimage =      20
     Waiting for input...
     Reading input from standard input
Warning: card    &IONS ignored
Warning: card      ION_DYNAMICS = 'BFGS' ignored
Warning: card   / ignored
Warning: card    &CELL ignored
Warning: card      CELL_DYNAMICS = 'BFGS', ignored
Warning: card    / ignored

     Current dimensions of program PWSCF are:
     Max number of different atomic species (ntypx) = 10
     Max number of k-points (npk) =  40000
     Max angular momentum in pseudopotentials (lmaxx) =  3

     Subspace diagonalization in iterative solution of the eigenvalue problem:
     a serial algorithm will be used

     bravais-lattice index     =            0
     lattice parameter (alat)  =      12.0576  a.u.
     unit-cell volume          =    3540.2048 (a.u.)^3
     number of atoms/cell      =           24
     number of atomic types    =            2
     number of electrons       =       144.00
     number of Kohn-Sham states=           86
     kinetic-energy cutoff     =      45.0000  Ry
     charge density cutoff     =     360.0000  Ry
     convergence threshold     =      1.0E-06
     mixing beta               =       0.7000
     number of iterations used =            8  local-TF  mixing
     Exchange-correlation      = SLA PW GGX GGC ( 1  4  2  2 0 0)

     celldm(1)=  12.057647  celldm(2)=   0.000000  celldm(3)=   0.000000
     celldm(4)=   0.000000  celldm(5)=   0.000000  celldm(6)=   0.000000

     crystal axes: (cart. coord. in units of alat)
               a(1) = (   1.000000   0.000000   0.000000 )
               a(2) = (  -0.250000   0.433013   0.000000 )
               a(3) = (   0.000000   0.000000   4.663803 )

     reciprocal axes: (cart. coord. in units 2 pi/alat)
               b(1) = (  1.000000  0.577350 -0.000000 )
               b(2) = (  0.000000  2.309402  0.000000 )
               b(3) = (  0.000000 -0.000000  0.214417 )

     PseudoPot. # 1 for Mo read from file:
     /home/kkety/pseudo/Mo.pw91-n-van.UPF
     MD5 check sum: 875977911cf57e7168990cb144db214a
     Pseudo is Ultrasoft + core correction, Zval =  6.0
     Generated by new atomic code, or converted to UPF format
     Using radial grid of  965 points,  3 beta functions with:
                l(1) =   1
                l(2) =   2
                l(3) =   2
     Q(r) pseudized with  8 coefficients,  rinner =    1.000   1.000   1.000
                                                       1.200   1.200

     PseudoPot. # 2 for S  read from file:
     /home/kkety/pseudo/S.pw91-van_ak.UPF
     MD5 check sum: 708c80e9edb6b1bde406d41998b2c042
     Pseudo is Ultrasoft, Zval =  6.0
     Generated by new atomic code, or converted to UPF format
     Using radial grid of  811 points,  6 beta functions with:
                l(1) =   0
                l(2) =   0
                l(3) =   1
                l(4) =   1
                l(5) =   2
                l(6) =   2
     Q(r) pseudized with  8 coefficients,  rinner =    1.100   1.100   1.100
                                                       1.100   1.100

     atomic species   valence    mass     pseudopotential
        Mo             6.00    95.50000     Mo( 1.00)
        S              6.00    32.06500     S ( 1.00)

     No symmetry found

   Cartesian axes

     site n.     atom                  positions (alat units)
         1           Mo  tau(   1) = (  -0.0094099   0.2881485   0.5954976  )
         2           Mo  tau(   2) = (   0.0001508   0.2855949   2.8995106  )
         3           Mo  tau(   3) = (   0.5057243   0.3032635   0.5827856  )
         4           Mo  tau(   4) = (   0.5092783   0.2929639   2.9267569  )
         5           Mo  tau(   5) = (   0.2600176   0.1562710   1.7506190  )
         6           Mo  tau(   6) = (   0.2492735   0.1461501   4.0652770  )
         7           Mo  tau(   7) = (   0.7498279   0.1438918   1.7645911  )
         8           Mo  tau(   8) = (   0.7558853   0.1383841   4.0675777  )
         9           S   tau(   9) = (   0.2423022   0.1308762   0.8259585  )
        10           S   tau(  10) = (   0.2524098   0.1296749   3.1551491  )
        11           S   tau(  11) = (   0.7361680   0.1401292   0.8342794  )
        12           S   tau(  12) = (   0.7469518   0.1486112   3.1748991  )
        13           S   tau(  13) = (  -0.0019559   0.2734510   1.9973476  )
        14           S   tau(  14) = (   0.0090431   0.2764813   4.3299752  )
        15           S   tau(  15) = (   0.5035514   0.2739766   1.9900630  )
        16           S   tau(  16) = (   0.4906105   0.2886219   4.3386311  )
        17           S   tau(  17) = (   0.2429989   0.1322902   0.3448943  )
        18           S   tau(  18) = (   0.2410385   0.1528585   2.6599930  )
        19           S   tau(  19) = (   0.7504266   0.1391482   0.3229377  )
        20           S   tau(  20) = (   0.7540602   0.1500905   2.6836228  )
        21           S   tau(  21) = (   0.0080810   0.2994693   1.5116585  )
        22           S   tau(  22) = (  -0.0065028   0.3004619   3.8275459  )
        23           S   tau(  23) = (   0.5005454   0.2895709   1.5193079  )
        24           S   tau(  24) = (   0.4993481   0.2886016   3.8512306  )

     number of k points=    10  Marzari-Vanderbilt smearing, width (Ry)=  0.0200
                       cart. coord. in units 2pi/alat
        k(    1) = (   0.0000000   0.0000000   0.0000000), wk =   0.1111111
        k(    2) = (   0.0000000   0.3849003   0.0000000), wk =   0.2222222
        k(    3) = (   0.0000000   0.7698006   0.0000000), wk =   0.2222222
        k(    4) = (   0.0000000  -1.1547008   0.0000000), wk =   0.1111111
        k(    5) = (   0.3333333   0.1924501   0.0000000), wk =   0.2222222
        k(    6) = (   0.3333333   0.5773504   0.0000000), wk =   0.2222222
        k(    7) = (   0.3333333  -0.9622507   0.0000000), wk =   0.2222222
        k(    8) = (   0.3333333  -0.5773504   0.0000000), wk =   0.2222222
        k(    9) = (   0.3333333  -0.1924501   0.0000000), wk =   0.2222222
        k(   10) = (   0.6666667  -0.3849003   0.0000000), wk =   0.2222222

     Initial potential from superposition of free atoms

     starting charge  143.98738, renormalised to  144.00000
     Starting wfcs are  136 randomized atomic wfcs

     Self-consistent Calculation

     iteration #  1     ecut=    45.00 Ry     beta= 0.70
     Davidson diagonalization with overlap
     ethr =  1.00E-02,  avg # of iterations =  2.0

     total energy              =    -562.72755720 Ry
     Harris-Foulkes estimate   =    -564.34536821 Ry
     estimated scf accuracy    <       4.10667534 Ry

[...]

     total energy              =    -563.52364232 Ry
     Harris-Foulkes estimate   =    -563.52364263 Ry
     estimated scf accuracy    <       0.00000156 Ry

     iteration # 15     ecut=    45.00 Ry     beta= 0.70
     Davidson diagonalization with overlap
     ethr =  1.09E-09,  avg # of iterations =  2.8

     End of self-consistent calculation

          k = 0.0000 0.0000 0.0000 ( 18043 PWs)   bands (ev):

    -8.7138  -8.5875  -8.4933  -8.4492  -7.3293  -7.3157  -7.2519  -7.2398
    -6.8994  -6.8276  -6.7064  -6.7005  -6.5801  -6.3515  -6.3277  -6.2788
    -0.3401  -0.2605  -0.1508  -0.1145  -0.0759  -0.0392   0.1059   0.1354
     0.7876   0.8274   0.8340   0.8439   1.4362   1.4769   1.4954   1.5404
     2.2226   2.2487   2.3703   2.3880   2.5958   2.7083   2.7249   2.8167
     2.9025   2.9514   3.0146   3.1113   3.4402   3.4774   3.5548   3.7056
     3.7761   3.7966   3.8296   3.8979   3.9714   4.0182   4.1311   4.1567
     4.2018   4.2938   4.3212   4.6139   4.6584   4.7600   4.7724   4.7817
     4.9754   5.0021   5.1254   5.2669   5.5052   5.6276   5.8075   5.9011
     7.4446   7.5715   7.5973   7.7341   7.8140   7.8541   8.0075   8.0850
     8.1094   8.1594   8.1677   8.2055   8.2268   8.2942

[...]

          k = 0.6667-0.3849 0.0000 ( 18020 PWs)   bands (ev):

    -7.4807  -7.4300  -7.2616  -7.2046  -6.9128  -6.8935  -6.8242  -6.7305
    -6.7057  -6.6365  -6.6281  -6.5823  -6.4153  -6.3742  -6.3454  -6.3118
     0.0468   0.1099   0.2523   0.2979   0.3037   0.3327   0.4711   0.4811
     0.5066   0.7494   0.8365   0.8884   1.2716   1.3854   1.4267   1.4745
     1.4926   1.6173   1.6784   1.7156   1.7560   1.8276   1.9358   1.9546
     2.2233   2.2808   2.4138   2.4690   2.5103   2.6619   2.8650   2.9022
     3.2076   3.2392   3.2937   3.3061   3.6735   3.7456   3.8306   3.8635
     3.9253   3.9908   4.0245   4.0906   4.1693   4.2183   4.3174   4.3845
     4.6118   4.6351   4.8056   4.8420   5.0774   5.1019   5.2067   5.2275
     7.4342   7.5158   7.5349   7.5611   7.6236   7.6375   7.6893   7.7882
     7.8788   7.9281   7.9945   8.0540   8.0786   8.2099

     the Fermi energy is     5.8002 ev

!    total energy              =    -563.52364194 Ry
     Harris-Foulkes estimate   =    -563.52364252 Ry
     estimated scf accuracy    <       0.00000062 Ry

     The total energy is the sum of the following terms:

     one-electron contribution =    -163.88022056 Ry
     hartree contribution      =     160.30877154 Ry
     xc contribution           =    -223.33787514 Ry
     ewald contribution        =    -336.62792064 Ry
     smearing contrib. (-TS)   =       0.01360286 Ry

     convergence has been achieved in  15 iterations

     Forces acting on atoms (cartesian axes, Ry/au):

     atom    1 type  1   force =     0.00985307   -0.06482634   -0.08462403
     atom    2 type  1   force =     0.02976470    0.03755740    0.12372372
     atom    3 type  1   force =    -0.06038142   -0.09971981   -0.03255913
     atom    4 type  1   force =    -0.06719547   -0.01302835   -0.01878787
     atom    5 type  1   force =    -0.08810844   -0.10117357    0.02892363
     atom    6 type  1   force =    -0.02445598   -0.01898900    0.13857045
     atom    7 type  1   force =     0.04936994   -0.01944356   -0.09652946
     atom    8 type  1   force =    -0.02234423    0.05526794    0.16763489
     atom    9 type  2   force =     0.02586287    0.06530753    0.05858214
     atom   10 type  2   force =    -0.00893892    0.02578517   -0.00185233
     atom   11 type  2   force =     0.01396055    0.02570843    0.02824156
     atom   12 type  2   force =     0.03393446   -0.00103056   -0.00673750
     atom   13 type  2   force =     0.03259276    0.05952477    0.03947596
     atom   14 type  2   force =    -0.02031892    0.02469210   -0.04722288
     atom   15 type  2   force =    -0.01087610    0.04735547    0.11514206
     atom   16 type  2   force =     0.02641124   -0.00944821   -0.06182730
     atom   17 type  2   force =     0.01107863    0.04053977    0.00139095
     atom   18 type  2   force =     0.05990810   -0.01276928   -0.01454925
     atom   19 type  2   force =    -0.00088686    0.03368045    0.02977431
     atom   20 type  2   force =    -0.04763803   -0.03675030   -0.08152136
     atom   21 type  2   force =    -0.02377336   -0.01226357   -0.01822721
     atom   22 type  2   force =     0.01440257   -0.03368328   -0.05469655
     atom   23 type  2   force =     0.04141735    0.02560851   -0.06942751
     atom   24 type  2   force =     0.02636151   -0.01790172   -0.14289727

     Total force =     0.474526     Total SCF correction =     0.002288

     General routines

     Parallel routines

   This run was terminated on:  13: 1:58   2Aug2021

   JOB DONE.