     Program PWSCF v.6.4 starts on 24Dec2021 at  0: 9:39

     R & G space division:  proc/nbgrp/npool/nimage =      40
     Waiting for input...
     Reading input from standard input
Warning: card    &IONS ignored
Warning: card      ION_DYNAMICS = 'BFGS' ignored
Warning: card   / ignored
Warning: card    &CELL ignored
Warning: card      CELL_DYNAMICS = 'BFGS', ignored
Warning: card    / ignored

     Current dimensions of program PWSCF are:
     Max number of different atomic species (ntypx) = 10
     Max number of k-points (npk) =  40000
     Max angular momentum in pseudopotentials (lmaxx) =  3

     bravais-lattice index     =            0
     lattice parameter (alat)  =      13.0812  a.u.
     unit-cell volume          =    5280.9965 (a.u.)^3
     number of atoms/cell      =           36
     number of atomic types    =            2
     number of electrons       =       216.00
     number of Kohn-Sham states=          130
     kinetic-energy cutoff     =      45.0000  Ry
     charge density cutoff     =     360.0000  Ry
     convergence threshold     =      1.0E-06
     mixing beta               =       0.7000
     number of iterations used =            8  local-TF  mixing
     Exchange-correlation      = SLA PW GGX GGC ( 1  4  2  2 0 0)

     celldm(1)=  13.081246  celldm(2)=   0.000000  celldm(3)=   0.000000
     celldm(4)=   0.000000  celldm(5)=   0.000000  celldm(6)=   0.000000

     crystal axes: (cart. coord. in units of alat)
               a(1) = (   1.000000   0.000000   0.000000 )
               a(2) = (  -0.249965   1.424909   0.000000 )
               a(3) = (  -0.150950  -0.294582   1.655699 )

     reciprocal axes: (cart. coord. in units 2 pi/alat)
               b(1) = (  1.000000  0.175425  0.122382 )
               b(2) = (  0.000000  0.701799  0.124864 )
               b(3) = (  0.000000  0.000000  0.603975 )

     PseudoPot. # 1 for Mo read from file:
     ~/pseudo/Mo.pw91-n-van.UPF
     MD5 check sum: Not computed, couldn't open file
     Pseudo is Ultrasoft + core correction, Zval =  6.0
     Generated by new atomic code, or converted to UPF format
     Using radial grid of  965 points,  3 beta functions with:
                l(1) =   1
                l(2) =   2
                l(3) =   2
     Q(r) pseudized with  8 coefficients,  rinner =    1.000   1.000   1.000
                                                       1.200   1.200

     PseudoPot. # 2 for S  read from file:
     ~/pseudo/S.pw91-van_ak.UPF
     MD5 check sum: Not computed, couldn't open file
     Pseudo is Ultrasoft, Zval =  6.0
     Generated by new atomic code, or converted to UPF format
     Using radial grid of  811 points,  6 beta functions with:
                l(1) =   0
                l(2) =   0
                l(3) =   1
                l(4) =   1
                l(5) =   2
                l(6) =   2
     Q(r) pseudized with  8 coefficients,  rinner =    1.100   1.100   1.100
                                                       1.100   1.100

     atomic species   valence    mass     pseudopotential
        Mo             6.00    95.50000     Mo( 1.00)
        S              6.00    32.06500     S ( 1.00)

     No symmetry found

   Cartesian axes

     site n.     atom                  positions (alat units)
         1           Mo  tau(   1) = (   0.2095702   0.4262975   1.1537159  )
         2           Mo  tau(   2) = (   0.4809841  -0.2584028   1.5850322  )
         3           Mo  tau(   3) = (   0.6709327   0.8658970   0.0789932  )
         4           Mo  tau(   4) = (   0.4433421   0.2795114   0.2104904  )
         5           Mo  tau(   5) = (  -0.0172470   0.6564905   0.8715239  )
         6           Mo  tau(   6) = (  -0.0097849   0.2035770   0.8788098  )
         7           Mo  tau(   7) = (   0.1151608   0.9087629   0.0875972  )
         8           Mo  tau(   8) = (  -0.2165719   0.4468790   1.1461017  )
         9           Mo  tau(   9) = (   0.6952777  -0.0650441   1.2631091  )
        10           Mo  tau(  10) = (  -0.2887762   0.7653097   1.4239403  )
        11           Mo  tau(  11) = (   0.4900435   0.1660434   1.5727420  )
        12           Mo  tau(  12) = (  -0.0457128   1.0631376   0.9942718  )
        13           S   tau(  13) = (   0.2004460   0.9207052   0.7953188  )
        14           S   tau(  14) = (   0.7238569   0.8897000   0.8073381  )
        15           S   tau(  15) = (   0.2502527   0.4465756   1.5335942  )
        16           S   tau(  16) = (   0.4764546   0.8977588   1.6313695  )
        17           S   tau(  17) = (   0.0176735   0.7045909   1.2208847  )
        18           S   tau(  18) = (  -0.0379154   0.9176161   1.6176486  )
        19           S   tau(  19) = (   0.6571412   0.5321107   0.2574334  )
        20           S   tau(  20) = (   0.6038935   0.0019655   0.2882849  )
        21           S   tau(  21) = (   0.2247864  -0.0640564   0.8536629  )
        22           S   tau(  22) = (   0.2438810   0.4351733   0.8114863  )
        23           S   tau(  23) = (   0.2130075  -0.0403140   1.5391658  )
        24           S   tau(  24) = (  -0.0130465   0.1697682   1.2282060  )
        25           S   tau(  25) = (   0.3892203   0.9082451   0.2946885  )
        26           S   tau(  26) = (   0.1515392   0.3350654   0.3676517  )
        27           S   tau(  27) = (  -0.2869973   1.0877061   1.2511034  )
        28           S   tau(  28) = (  -0.0121143   0.1267062   0.5135510  )
        29           S   tau(  29) = (   0.7589457  -0.0527280   1.6029320  )
        30           S   tau(  30) = (  -0.2256740   0.4199095   1.5274541  )
        31           S   tau(  31) = (   0.7316946   0.4236627   0.8015928  )
        32           S   tau(  32) = (   0.7489940  -0.0681313   0.9095923  )
        33           S   tau(  33) = (   0.4950998   0.6550747   1.1713672  )
        34           S   tau(  34) = (   0.4986788   0.2145262   1.2155219  )
        35           S   tau(  35) = (  -0.1041902   0.9481230   0.3313660  )
        36           S   tau(  36) = (   0.2219763   1.1039146   1.2360864  )

     number of k points=     8  Marzari-Vanderbilt smearing, width (Ry)=  0.0200
                       cart. coord. in units 2pi/alat
        k(    1) = (   0.0000000   0.0000000   0.0000000), wk =   0.1666667
        k(    2) = (   0.0000000   0.0000000  -0.3019873), wk =   0.1666667
        k(    3) = (   0.0000000  -0.3508995  -0.0624321), wk =   0.1666667
        k(    4) = (   0.0000000  -0.3508995  -0.3644194), wk =   0.1666667
        k(    5) = (   0.3333333   0.0584750   0.0407939), wk =   0.3333333
        k(    6) = (   0.3333333   0.0584750  -0.2611934), wk =   0.3333333
        k(    7) = (   0.3333333  -0.2924245  -0.0216382), wk =   0.3333333
        k(    8) = (   0.3333333  -0.2924245  -0.3236255), wk =   0.3333333

     Initial potential from superposition of free atoms

     starting charge  215.98107, renormalised to  216.00000
     Starting wfcs are  204 randomized atomic wfcs

     Self-consistent Calculation

     iteration #  1     ecut=    45.00 Ry     beta= 0.70
     Davidson diagonalization with overlap
     ethr =  1.00E-02,  avg # of iterations =  2.0

     total energy              =    -842.81430155 Ry
     Harris-Foulkes estimate   =    -845.91321209 Ry
     estimated scf accuracy    <       8.33356447 Ry

[...]

     total energy              =    -844.41627201 Ry
     Harris-Foulkes estimate   =    -844.41627214 Ry
     estimated scf accuracy    <       0.00000143 Ry

     iteration # 14     ecut=    45.00 Ry     beta= 0.70
     Davidson diagonalization with overlap
     ethr =  6.60E-10,  avg # of iterations =  2.0

     End of self-consistent calculation

          k = 0.0000 0.0000 0.0000 ( 26935 PWs)   bands (ev):

    -8.5052  -8.3598  -7.7888  -7.4840  -7.4557  -7.1872  -7.0692  -6.9226
    -6.8971  -6.8115  -6.7302  -6.6581  -6.5963  -6.5345  -6.4085  -6.3320
    -6.1760  -6.1380  -6.1128  -5.9045  -5.6663  -5.5779  -5.3479  -4.6654
    -0.2458  -0.1973   0.0301   0.1732   0.2910   0.3170   0.5233   0.6274
     0.7021   0.7497   0.9287   0.9604   1.0274   1.2058   1.2932   1.3690
     1.4514   1.5556   1.5912   1.6118   1.7544   1.7577   1.8164   1.8725
     1.9394   2.0905   2.1160   2.1199   2.1848   2.2385   2.2931   2.3388
     2.3968   2.4459   2.4789   2.5492   2.5556   2.6099   2.7178   2.7415
     2.7818   2.8415   2.9021   2.9347   3.0165   3.1204   3.1654   3.2523
     3.3122   3.3650   3.4268   3.5300   3.6566   3.7536   3.7968   3.9182
     4.0089   4.0690   4.1022   4.1454   4.1937   4.2256   4.3363   4.3953
     4.4938   4.5707   4.5998   4.7738   4.7906   4.8621   4.9632   5.0483
     5.1187   5.1752   5.3431   5.4423   5.5355   5.5668   5.7501   5.7557
     5.8376   6.0409   6.1013   6.1152   6.2153   6.3086   6.4444   6.5219
     6.6215   6.7120   6.7538   6.8055   6.9178   7.0494   7.1210   7.2321
     7.2405   7.3553   7.5375   7.5983   7.7017   7.7382   7.8358   7.9216
     8.0056   8.0851

[...]

          k = 0.3333-0.2924-0.3236 ( 26955 PWs)   bands (ev):

    -8.4207  -8.2234  -7.8766  -7.5935  -7.3184  -7.2499  -7.0533  -6.9742
    -6.9417  -6.8911  -6.7521  -6.6821  -6.6148  -6.4890  -6.4382  -6.2702
    -6.1807  -6.1611  -6.1332  -5.8306  -5.7290  -5.5929  -5.3712  -4.6504
    -0.1283  -0.0302   0.0785   0.2812   0.3440   0.5671   0.6206   0.7218
     0.7341   0.8222   0.8903   1.0341   1.0969   1.1671   1.2539   1.3346
     1.4156   1.4644   1.5260   1.6523   1.6973   1.7336   1.7951   1.8379
     1.9144   2.0196   2.0411   2.0769   2.1292   2.1671   2.2488   2.3158
     2.4030   2.4215   2.4786   2.5450   2.6372   2.6714   2.7516   2.7903
     2.8236   2.8896   2.9724   3.0028   3.0432   3.1162   3.1903   3.2415
     3.2949   3.3883   3.4475   3.5216   3.5657   3.6231   3.6830   3.7047
     3.7879   3.9339   3.9563   4.0284   4.1503   4.2043   4.2531   4.3482
     4.5528   4.5968   4.6526   4.7427   4.8010   4.8782   4.9691   4.9852
     5.1545   5.2207   5.3014   5.4020   5.5180   5.5791   5.6090   5.7230
     5.7876   5.8272   5.9578   6.1245   6.2691   6.3365   6.4200   6.4924
     6.6082   6.7049   6.8190   6.8452   6.9346   7.0633   7.1300   7.2658
     7.4404   7.4846   7.5440   7.6058   7.6910   7.7923   7.8882   7.9272
     7.9869   8.0698

     the Fermi energy is     6.1824 ev

!    total energy              =    -844.41627189 Ry
     Harris-Foulkes estimate   =    -844.41627214 Ry
     estimated scf accuracy    <       0.00000030 Ry

     The total energy is the sum of the following terms:

     one-electron contribution =    -137.66569231 Ry
     hartree contribution      =     187.63705663 Ry
     xc contribution           =    -333.30885091 Ry
     ewald contribution        =    -561.08136691 Ry
     smearing contrib. (-TS)   =       0.00258160 Ry

     convergence has been achieved in  14 iterations

     Forces acting on atoms (cartesian axes, Ry/au):

     atom    1 type  1   force =    -0.01654682    0.02170019    0.02073272
     atom    2 type  1   force =     0.00566751    0.02288437   -0.00400069
     atom    3 type  1   force =     0.03959960    0.03181322   -0.01837349
     atom    4 type  1   force =     0.00102280   -0.03264268    0.02439586
     atom    5 type  1   force =    -0.00852077    0.00331131    0.01856953
     atom    6 type  1   force =    -0.03813736    0.00689056    0.01445977
     atom    7 type  1   force =    -0.00804452   -0.01644337   -0.00681482
     atom    8 type  1   force =    -0.00272119   -0.02140268    0.02638544
     atom    9 type  1   force =    -0.01124899   -0.05188727   -0.04095303
     atom   10 type  1   force =     0.01276364   -0.00739071    0.02804708
     atom   11 type  1   force =     0.00194458   -0.01396163   -0.02326633
     atom   12 type  1   force =     0.01322138    0.03734123   -0.03959373
     atom   13 type  2   force =    -0.01656819   -0.00187861    0.02054153
     atom   14 type  2   force =     0.01790050   -0.00928801    0.01114543
     atom   15 type  2   force =    -0.01590119    0.00311928    0.00638851
     atom   16 type  2   force =    -0.00475559   -0.01859683   -0.00903695
     atom   17 type  2   force =    -0.02276011    0.00405674   -0.05793909
     atom   18 type  2   force =     0.00770848   -0.00130100    0.01245771
     atom   19 type  2   force =     0.00494669   -0.00223233    0.01638198
     atom   20 type  2   force =    -0.00661215    0.03273167   -0.00106469
     atom   21 type  2   force =     0.01251211   -0.05088553    0.01614861
     atom   22 type  2   force =     0.01788829   -0.01100511   -0.01327368
     atom   23 type  2   force =     0.01109654   -0.00070262   -0.00793276
     atom   24 type  2   force =     0.00864478   -0.00255344   -0.03072560
     atom   25 type  2   force =    -0.01687640    0.00638744   -0.00254459
     atom   26 type  2   force =    -0.00962705   -0.00468292    0.01374381
     atom   27 type  2   force =     0.00809215   -0.00263211   -0.00304314
     atom   28 type  2   force =     0.02118715    0.00489214   -0.00694050
     atom   29 type  2   force =     0.00441418   -0.00543453    0.01043068
     atom   30 type  2   force =    -0.02521222    0.02465327   -0.00058187
     atom   31 type  2   force =    -0.00122036    0.00082251    0.00495212
     atom   32 type  2   force =     0.00843082    0.01969568    0.00697185
     atom   33 type  2   force =     0.00182938    0.00993880   -0.01955049
     atom   34 type  2   force =     0.00317810   -0.00248193   -0.00557774
     atom   35 type  2   force =    -0.00233653    0.00387372    0.02066300
     atom   36 type  2   force =     0.00504074    0.02329116    0.01879754

     Total force =     0.191839     Total SCF correction =     0.001417

     General routines

     Parallel routines

   This run was terminated on:   0:11:41  24Dec2021

   JOB DONE.