     Program PWSCF v.6.4 starts on 24Dec2021 at 23: 7:29

     R & G space division:  proc/nbgrp/npool/nimage =      40
     Waiting for input...
     Reading input from standard input
Warning: card    &IONS ignored
Warning: card      ION_DYNAMICS = 'BFGS' ignored
Warning: card   / ignored
Warning: card    &CELL ignored
Warning: card      CELL_DYNAMICS = 'BFGS', ignored
Warning: card    / ignored

     Current dimensions of program PWSCF are:
     Max number of different atomic species (ntypx) = 10
     Max number of k-points (npk) =  40000
     Max angular momentum in pseudopotentials (lmaxx) =  3

     bravais-lattice index     =            0
     lattice parameter (alat)  =      18.2984  a.u.
     unit-cell volume          =    7414.7116 (a.u.)^3
     number of atoms/cell      =           48
     number of atomic types    =            2
     number of electrons       =       288.00
     number of Kohn-Sham states=          173
     kinetic-energy cutoff     =      45.0000  Ry
     charge density cutoff     =     360.0000  Ry
     convergence threshold     =      1.0E-06
     mixing beta               =       0.7000
     number of iterations used =            8  local-TF  mixing
     Exchange-correlation      = SLA PW GGX GGC ( 1  4  2  2 0 0)

     celldm(1)=  18.298380  celldm(2)=   0.000000  celldm(3)=   0.000000
     celldm(4)=   0.000000  celldm(5)=   0.000000  celldm(6)=   0.000000

     crystal axes: (cart. coord. in units of alat)
               a(1) = (   1.000000   0.000000   0.000000 )
               a(2) = (  -0.067439   1.059555   0.000000 )
               a(3) = (  -0.077837  -0.011955   1.142176 )

     reciprocal axes: (cart. coord. in units 2 pi/alat)
               b(1) = (  1.000000  0.063648  0.068814 )
               b(2) = (  0.000000  0.943793  0.009878 )
               b(3) = (  0.000000  0.000000  0.875522 )

     PseudoPot. # 1 for Mo read from file:
     ~/pseudo/Mo.pw91-n-van.UPF
     MD5 check sum: Not computed, couldn't open file
     Pseudo is Ultrasoft + core correction, Zval =  6.0
     Generated by new atomic code, or converted to UPF format
     Using radial grid of  965 points,  3 beta functions with:
                l(1) =   1
                l(2) =   2
                l(3) =   2
     Q(r) pseudized with  8 coefficients,  rinner =    1.000   1.000   1.000
                                                       1.200   1.200

     PseudoPot. # 2 for S  read from file:
     ~/pseudo/S.pw91-van_ak.UPF
     MD5 check sum: Not computed, couldn't open file
     Pseudo is Ultrasoft, Zval =  6.0
     Generated by new atomic code, or converted to UPF format
     Using radial grid of  811 points,  6 beta functions with:
                l(1) =   0
                l(2) =   0
                l(3) =   1
                l(4) =   1
                l(5) =   2
                l(6) =   2
     Q(r) pseudized with  8 coefficients,  rinner =    1.100   1.100   1.100
                                                       1.100   1.100

     atomic species   valence    mass     pseudopotential
        Mo             6.00    95.50000     Mo( 1.00)
        S              6.00    32.06500     S ( 1.00)

     No symmetry found

   Cartesian axes

     site n.     atom                  positions (alat units)
         1           Mo  tau(   1) = (   0.0220291   0.7124903   0.7796612  )
         2           Mo  tau(   2) = (   0.2317957   0.6998475   1.0300777  )
         3           Mo  tau(   3) = (   0.0027518   0.9186795   0.9994849  )
         4           Mo  tau(   4) = (   0.2155634   0.9223949   0.8092643  )
         5           Mo  tau(   5) = (   0.6729689   0.0343380   0.7017960  )
         6           Mo  tau(   6) = (   0.8009002   0.1763510   0.9884201  )
         7           Mo  tau(   7) = (   0.4558682   0.4592350   1.0391717  )
         8           Mo  tau(   8) = (   0.7113938   0.3507195   0.7682988  )
         9           Mo  tau(   9) = (   0.0755654   0.1661641   0.1169361  )
        10           Mo  tau(  10) = (   0.5204242   0.2453347   0.5832847  )
        11           Mo  tau(  11) = (   0.2635205   0.2040935   0.3223619  )
        12           Mo  tau(  12) = (   0.3334208   0.4544235   0.0991304  )
        13           Mo  tau(  13) = (   0.5547321   0.6685683   0.1176082  )
        14           Mo  tau(  14) = (   0.7801499   0.6980027   0.5295320  )
        15           Mo  tau(  15) = (   0.6049687   0.8804777   0.3865563  )
        16           Mo  tau(  16) = (   0.7980979   0.8732793   0.1476403  )
        17           S   tau(  17) = (  -0.0279312   0.6705160   1.0179628  )
        18           S   tau(  18) = (   0.1188320   0.3979871   0.2136428  )
        19           S   tau(  19) = (   0.2649196   0.6909439   0.7654540  )
        20           S   tau(  20) = (   0.3542398   0.8522695   0.4485922  )
        21           S   tau(  21) = (   0.0382142   0.1237812   1.0100179  )
        22           S   tau(  22) = (   0.2157332   0.4359066   1.0050945  )
        23           S   tau(  23) = (   0.0379363   0.1374195   0.3713032  )
        24           S   tau(  24) = (   0.3369397   0.3657401   0.4820548  )
        25           S   tau(  25) = (   0.5877113   1.0409225   0.9528206  )
        26           S   tau(  26) = (   0.5631344   0.9290713   0.1456590  )
        27           S   tau(  27) = (   0.8759171   0.1706350   0.7410868  )
        28           S   tau(  28) = (   0.8040050   0.5820209   0.7517019  )
        29           S   tau(  29) = (   0.4954986   0.6920861   1.0120597  )
        30           S   tau(  30) = (   0.7405679   0.9073938   1.0324536  )
        31           S   tau(  31) = (   0.4208388   0.0384136   0.6940582  )
        32           S   tau(  32) = (   0.8527042   0.8933918   0.3882625  )
        33           S   tau(  33) = (   0.2729019   1.0274312   0.3524523  )
        34           S   tau(  34) = (  -0.0168446   0.9500355   0.7522584  )
        35           S   tau(  35) = (   0.3406600   0.1897218   0.0930006  )
        36           S   tau(  36) = (   0.3043314   0.6937037   0.1534352  )
        37           S   tau(  37) = (   0.0267120   0.6525051   0.5302890  )
        38           S   tau(  38) = (   0.6407800   0.8570054   0.6521282  )
        39           S   tau(  39) = (   0.0301635   0.9734529   0.1099141  )
        40           S   tau(  40) = (   0.2466568   0.9669698   1.0416917  )
        41           S   tau(  41) = (   0.5976940   0.6300786   0.3793638  )
        42           S   tau(  42) = (   0.4679709   0.3487363   0.8056921  )
        43           S   tau(  43) = (   0.8112187   0.6413071   0.1192692  )
        44           S   tau(  44) = (   0.8306493   0.1628464   0.0919332  )
        45           S   tau(  45) = (   0.6517216   0.0713711   0.4486027  )
        46           S   tau(  46) = (   0.7204744   0.3827098   0.5171408  )
        47           S   tau(  47) = (   0.5719962   0.4103551   0.1313003  )
        48           S   tau(  48) = (   0.7171594   0.4059397   1.0148994  )

     number of k points=     8  Marzari-Vanderbilt smearing, width (Ry)=  0.0200
                       cart. coord. in units 2pi/alat
        k(    1) = (   0.0000000   0.0000000   0.0000000), wk =   0.2500000
        k(    2) = (   0.0000000   0.0000000  -0.4377610), wk =   0.2500000
        k(    3) = (   0.0000000  -0.4718963  -0.0049392), wk =   0.2500000
        k(    4) = (   0.0000000  -0.4718963  -0.4427002), wk =   0.2500000
        k(    5) = (  -0.5000000  -0.0318241  -0.0344072), wk =   0.2500000
        k(    6) = (  -0.5000000  -0.0318241  -0.4721682), wk =   0.2500000
        k(    7) = (  -0.5000000  -0.5037204  -0.0393464), wk =   0.2500000
        k(    8) = (  -0.5000000  -0.5037204  -0.4771074), wk =   0.2500000

     Initial potential from superposition of free atoms

     starting charge  287.97477, renormalised to  288.00000
     Starting wfcs are  272 randomized atomic wfcs

     Self-consistent Calculation

     iteration #  1     ecut=    45.00 Ry     beta= 0.70
     Davidson diagonalization with overlap
     ethr =  1.00E-02,  avg # of iterations =  2.0

     total energy              =   -1123.74671450 Ry
     Harris-Foulkes estimate   =   -1127.55549558 Ry
     estimated scf accuracy    <       9.99577083 Ry

[...]

     End of self-consistent calculation

          k = 0.0000 0.0000 0.0000 ( 37849 PWs)   bands (ev):

    -9.6319  -8.8634  -8.2444  -7.8671  -7.8213  -7.7754  -7.6908  -7.5350
    -7.4848  -7.4524  -7.4049  -7.3403  -7.3052  -7.2834  -7.2082  -7.2043
    -7.1406  -7.1133  -7.0381  -6.9718  -6.9172  -6.8594  -6.8002  -6.7503
    -6.7281  -6.6571  -6.5392  -6.3880  -6.2354  -6.0873  -5.9603  -5.0859
    -0.5289  -0.3201  -0.0827  -0.0622   0.0069   0.1328   0.1663   0.2649
     0.2774   0.3505   0.4638   0.5139   0.5431   0.5925   0.6443   0.6553
     0.7319   0.8140   0.8309   0.8534   0.9545   0.9922   1.0225   1.0679
     1.0965   1.1287   1.1821   1.1904   1.2459   1.2995   1.3298   1.3488
     1.4278   1.4663   1.5161   1.5570   1.5724   1.6500   1.6880   1.7227
     1.7367   1.7840   1.8121   1.8418   1.8811   1.9388   1.9923   2.0074
     2.0372   2.0720   2.0997   2.1158   2.1785   2.1901   2.2357   2.2750
     2.3374   2.3743   2.4140   2.4460   2.5382   2.5748   2.6180   2.6782
     2.6998   2.7677   2.7780   2.8411   2.8965   2.9503   2.9757   3.0600
     3.1679   3.1820   3.2538   3.3055   3.3972   3.4108   3.5450   3.5646
     3.6058   3.6652   3.7201   3.8537   3.8846   3.9258   3.9957   4.0476
     4.1153   4.2059   4.2286   4.3047   4.3750   4.4440   4.5082   4.6418
     4.6558   4.7585   4.7864   4.8625   4.9531   4.9741   5.0381   5.1439
     5.2225   5.2617   5.3536   5.3663   5.4882   5.5764   5.6139   5.7453
     5.7723   5.8553   5.9483   6.0112   6.1321   6.2305   6.2504   6.3057
     6.3462   6.4180   6.4762   6.4947   6.5956   6.6270   6.6835   6.7353
     6.7923   6.8711   6.8979   6.9425   6.9902   7.0255   7.0915   7.1293
     7.2010   7.2402   7.2951   7.4074   7.4491

[...]

          k =-0.5000-0.0318-0.0344 ( 37774 PWs)   bands (ev):

[...]

     the Fermi energy is     5.7493 ev

!    total energy              =   -1125.68051465 Ry
     Harris-Foulkes estimate   =   -1125.68051493 Ry
     estimated scf accuracy    <       0.00000034 Ry

     The total energy is the sum of the following terms:

     one-electron contribution =    -139.22337687 Ry
     hartree contribution      =     222.65174572 Ry
     xc contribution           =    -444.07039816 Ry
     ewald contribution        =    -765.03264007 Ry
     smearing contrib. (-TS)   =      -0.00584527 Ry

     convergence has been achieved in  15 iterations

     Forces acting on atoms (cartesian axes, Ry/au):

     atom    1 type  1   force =    -0.00126356   -0.01773867   -0.01734381
     atom    2 type  1   force =    -0.00819095   -0.02515455   -0.01604748
     atom    3 type  1   force =     0.00441685   -0.00331634    0.00369457
     atom    4 type  1   force =     0.05027912    0.03090154   -0.02470240
     atom    5 type  1   force =     0.01169441    0.01827750    0.02990973
     atom    6 type  1   force =    -0.01146593   -0.01440648   -0.00688840
[...]
     atom   22 type  2   force =    -0.01120539    0.01768882   -0.01067843
     atom   23 type  2   force =     0.01134189    0.00427620   -0.02583621
     atom   24 type  2   force =    -0.00174253    0.01757975    0.00124609
     atom   25 type  2   force =    -0.01577375    0.00617986   -0.01338587
     atom   26 type  2   force =    -0.01643930   -0.00864186   -0.00465233
     atom   27 type  2   force =    -0.01641896   -0.00512282   -0.02131814
     atom   28 type  2   force =    -0.01178788    0.00809603    0.00374275
     atom   29 type  2   force =    -0.01773806    0.01383181    0.01029403
     atom   30 type  2   force =     0.00289590   -0.02133860    0.01178670
     atom   31 type  2   force =    -0.02218528   -0.01917354    0.02480441
     atom   32 type  2   force =     0.01623596    0.01769316    0.00379998
     atom   33 type  2   force =    -0.00615995   -0.01049289   -0.00489204
     atom   34 type  2   force =    -0.00532654   -0.00286198   -0.00372357
     atom   35 type  2   force =    -0.02393430    0.00556708    0.00618124
     atom   36 type  2   force =     0.00090219    0.00235698   -0.01325215
     atom   37 type  2   force =    -0.02817932    0.00476920    0.01710419
     atom   38 type  2   force =     0.00547326   -0.01177625   -0.00424998
     atom   39 type  2   force =     0.01993153   -0.02989254    0.00739020
     atom   40 type  2   force =    -0.01663730   -0.03526469    0.01660724
     atom   41 type  2   force =    -0.02310012    0.01503047    0.00071402
     atom   42 type  2   force =     0.00946818    0.00603910    0.01558792
     atom   43 type  2   force =     0.00319474    0.03278590    0.01087167
     atom   44 type  2   force =     0.01614550   -0.00075530   -0.00244159
     atom   45 type  2   force =     0.01312511    0.00785455    0.01939901
     atom   46 type  2   force =    -0.01239867   -0.00454345    0.00954415
     atom   47 type  2   force =    -0.01130199    0.02688468   -0.01430314
     atom   48 type  2   force =    -0.00638662   -0.01000931   -0.00559146

     Total force =     0.208920     Total SCF correction =     0.001132

     General routines

     Parallel routines

   This run was terminated on:  23:11:38  24Dec2021

   JOB DONE.

     Program PWSCF v.6.4 starts on 24Dec2021 at 23:11:39

     R & G space division:  proc/nbgrp/npool/nimage =      40
     Waiting for input...
     Reading input from standard input
Warning: card    &IONS ignored
Warning: card      ION_DYNAMICS = 'BFGS' ignored
Warning: card   / ignored
Warning: card    &CELL ignored
Warning: card      CELL_DYNAMICS = 'BFGS', ignored
Warning: card    / ignored

     Current dimensions of program PWSCF are:
     Max number of different atomic species (ntypx) = 10
     Max number of k-points (npk) =  40000
     Max angular momentum in pseudopotentials (lmaxx) =  3

     bravais-lattice index     =            0
     lattice parameter (alat)  =      18.2984  a.u.
     unit-cell volume          =    7414.7116 (a.u.)^3
     number of atoms/cell      =           48
     number of atomic types    =            2
     number of electrons       =       288.00
     number of Kohn-Sham states=          173
     kinetic-energy cutoff     =      45.0000  Ry
     charge density cutoff     =     360.0000  Ry
     convergence threshold     =      1.0E-06
     mixing beta               =       0.7000
     number of iterations used =            8  local-TF  mixing
     Exchange-correlation      = SLA PW GGX GGC ( 1  4  2  2 0 0)

     celldm(1)=  18.298380  celldm(2)=   0.000000  celldm(3)=   0.000000
     celldm(4)=   0.000000  celldm(5)=   0.000000  celldm(6)=   0.000000

     crystal axes: (cart. coord. in units of alat)
               a(1) = (   1.000000   0.000000   0.000000 )
               a(2) = (  -0.067439   1.059555   0.000000 )
               a(3) = (  -0.077837  -0.011955   1.142176 )

     reciprocal axes: (cart. coord. in units 2 pi/alat)
               b(1) = (  1.000000  0.063648  0.068814 )
               b(2) = (  0.000000  0.943793  0.009878 )
               b(3) = (  0.000000  0.000000  0.875522 )

     PseudoPot. # 1 for Mo read from file:
     ~/pseudo/Mo.pw91-n-van.UPF
     MD5 check sum: Not computed, couldn't open file
     Pseudo is Ultrasoft + core correction, Zval =  6.0
     Generated by new atomic code, or converted to UPF format
     Using radial grid of  965 points,  3 beta functions with:
                l(1) =   1
                l(2) =   2
                l(3) =   2
     Q(r) pseudized with  8 coefficients,  rinner =    1.000   1.000   1.000
                                                       1.200   1.200

     PseudoPot. # 2 for S  read from file:
     ~/pseudo/S.pw91-van_ak.UPF
     MD5 check sum: Not computed, couldn't open file
     Pseudo is Ultrasoft, Zval =  6.0
     Generated by new atomic code, or converted to UPF format
     Using radial grid of  811 points,  6 beta functions with:
                l(1) =   0
                l(2) =   0
                l(3) =   1
                l(4) =   1
                l(5) =   2
                l(6) =   2
     Q(r) pseudized with  8 coefficients,  rinner =    1.100   1.100   1.100
                                                       1.100   1.100

     atomic species   valence    mass     pseudopotential
        Mo             6.00    95.50000     Mo( 1.00)
        S              6.00    32.06500     S ( 1.00)

     No symmetry found

   Cartesian axes

     site n.     atom                  positions (alat units)
         1           Mo  tau(   1) = (   0.0220291   0.7124903   0.7796612  )
         2           Mo  tau(   2) = (   0.2317957   0.6998475   1.0300777  )
         3           Mo  tau(   3) = (   0.0027518   0.9186795   0.9994849  )
         4           Mo  tau(   4) = (   0.2155634   0.9223949   0.8092643  )
         5           Mo  tau(   5) = (   0.6729689   0.0343380   0.7017960  )
         6           Mo  tau(   6) = (   0.8009002   0.1763510   0.9884201  )
         7           Mo  tau(   7) = (   0.4558682   0.4592350   1.0391717  )
         8           Mo  tau(   8) = (   0.7113938   0.3507195   0.7682988  )
         9           Mo  tau(   9) = (   0.0755654   0.1661641   0.1169361  )
        10           Mo  tau(  10) = (   0.5204242   0.2453347   0.5832847  )
        11           Mo  tau(  11) = (   0.2635205   0.2040935   0.3223619  )
        12           Mo  tau(  12) = (   0.3334208   0.4544235   0.0991304  )
        13           Mo  tau(  13) = (   0.5547321   0.6685683   0.1176082  )
        14           Mo  tau(  14) = (   0.7801499   0.6980027   0.5295320  )
        15           Mo  tau(  15) = (   0.6049687   0.8804777   0.3865563  )
        16           Mo  tau(  16) = (   0.7980979   0.8732793   0.1476403  )
        17           S   tau(  17) = (  -0.0279312   0.6705160   1.0179628  )
        18           S   tau(  18) = (   0.1188320   0.3979871   0.2136428  )
        19           S   tau(  19) = (   0.2649196   0.6909439   0.7654540  )
        20           S   tau(  20) = (   0.3542398   0.8522695   0.4485922  )
        21           S   tau(  21) = (   0.0382142   0.1237812   1.0100179  )
        22           S   tau(  22) = (   0.2157332   0.4359066   1.0050945  )
        23           S   tau(  23) = (   0.0379363   0.1374195   0.3713032  )
        24           S   tau(  24) = (   0.3369397   0.3657401   0.4820548  )
        25           S   tau(  25) = (   0.5877113   1.0409225   0.9528206  )
        26           S   tau(  26) = (   0.5631344   0.9290713   0.1456590  )
        27           S   tau(  27) = (   0.8759171   0.1706350   0.7410868  )
        28           S   tau(  28) = (   0.8040050   0.5820209   0.7517019  )
        29           S   tau(  29) = (   0.4954986   0.6920861   1.0120597  )
        30           S   tau(  30) = (   0.7405679   0.9073938   1.0324536  )
        31           S   tau(  31) = (   0.4208388   0.0384136   0.6940582  )
        32           S   tau(  32) = (   0.8527042   0.8933918   0.3882625  )
        33           S   tau(  33) = (   0.2729019   1.0274312   0.3524523  )
        34           S   tau(  34) = (  -0.0168446   0.9500355   0.7522584  )
        35           S   tau(  35) = (   0.3406600   0.1897218   0.0930006  )
        36           S   tau(  36) = (   0.3043314   0.6937037   0.1534352  )
        37           S   tau(  37) = (   0.0267120   0.6525051   0.5302890  )
        38           S   tau(  38) = (   0.6407800   0.8570054   0.6521282  )
        39           S   tau(  39) = (   0.0301635   0.9734529   0.1099141  )
        40           S   tau(  40) = (   0.2466568   0.9669698   1.0416917  )
        41           S   tau(  41) = (   0.5976940   0.6300786   0.3793638  )
        42           S   tau(  42) = (   0.4679709   0.3487363   0.8056921  )
        43           S   tau(  43) = (   0.8112187   0.6413071   0.1192692  )
        44           S   tau(  44) = (   0.8306493   0.1628464   0.0919332  )
        45           S   tau(  45) = (   0.6517216   0.0713711   0.4486027  )
        46           S   tau(  46) = (   0.7204744   0.3827098   0.5171408  )
        47           S   tau(  47) = (   0.5719962   0.4103551   0.1313003  )
        48           S   tau(  48) = (   0.7171594   0.4059397   1.0148994  )

     number of k points=     8  Marzari-Vanderbilt smearing, width (Ry)=  0.0200
                       cart. coord. in units 2pi/alat
        k(    1) = (   0.0000000   0.0000000   0.0000000), wk =   0.2500000
        k(    2) = (   0.0000000   0.0000000  -0.4377610), wk =   0.2500000
        k(    3) = (   0.0000000  -0.4718963  -0.0049392), wk =   0.2500000
        k(    4) = (   0.0000000  -0.4718963  -0.4427002), wk =   0.2500000
        k(    5) = (  -0.5000000  -0.0318241  -0.0344072), wk =   0.2500000
        k(    6) = (  -0.5000000  -0.0318241  -0.4721682), wk =   0.2500000
        k(    7) = (  -0.5000000  -0.5037204  -0.0393464), wk =   0.2500000
        k(    8) = (  -0.5000000  -0.5037204  -0.4771074), wk =   0.2500000

     Initial potential from superposition of free atoms

     starting charge  287.97477, renormalised to  288.00000
     Starting wfcs are  272 randomized atomic wfcs

     Self-consistent Calculation

[...]

     total energy              =   -1125.68051471 Ry
     Harris-Foulkes estimate   =   -1125.68051493 Ry
     estimated scf accuracy    <       0.00000167 Ry

     iteration # 15     ecut=    45.00 Ry     beta= 0.70
     Davidson diagonalization with overlap
     ethr =  5.80E-10,  avg # of iterations =  3.9

     End of self-consistent calculation

[...]

          k = 0.0000-0.4719-0.4427 ( 37802 PWs)   bands (ev):

[...]

          k =-0.5000-0.5037-0.4771 ( 37810 PWs)   bands (ev):

    -9.6232  -8.8525  -8.1486  -7.9835  -7.8618  -7.8297  -7.6917  -7.6155
    -7.4921  -7.4581  -7.3793  -7.3594  -7.3002  -7.2302  -7.1984  -7.1446
    -7.1044  -7.0549  -7.0425  -7.0165  -6.9290  -6.8456  -6.8138  -6.7717
    -6.7162  -6.6459  -6.5242  -6.3803  -6.2303  -6.0848  -5.9491  -5.0846
    -0.5278  -0.1123  -0.0462  -0.0009   0.0283   0.1248   0.1679   0.2426
     0.3191   0.3559   0.3715   0.4448   0.5390   0.5764   0.6217   0.6343
     0.7419   0.7538   0.8391   0.8418   0.9214   0.9603   0.9702   1.0479
     1.0656   1.0851   1.1237   1.1501   1.2326   1.2788   1.3202   1.3505
     1.4208   1.4615   1.4847   1.5130   1.5497   1.5740   1.6034   1.6596
     1.7222   1.7515   1.8061   1.8489   1.9006   1.9455   1.9531   2.0264
     2.0700   2.1059   2.1109   2.1217   2.1816   2.2416   2.2614   2.3100
     2.3517   2.3776   2.4266   2.4667   2.5027   2.5707   2.6082   2.6539
     2.6873   2.7802   2.8342   2.8556   2.9241   2.9542   2.9941   3.0886
     3.1771   3.2755   3.2809   3.3330   3.4250   3.5219   3.5518   3.6135
     3.6464   3.6649   3.7536   3.7948   3.8796   3.9437   3.9948   4.0782
     4.1706   4.2126   4.2451   4.4009   4.4211   4.5142   4.5537   4.5654
     4.6431   4.6635   4.7516   4.8086   4.8697   4.9854   5.0924   5.2043
     5.2514   5.3273   5.3769   5.4295   5.5205   5.5994   5.6535   5.6815
     5.7597   5.7936   5.9357   6.0204   6.0499   6.1187   6.1592   6.1736
     6.3013   6.3918   6.4291   6.4836   6.5572   6.6301   6.6545   6.7378
     6.7853   6.8385   6.8798   6.9364   6.9806   7.0701   7.1114   7.1753
     7.2253   7.2738   7.3033   7.3886   7.4216

     the Fermi energy is     5.7493 ev

!    total energy              =   -1125.68051465 Ry
     Harris-Foulkes estimate   =   -1125.68051493 Ry
     estimated scf accuracy    <       0.00000034 Ry

     The total energy is the sum of the following terms:

     one-electron contribution =    -139.22337687 Ry
     hartree contribution      =     222.65174572 Ry
     xc contribution           =    -444.07039816 Ry
     ewald contribution        =    -765.03264007 Ry
     smearing contrib. (-TS)   =      -0.00584527 Ry

     convergence has been achieved in  15 iterations

     Forces acting on atoms (cartesian axes, Ry/au):

     atom    1 type  1   force =    -0.00126356   -0.01773867   -0.01734381
     atom    2 type  1   force =    -0.00819095   -0.02515455   -0.01604748
     atom    3 type  1   force =     0.00441685   -0.00331634    0.00369457
     atom    4 type  1   force =     0.05027912    0.03090154   -0.02470240
     atom    5 type  1   force =     0.01169441    0.01827750    0.02990973
     atom    6 type  1   force =    -0.01146593   -0.01440648   -0.00688840
     atom    7 type  1   force =     0.03619252   -0.01613010   -0.02781469
     atom    8 type  1   force =     0.00614082    0.01681903    0.00013676
     atom    9 type  1   force =    -0.03733427    0.01976461   -0.01544417
     atom   10 type  1   force =     0.01859276    0.00939095   -0.03089864
     atom   11 type  1   force =     0.00937953   -0.04663502    0.04776516
     atom   12 type  1   force =     0.00966047    0.01023217    0.01000215
     atom   13 type  1   force =    -0.00146615   -0.00914162    0.00678928
     atom   14 type  1   force =     0.02558414   -0.05172420   -0.00970919
     atom   15 type  1   force =    -0.01389967    0.00267478   -0.00495180
     atom   16 type  1   force =     0.01222328   -0.01317079   -0.00205329
     atom   17 type  2   force =     0.03379381    0.01722725    0.01280093
     atom   18 type  2   force =    -0.00203120   -0.00554162   -0.00413940
     atom   19 type  2   force =     0.00129357   -0.00311695    0.02498361
     atom   20 type  2   force =     0.00360453    0.03662185   -0.01544944
     atom   21 type  2   force =     0.00079761    0.01740631    0.00461180
     atom   22 type  2   force =    -0.01120539    0.01768882   -0.01067843
     atom   23 type  2   force =     0.01134189    0.00427620   -0.02583621
     atom   24 type  2   force =    -0.00174253    0.01757975    0.00124609
     atom   25 type  2   force =    -0.01577375    0.00617986   -0.01338587
     atom   26 type  2   force =    -0.01643930   -0.00864186   -0.00465233
     atom   27 type  2   force =    -0.01641896   -0.00512282   -0.02131814
     atom   28 type  2   force =    -0.01178788    0.00809603    0.00374275
     atom   29 type  2   force =    -0.01773806    0.01383181    0.01029403
     atom   30 type  2   force =     0.00289590   -0.02133860    0.01178670
     atom   31 type  2   force =    -0.02218528   -0.01917354    0.02480441
     atom   32 type  2   force =     0.01623596    0.01769316    0.00379998
     atom   33 type  2   force =    -0.00615995   -0.01049289   -0.00489204
     atom   34 type  2   force =    -0.00532654   -0.00286198   -0.00372357
     atom   35 type  2   force =    -0.02393430    0.00556708    0.00618124
     atom   36 type  2   force =     0.00090219    0.00235698   -0.01325215
     atom   37 type  2   force =    -0.02817932    0.00476920    0.01710419
     atom   38 type  2   force =     0.00547326   -0.01177625   -0.00424998
     atom   39 type  2   force =     0.01993153   -0.02989254    0.00739020
     atom   40 type  2   force =    -0.01663730   -0.03526469    0.01660724
     atom   41 type  2   force =    -0.02310012    0.01503047    0.00071402
     atom   42 type  2   force =     0.00946818    0.00603910    0.01558792
     atom   43 type  2   force =     0.00319474    0.03278590    0.01087167
     atom   44 type  2   force =     0.01614550   -0.00075530   -0.00244159
     atom   45 type  2   force =     0.01312511    0.00785455    0.01939901
     atom   46 type  2   force =    -0.01239867   -0.00454345    0.00954415
     atom   47 type  2   force =    -0.01130199    0.02688468   -0.01430314
     atom   48 type  2   force =    -0.00638662   -0.01000931   -0.00559146

     Total force =     0.208920     Total SCF correction =     0.001132

     General routines

     Parallel routines

   This run was terminated on:  23:15:45  24Dec2021

   JOB DONE.