     Program PWSCF v.6.4 starts on 25Dec2021 at  0:12: 5

     R & G space division:  proc/nbgrp/npool/nimage =      40
     Waiting for input...
     Reading input from standard input
Warning: card    &IONS ignored
Warning: card      ION_DYNAMICS = 'BFGS' ignored
Warning: card   / ignored
Warning: card    &CELL ignored
Warning: card      CELL_DYNAMICS = 'BFGS', ignored
Warning: card    / ignored

     Current dimensions of program PWSCF are:
     Max number of different atomic species (ntypx) = 10
     Max number of k-points (npk) =  40000
     Max angular momentum in pseudopotentials (lmaxx) =  3

     bravais-lattice index     =            0
     lattice parameter (alat)  =      12.1536  a.u.
     unit-cell volume          =    5345.9129 (a.u.)^3
     number of atoms/cell      =           36
     number of atomic types    =            2
     number of electrons       =       216.00
     number of Kohn-Sham states=          130
     kinetic-energy cutoff     =      45.0000  Ry
     charge density cutoff     =     360.0000  Ry
     convergence threshold     =      1.0E-06
     mixing beta               =       0.7000
     number of iterations used =            8  local-TF  mixing
     Exchange-correlation      = SLA PW GGX GGC ( 1  4  2  2 0 0)

     celldm(1)=  12.153560  celldm(2)=   0.000000  celldm(3)=   0.000000
     celldm(4)=   0.000000  celldm(5)=   0.000000  celldm(6)=   0.000000

     crystal axes: (cart. coord. in units of alat)
               a(1) = (   1.000000   0.000000   0.000000 )
               a(2) = (  -0.500000   0.866026   0.000000 )
               a(3) = (   0.000000   0.000000   3.438592 )

     reciprocal axes: (cart. coord. in units 2 pi/alat)
               b(1) = (  1.000000  0.577350  0.000000 )
               b(2) = (  0.000000  1.154700  0.000000 )
               b(3) = (  0.000000  0.000000  0.290817 )

     PseudoPot. # 1 for Mo read from file:
     ~/pseudo/Mo.pw91-n-van.UPF
     MD5 check sum: Not computed, couldn't open file
     Pseudo is Ultrasoft + core correction, Zval =  6.0
     Generated by new atomic code, or converted to UPF format
     Using radial grid of  965 points,  3 beta functions with:
                l(1) =   1
                l(2) =   2
                l(3) =   2
     Q(r) pseudized with  8 coefficients,  rinner =    1.000   1.000   1.000
                                                       1.200   1.200

     PseudoPot. # 2 for S  read from file:
     ~/pseudo/S.pw91-van_ak.UPF
     MD5 check sum: Not computed, couldn't open file
     Pseudo is Ultrasoft, Zval =  6.0
     Generated by new atomic code, or converted to UPF format
     Using radial grid of  811 points,  6 beta functions with:
                l(1) =   0
                l(2) =   0
                l(3) =   1
                l(4) =   1
                l(5) =   2
                l(6) =   2
     Q(r) pseudized with  8 coefficients,  rinner =    1.100   1.100   1.100
                                                       1.100   1.100

     atomic species   valence    mass     pseudopotential
        Mo             6.00    95.50000     Mo( 1.00)
        S              6.00    32.06500     S ( 1.00)

     No symmetry found

   Cartesian axes

     site n.     atom                  positions (alat units)
         1           Mo  tau(   1) = (   0.2891023   0.7003672   1.5919958  )
         2           Mo  tau(   2) = (   0.4784499   0.0144794   2.8213246  )
         3           Mo  tau(   3) = (   0.3773061   0.6583486   0.3303406  )
         4           Mo  tau(   4) = (   0.5398468   0.2687308   1.5922719  )
         5           Mo  tau(   5) = (   0.7138459   0.4581400   2.8226150  )
         6           Mo  tau(   6) = (   0.6181527   0.2197504   0.3377220  )
         7           Mo  tau(   7) = (   0.9703537   0.0240002   2.8118300  )
         8           Mo  tau(   8) = (   0.0380015   0.2699968   1.6099096  )
         9           Mo  tau(   9) = (  -0.2134442   0.6994405   1.6103269  )
        10           Mo  tau(  10) = (   0.2232605   0.4569587   2.8117199  )
        11           Mo  tau(  11) = (   0.1269909   0.2132169   0.3407791  )
        12           Mo  tau(  12) = (  -0.1222302   0.6584250   0.3320593  )
        13           S   tau(  13) = (   0.2156327   0.7419430   2.5817416  )
        14           S   tau(  14) = (   0.2225781   0.7437076   3.0753058  )
        15           S   tau(  15) = (   0.3746326   0.0738429   0.0776264  )
        16           S   tau(  16) = (   0.3837772   0.0749236   0.5761465  )
        17           S   tau(  17) = (   0.5387038   0.5459069   1.3551369  )
        18           S   tau(  18) = (   0.5427745   0.5630905   1.8499344  )
        19           S   tau(  19) = (   0.4722500   0.3103489   2.5844034  )
        20           S   tau(  20) = (   0.4666828   0.3157531   3.0709170  )
        21           S   tau(  21) = (   0.6167890   0.5031673   0.0828523  )
        22           S   tau(  22) = (   0.6295919   0.5031482   0.5855584  )
        23           S   tau(  23) = (   0.7849861   0.1195658   1.3637951  )
        24           S   tau(  24) = (   0.7863889   0.1150998   1.8523466  )
        25           S   tau(  25) = (   0.8813010   0.0749631   0.0805102  )
        26           S   tau(  26) = (   0.8841382   0.0718347   0.5795438  )
        27           S   tau(  27) = (  -0.0265907   0.3178388   2.5703009  )
        28           S   tau(  28) = (  -0.0270567   0.3114736   3.0751825  )
        29           S   tau(  29) = (  -0.2777735   0.7449644   2.5841930  )
        30           S   tau(  30) = (  -0.2850400   0.7398610   3.0711816  )
        31           S   tau(  31) = (   0.1295960   0.5128248   0.0895340  )
        32           S   tau(  32) = (   0.1285234   0.5030521   0.5693247  )
        33           S   tau(  33) = (   0.2890235   0.1247967   1.3467659  )
        34           S   tau(  34) = (   0.2913618   0.1216242   1.8557921  )
        35           S   tau(  35) = (   0.0343174   0.5546298   1.3638563  )
        36           S   tau(  36) = (   0.0409112   0.5497266   1.8540822  )

     number of k points=     5  Marzari-Vanderbilt smearing, width (Ry)=  0.0200
                       cart. coord. in units 2pi/alat
        k(    1) = (   0.0000000   0.0000000   0.0000000), wk =   0.2222222
        k(    2) = (   0.0000000   0.3849001   0.0000000), wk =   0.4444444
        k(    3) = (   0.3333333   0.5773502   0.0000000), wk =   0.4444444
        k(    4) = (  -0.3333333   0.1924501   0.0000000), wk =   0.4444444
        k(    5) = (   0.3333333   0.1924501   0.0000000), wk =   0.4444444

     Initial potential from superposition of free atoms

     starting charge  215.98107, renormalised to  216.00000
     Starting wfcs are  204 randomized atomic wfcs

     Self-consistent Calculation

     iteration #  1     ecut=    45.00 Ry     beta= 0.70
     Davidson diagonalization with overlap
     ethr =  1.00E-02,  avg # of iterations =  2.0

     total energy              =    -844.12918623 Ry
     Harris-Foulkes estimate   =    -846.75064717 Ry
     estimated scf accuracy    <       6.71005566 Ry

[...]

     End of self-consistent calculation

          k = 0.0000 0.0000 0.0000 ( 27203 PWs)   bands (ev):

    -8.5998  -8.4237  -8.3466  -7.4860  -7.1954  -7.1794  -6.8966  -6.8527
    -6.8492  -6.7619  -6.7085  -6.7027  -6.6676  -6.6441  -6.5833  -6.5228
    -6.4985  -6.4859  -6.4848  -6.4214  -6.3851  -6.3635  -6.3243  -6.2725
    -0.3150  -0.2461  -0.2010  -0.1667  -0.1402  -0.1268  -0.0338  -0.0261
     0.0282   0.0559   0.1710   0.2885   0.5952   0.7137   0.7350   0.7787
     0.7956   0.8934   0.9361   0.9561   0.9742   1.2947   1.4743   1.5089
     1.5457   1.5872   1.5941   1.6386   1.7263   1.7457   2.2804   2.3327
     2.3894   2.4189   2.4671   2.4716   2.4850   2.5366   2.6163   2.8597
     2.9188   2.9452   2.9766   3.0467   3.0737   3.1250   3.1885   3.5020
     3.5564   3.6043   3.6566   3.6833   3.7328   3.7874   3.8257   3.9412
     4.0369   4.0595   4.0618   4.1528   4.1901   4.2342   4.4300   4.4549
     4.5096   4.5618   4.5800   4.6388   4.6765   4.7097   4.7200   4.7789
     4.8018   4.8472   4.9003   4.9151   4.9278   4.9357   5.0192   5.0260
     5.0943   5.3768   5.6223   5.8925   7.4355   7.4604   7.4711   7.4749
     7.5394   7.5550   7.5741   7.5764   7.6162   7.8641   7.9098   7.9612
     7.9764   7.9850   8.0161   8.0356   8.0784   8.0824   8.0970   8.1264
     8.1338   8.2011

[...]

          k =-0.3333 0.1925 0.0000 ( 27224 PWs)   bands (ev):

[...]

     the Fermi energy is     5.6809 ev

!    total energy              =    -845.43363899 Ry
     Harris-Foulkes estimate   =    -845.43363916 Ry
     estimated scf accuracy    <       0.00000021 Ry

     The total energy is the sum of the following terms:

     one-electron contribution =    -423.11700735 Ry
     hartree contribution      =     328.65734079 Ry
     xc contribution           =    -334.11601059 Ry
     ewald contribution        =    -416.88127273 Ry
     smearing contrib. (-TS)   =       0.02331089 Ry

     convergence has been achieved in  15 iterations

     Forces acting on atoms (cartesian axes, Ry/au):

     atom    1 type  1   force =    -0.00080079   -0.02957553    0.08694056
     atom    2 type  1   force =    -0.05625162    0.04784045    0.07256641
     atom    3 type  1   force =     0.01352198   -0.03559005    0.00707250
     atom    4 type  1   force =    -0.02541898   -0.02282221    0.09686207
     atom    5 type  1   force =     0.05526805   -0.02369807    0.03396722
     atom    6 type  1   force =     0.06862378   -0.00348041   -0.05886504
     atom    7 type  1   force =    -0.00484353    0.01407897    0.08399420
     atom    8 type  1   force =     0.00831080   -0.04343074   -0.01627711
     atom    9 type  1   force =     0.01945978    0.01921787   -0.03600850
     atom   10 type  1   force =    -0.02636099   -0.01365413    0.10160458
     atom   11 type  1   force =     0.01442634    0.02463455   -0.08574247
     atom   12 type  1   force =    -0.02511476   -0.04598998   -0.02149280
     atom   13 type  2   force =     0.02645500    0.00863980   -0.06264721
     atom   14 type  2   force =     0.01019802   -0.00452921   -0.04562096
     atom   15 type  2   force =    -0.00122339    0.00563286    0.04078501
     atom   16 type  2   force =    -0.02406165   -0.01109984    0.03926843
     atom   17 type  2   force =     0.01133185    0.04134052   -0.01867957
     atom   18 type  2   force =    -0.02577704   -0.02646969   -0.01493243
     atom   19 type  2   force =     0.00629276   -0.01683397   -0.04576344
     atom   20 type  2   force =     0.00093538   -0.02009513   -0.03195631
     atom   21 type  2   force =     0.02534240    0.01360701    0.03399030
     atom   22 type  2   force =    -0.00672953    0.02403114   -0.02299015
     atom   23 type  2   force =     0.03001285    0.01951660   -0.04445543
     atom   24 type  2   force =    -0.00363710    0.01481539   -0.02830402
     atom   25 type  2   force =    -0.01758387    0.01412662    0.04056645
     atom   26 type  2   force =    -0.03244422    0.00553312    0.01372451
     atom   27 type  2   force =    -0.02065160   -0.00797474    0.00090670
     atom   28 type  2   force =    -0.00626309    0.00321715   -0.06345597
     atom   29 type  2   force =     0.00381928   -0.00436788   -0.04397799
     atom   30 type  2   force =     0.00766155    0.01924588   -0.03225228
     atom   31 type  2   force =    -0.01064350   -0.01732039    0.01258182
     atom   32 type  2   force =    -0.00097283    0.02399246    0.03212993
     atom   33 type  2   force =    -0.01469931   -0.00930546    0.04022342
     atom   34 type  2   force =     0.00442309    0.01287757   -0.03068023
     atom   35 type  2   force =    -0.00604778   -0.00163004   -0.01975762
     atom   36 type  2   force =     0.00344266    0.02551953   -0.01332458

     Total force =     0.349423     Total SCF correction =     0.001202

     General routines

     Parallel routines

   This run was terminated on:   0:13:42  25Dec2021

   JOB DONE.

     Program PWSCF v.6.4 starts on 25Dec2021 at  0:14:49

     R & G space division:  proc/nbgrp/npool/nimage =      40
     Waiting for input...
     Reading input from standard input
Warning: card    &IONS ignored
Warning: card      ION_DYNAMICS = 'BFGS' ignored
Warning: card   / ignored
Warning: card    &CELL ignored
Warning: card      CELL_DYNAMICS = 'BFGS', ignored
Warning: card    / ignored

     Current dimensions of program PWSCF are:
     Max number of different atomic species (ntypx) = 10
     Max number of k-points (npk) =  40000
     Max angular momentum in pseudopotentials (lmaxx) =  3

     bravais-lattice index     =            0
     lattice parameter (alat)  =      12.1536  a.u.
     unit-cell volume          =    5345.9129 (a.u.)^3
     number of atoms/cell      =           36
     number of atomic types    =            2
     number of electrons       =       216.00
     number of Kohn-Sham states=          130
     kinetic-energy cutoff     =      45.0000  Ry
     charge density cutoff     =     360.0000  Ry
     convergence threshold     =      1.0E-06
     mixing beta               =       0.7000
     number of iterations used =            8  local-TF  mixing
     Exchange-correlation      = SLA PW GGX GGC ( 1  4  2  2 0 0)

     celldm(1)=  12.153560  celldm(2)=   0.000000  celldm(3)=   0.000000
     celldm(4)=   0.000000  celldm(5)=   0.000000  celldm(6)=   0.000000

     crystal axes: (cart. coord. in units of alat)
               a(1) = (   1.000000   0.000000   0.000000 )
               a(2) = (  -0.500000   0.866026   0.000000 )
               a(3) = (   0.000000   0.000000   3.438592 )

     reciprocal axes: (cart. coord. in units 2 pi/alat)
               b(1) = (  1.000000  0.577350  0.000000 )
               b(2) = (  0.000000  1.154700  0.000000 )
               b(3) = (  0.000000  0.000000  0.290817 )

     PseudoPot. # 1 for Mo read from file:
     ~/pseudo/Mo.pw91-n-van.UPF
     MD5 check sum: Not computed, couldn't open file
     Pseudo is Ultrasoft + core correction, Zval =  6.0
     Generated by new atomic code, or converted to UPF format
     Using radial grid of  965 points,  3 beta functions with:
                l(1) =   1
                l(2) =   2
                l(3) =   2
     Q(r) pseudized with  8 coefficients,  rinner =    1.000   1.000   1.000
                                                       1.200   1.200

     PseudoPot. # 2 for S  read from file:
     ~/pseudo/S.pw91-van_ak.UPF
     MD5 check sum: Not computed, couldn't open file
     Pseudo is Ultrasoft, Zval =  6.0
     Generated by new atomic code, or converted to UPF format
     Using radial grid of  811 points,  6 beta functions with:
                l(1) =   0
                l(2) =   0
                l(3) =   1
                l(4) =   1
                l(5) =   2
                l(6) =   2
     Q(r) pseudized with  8 coefficients,  rinner =    1.100   1.100   1.100
                                                       1.100   1.100

     atomic species   valence    mass     pseudopotential
        Mo             6.00    95.50000     Mo( 1.00)
        S              6.00    32.06500     S ( 1.00)

     No symmetry found

   Cartesian axes

     site n.     atom                  positions (alat units)
         1           Mo  tau(   1) = (   0.2891023   0.7003672   1.5919958  )
         2           Mo  tau(   2) = (   0.4784499   0.0144794   2.8213246  )
         3           Mo  tau(   3) = (   0.3773061   0.6583486   0.3303406  )
         4           Mo  tau(   4) = (   0.5398468   0.2687308   1.5922719  )
         5           Mo  tau(   5) = (   0.7138459   0.4581400   2.8226150  )
         6           Mo  tau(   6) = (   0.6181527   0.2197504   0.3377220  )
         7           Mo  tau(   7) = (   0.9703537   0.0240002   2.8118300  )
         8           Mo  tau(   8) = (   0.0380015   0.2699968   1.6099096  )
         9           Mo  tau(   9) = (  -0.2134442   0.6994405   1.6103269  )
        10           Mo  tau(  10) = (   0.2232605   0.4569587   2.8117199  )
        11           Mo  tau(  11) = (   0.1269909   0.2132169   0.3407791  )
        12           Mo  tau(  12) = (  -0.1222302   0.6584250   0.3320593  )
        13           S   tau(  13) = (   0.2156327   0.7419430   2.5817416  )
        14           S   tau(  14) = (   0.2225781   0.7437076   3.0753058  )
        15           S   tau(  15) = (   0.3746326   0.0738429   0.0776264  )
        16           S   tau(  16) = (   0.3837772   0.0749236   0.5761465  )
        17           S   tau(  17) = (   0.5387038   0.5459069   1.3551369  )
        18           S   tau(  18) = (   0.5427745   0.5630905   1.8499344  )
        19           S   tau(  19) = (   0.4722500   0.3103489   2.5844034  )
        20           S   tau(  20) = (   0.4666828   0.3157531   3.0709170  )
        21           S   tau(  21) = (   0.6167890   0.5031673   0.0828523  )
        22           S   tau(  22) = (   0.6295919   0.5031482   0.5855584  )
        23           S   tau(  23) = (   0.7849861   0.1195658   1.3637951  )
        24           S   tau(  24) = (   0.7863889   0.1150998   1.8523466  )
        25           S   tau(  25) = (   0.8813010   0.0749631   0.0805102  )
        26           S   tau(  26) = (   0.8841382   0.0718347   0.5795438  )
        27           S   tau(  27) = (  -0.0265907   0.3178388   2.5703009  )
        28           S   tau(  28) = (  -0.0270567   0.3114736   3.0751825  )
        29           S   tau(  29) = (  -0.2777735   0.7449644   2.5841930  )
        30           S   tau(  30) = (  -0.2850400   0.7398610   3.0711816  )
        31           S   tau(  31) = (   0.1295960   0.5128248   0.0895340  )
        32           S   tau(  32) = (   0.1285234   0.5030521   0.5693247  )
        33           S   tau(  33) = (   0.2890235   0.1247967   1.3467659  )
        34           S   tau(  34) = (   0.2913618   0.1216242   1.8557921  )
        35           S   tau(  35) = (   0.0343174   0.5546298   1.3638563  )
        36           S   tau(  36) = (   0.0409112   0.5497266   1.8540822  )

     number of k points=     5  Marzari-Vanderbilt smearing, width (Ry)=  0.0200
                       cart. coord. in units 2pi/alat
        k(    1) = (   0.0000000   0.0000000   0.0000000), wk =   0.2222222
        k(    2) = (   0.0000000   0.3849001   0.0000000), wk =   0.4444444
        k(    3) = (   0.3333333   0.5773502   0.0000000), wk =   0.4444444
        k(    4) = (  -0.3333333   0.1924501   0.0000000), wk =   0.4444444
        k(    5) = (   0.3333333   0.1924501   0.0000000), wk =   0.4444444

     Initial potential from superposition of free atoms

     starting charge  215.98107, renormalised to  216.00000
     Starting wfcs are  204 randomized atomic wfcs

     Self-consistent Calculation

[...]

     total energy              =    -845.43363899 Ry
     Harris-Foulkes estimate   =    -845.43363921 Ry
     estimated scf accuracy    <       0.00000152 Ry

     iteration # 15     ecut=    45.00 Ry     beta= 0.70
     Davidson diagonalization with overlap
     ethr =  7.02E-10,  avg # of iterations =  2.0

     End of self-consistent calculation

[...]

          k =-0.3333 0.1925 0.0000 ( 27224 PWs)   bands (ev):

[...]

          k = 0.3333 0.1925 0.0000 ( 27224 PWs)   bands (ev):

    -8.2347  -8.0705  -7.9876  -7.3704  -7.2859  -7.2382  -7.1512  -7.0203
    -7.0100  -6.9020  -6.8862  -6.8153  -6.7532  -6.7085  -6.6976  -6.6341
    -6.6128  -6.5693  -6.5327  -6.5106  -6.3972  -6.3605  -6.3346  -6.2969
     0.0737   0.1911   0.2371   0.2844   0.3341   0.3893   0.4330   0.4573
     0.4772   0.5191   0.6275   0.6585   0.6919   0.6987   0.7601   0.8336
     0.8953   0.9249   1.1992   1.3963   1.4683   1.5562   1.6590   1.6944
     1.7222   1.7503   1.7786   1.8441   1.9060   1.9322   2.0911   2.1736
     2.2143   2.2733   2.3176   2.4467   2.4594   2.4725   2.5155   2.5329
     2.6641   2.7529   2.8047   2.8372   2.9530   3.0254   3.0949   3.2092
     3.2563   3.3065   3.3120   3.3610   3.3669   3.4729   3.5361   3.5764
     3.6092   3.6787   3.7218   3.7537   3.8373   3.8707   3.8913   3.9603
     3.9893   4.0343   4.1602   4.1864   4.2560   4.3599   4.4396   4.5241
     4.5896   4.7402   4.8132   4.9267   4.9975   5.0715   5.1071   5.1364
     5.1921   5.2227   5.3112   5.3473   7.3082   7.3431   7.4313   7.4561
     7.5040   7.5377   7.5704   7.6218   7.6267   7.6772   7.6925   7.7197
     7.8052   7.8106   7.8375   7.9175   7.9326   7.9793   8.0030   8.0161
     8.0398   8.0771

     the Fermi energy is     5.6809 ev

!    total energy              =    -845.43363899 Ry
     Harris-Foulkes estimate   =    -845.43363916 Ry
     estimated scf accuracy    <       0.00000021 Ry

     The total energy is the sum of the following terms:

     one-electron contribution =    -423.11700735 Ry
     hartree contribution      =     328.65734079 Ry
     xc contribution           =    -334.11601059 Ry
     ewald contribution        =    -416.88127273 Ry
     smearing contrib. (-TS)   =       0.02331089 Ry

     convergence has been achieved in  15 iterations

     Forces acting on atoms (cartesian axes, Ry/au):

     atom    1 type  1   force =    -0.00080079   -0.02957553    0.08694056
     atom    2 type  1   force =    -0.05625162    0.04784045    0.07256641
     atom    3 type  1   force =     0.01352198   -0.03559005    0.00707250
     atom    4 type  1   force =    -0.02541898   -0.02282221    0.09686207
     atom    5 type  1   force =     0.05526805   -0.02369807    0.03396722
     atom    6 type  1   force =     0.06862378   -0.00348041   -0.05886504
     atom    7 type  1   force =    -0.00484353    0.01407897    0.08399420
     atom    8 type  1   force =     0.00831080   -0.04343074   -0.01627711
     atom    9 type  1   force =     0.01945978    0.01921787   -0.03600850
     atom   10 type  1   force =    -0.02636099   -0.01365413    0.10160458
     atom   11 type  1   force =     0.01442634    0.02463455   -0.08574247
     atom   12 type  1   force =    -0.02511476   -0.04598998   -0.02149280
     atom   13 type  2   force =     0.02645500    0.00863980   -0.06264721
     atom   14 type  2   force =     0.01019802   -0.00452921   -0.04562096
     atom   15 type  2   force =    -0.00122339    0.00563286    0.04078501
     atom   16 type  2   force =    -0.02406165   -0.01109984    0.03926843
     atom   17 type  2   force =     0.01133185    0.04134052   -0.01867957
     atom   18 type  2   force =    -0.02577704   -0.02646969   -0.01493243
     atom   19 type  2   force =     0.00629276   -0.01683397   -0.04576344
     atom   20 type  2   force =     0.00093538   -0.02009513   -0.03195631
     atom   21 type  2   force =     0.02534240    0.01360701    0.03399030
     atom   22 type  2   force =    -0.00672953    0.02403114   -0.02299015
     atom   23 type  2   force =     0.03001285    0.01951660   -0.04445543
     atom   24 type  2   force =    -0.00363710    0.01481539   -0.02830402
     atom   25 type  2   force =    -0.01758387    0.01412662    0.04056645
     atom   26 type  2   force =    -0.03244422    0.00553312    0.01372451
     atom   27 type  2   force =    -0.02065160   -0.00797474    0.00090670
     atom   28 type  2   force =    -0.00626309    0.00321715   -0.06345597
     atom   29 type  2   force =     0.00381928   -0.00436788   -0.04397799
     atom   30 type  2   force =     0.00766155    0.01924588   -0.03225228
     atom   31 type  2   force =    -0.01064350   -0.01732039    0.01258182
     atom   32 type  2   force =    -0.00097283    0.02399246    0.03212993
     atom   33 type  2   force =    -0.01469931   -0.00930546    0.04022342
     atom   34 type  2   force =     0.00442309    0.01287757   -0.03068023
     atom   35 type  2   force =    -0.00604778   -0.00163004   -0.01975762
     atom   36 type  2   force =     0.00344266    0.02551953   -0.01332458

     Total force =     0.349423     Total SCF correction =     0.001202

     General routines

     Parallel routines

   This run was terminated on:   0:16:24  25Dec2021

   JOB DONE.