     Program PWSCF v.6.4 starts on 19Nov2021 at 19:45:45

     R & G space division:  proc/nbgrp/npool/nimage =      40
     Waiting for input...
     Reading input from standard input
Warning: card    &IONS ignored
Warning: card      ION_DYNAMICS = 'BFGS' ignored
Warning: card   / ignored
Warning: card    &CELL ignored
Warning: card      CELL_DYNAMICS = 'BFGS', ignored
Warning: card    / ignored

     Current dimensions of program PWSCF are:
     Max number of different atomic species (ntypx) = 10
     Max number of k-points (npk) =  40000
     Max angular momentum in pseudopotentials (lmaxx) =  3

     bravais-lattice index     =            0
     lattice parameter (alat)  =      11.9867  a.u.
     unit-cell volume          =    7607.4641 (a.u.)^3
     number of atoms/cell      =           36
     number of atomic types    =            2
     number of electrons       =       216.00
     number of Kohn-Sham states=          130
     kinetic-energy cutoff     =      45.0000  Ry
     charge density cutoff     =     360.0000  Ry
     convergence threshold     =      1.0E-06
     mixing beta               =       0.7000
     number of iterations used =            8  local-TF  mixing
     Exchange-correlation      = SLA PW GGX GGC ( 1  4  2  2 0 0)

     celldm(1)=  11.986738  celldm(2)=   0.000000  celldm(3)=   0.000000
     celldm(4)=   0.000000  celldm(5)=   0.000000  celldm(6)=   0.000000

     crystal axes: (cart. coord. in units of alat)
               a(1) = (   1.000000   0.000000   0.000000 )
               a(2) = (   0.032480   1.763823   0.000000 )
               a(3) = (   0.428723   0.148208   2.504274 )

     reciprocal axes: (cart. coord. in units 2 pi/alat)
               b(1) = (  1.000000 -0.018414 -0.170107 )
               b(2) = (  0.000000  0.566950 -0.033553 )
               b(3) = (  0.000000  0.000000  0.399317 )

     PseudoPot. # 1 for Mo read from file:
     ~/pseudo/Mo.pw91-n-van.UPF
     MD5 check sum: Not computed, couldn't open file
     Pseudo is Ultrasoft + core correction, Zval =  6.0
     Generated by new atomic code, or converted to UPF format
     Using radial grid of  965 points,  3 beta functions with:
                l(1) =   1
                l(2) =   2
                l(3) =   2
     Q(r) pseudized with  8 coefficients,  rinner =    1.000   1.000   1.000
                                                       1.200   1.200

     PseudoPot. # 2 for S  read from file:
     ~/pseudo/S.pw91-van_ak.UPF
     MD5 check sum: Not computed, couldn't open file
     Pseudo is Ultrasoft, Zval =  6.0
     Generated by new atomic code, or converted to UPF format
     Using radial grid of  811 points,  6 beta functions with:
                l(1) =   0
                l(2) =   0
                l(3) =   1
                l(4) =   1
                l(5) =   2
                l(6) =   2
     Q(r) pseudized with  8 coefficients,  rinner =    1.100   1.100   1.100
                                                       1.100   1.100

     atomic species   valence    mass     pseudopotential
        Mo             6.00    95.50000     Mo( 1.00)
        S              6.00    32.06500     S ( 1.00)

     No symmetry found

   Cartesian axes

     site n.     atom                  positions (alat units)
         1           Mo  tau(   1) = (   1.0061353   0.3458189   1.6064888  )
         2           Mo  tau(   2) = (   0.7650082   0.7873996   1.6020225  )
         3           Mo  tau(   3) = (   0.5071390   0.3465913   1.6077584  )
         4           Mo  tau(   4) = (   1.2650337   0.7875525   1.6019791  )
         5           Mo  tau(   5) = (   0.5225253   1.2282523   1.6026340  )
         6           Mo  tau(   6) = (   1.0232355   1.2279519   1.6033485  )
         7           Mo  tau(   7) = (   1.2792357   1.6689666   1.6098299  )
         8           Mo  tau(   8) = (   0.7810491   1.6699561   1.6097975  )
         9           Mo  tau(   9) = (   0.4157959   0.0939044   0.6950434  )
        10           Mo  tau(  10) = (   0.9258397   0.1199443   0.6469937  )
        11           Mo  tau(  11) = (   0.1194396   1.4927191   0.4983081  )
        12           Mo  tau(  12) = (   0.6082423   1.5173364   0.4433783  )
        13           S   tau(  13) = (   0.7588332   0.4964770   1.8563816  )
        14           S   tau(  14) = (   1.0325125   1.8186237   1.8607274  )
        15           S   tau(  15) = (   1.2583069   0.4954912   1.8550325  )
        16           S   tau(  16) = (   0.5316299   1.8179143   1.8603233  )
        17           S   tau(  17) = (   0.3501435   1.3699885   0.2393544  )
        18           S   tau(  18) = (   0.8494038   1.2522090   0.5184461  )
        19           S   tau(  19) = (   0.7569634   0.4939959   1.3550079  )
        20           S   tau(  20) = (   1.0303451   1.8162198   1.3586791  )
        21           S   tau(  21) = (   1.2576423   0.4940033   1.3564263  )
        22           S   tau(  22) = (   0.5300682   1.8166570   1.3629406  )
        23           S   tau(  23) = (   0.4193843   1.4756775   0.7616735  )
        24           S   tau(  24) = (   0.9193716   1.7349693   0.2953614  )
        25           S   tau(  25) = (   0.5168029   0.9351867   1.8522154  )
        26           S   tau(  26) = (   1.0167839   0.9347669   1.8524917  )
        27           S   tau(  27) = (   0.5155818   0.9367376   1.3507417  )
        28           S   tau(  28) = (   1.0154928   0.9365145   1.3507817  )
        29           S   tau(  29) = (   0.2727852   1.3797670   1.3538235  )
        30           S   tau(  30) = (   0.7739867   1.3797147   1.3554623  )
        31           S   tau(  31) = (   0.6879969   0.2010155   0.9054210  )
        32           S   tau(  32) = (   0.1784174   0.3735551   0.6845609  )
        33           S   tau(  33) = (   1.2748098   1.3743371   1.8561890  )
        34           S   tau(  34) = (   0.7743932   1.3750282   1.8550818  )
        35           S   tau(  35) = (   0.6153217   0.1369735   0.3833998  )
        36           S   tau(  36) = (   1.1508286   1.6401286   0.8553134  )

     number of k points=     4  Marzari-Vanderbilt smearing, width (Ry)=  0.0200
                       cart. coord. in units 2pi/alat
        k(    1) = (   0.0000000   0.0000000   0.0000000), wk =   0.3333333
        k(    2) = (   0.0000000  -0.2834751   0.0167767), wk =   0.3333333
        k(    3) = (   0.3333333  -0.0061381  -0.0567022), wk =   0.6666667
        k(    4) = (   0.3333333  -0.2896132  -0.0399256), wk =   0.6666667

     Initial potential from superposition of free atoms

     starting charge  215.98107, renormalised to  216.00000

     negative rho (up, down):  4.266E-06 0.000E+00
     Starting wfcs are  204 randomized atomic wfcs

     Self-consistent Calculation

     iteration #  1     ecut=    45.00 Ry     beta= 0.70
     Davidson diagonalization with overlap
     ethr =  1.00E-02,  avg # of iterations =  2.0

     total energy              =    -843.67463759 Ry
     Harris-Foulkes estimate   =    -846.07630584 Ry
     estimated scf accuracy    <       6.15864838 Ry

[...]

     negative rho (up, down):  1.131E-05 0.000E+00

[...]

     total energy              =    -844.86264735 Ry
     Harris-Foulkes estimate   =    -844.86264748 Ry
     estimated scf accuracy    <       0.00000113 Ry

     iteration # 18     ecut=    45.00 Ry     beta= 0.70
     Davidson diagonalization with overlap
     ethr =  5.23E-10,  avg # of iterations =  4.0

[...]

     End of self-consistent calculation

          k = 0.0000 0.0000 0.0000 ( 38783 PWs)   bands (ev):

   -13.4193 -13.1716 -11.8919 -11.1322 -11.1209 -10.7200 -10.3656 -10.3559
   -10.1476 -10.1346 -10.1132 -10.1026 -10.0529  -9.9457  -9.9130  -9.8845
    -9.8574  -9.8247  -9.8124  -9.7893  -9.5474  -9.5329  -9.4108  -9.2174
    -3.7083  -3.5669  -3.5499  -3.5352  -3.4958  -3.3991  -3.0201  -2.9744
    -2.9173  -2.9027  -2.8782  -2.7688  -2.7030  -2.6918  -2.6901  -2.6317
    -2.5925  -2.5821  -2.5327  -1.9039  -1.8922  -1.8731  -1.8315  -1.6750
    -1.6565  -1.5560  -1.4661  -1.4237  -1.3794  -1.3406  -1.2641  -1.1498
    -1.1181  -1.0963  -0.9863  -0.9246  -0.9019  -0.8837  -0.8059  -0.7153
    -0.6860  -0.6620  -0.6392  -0.5672  -0.5534  -0.5197  -0.3443  -0.2647
    -0.2118  -0.1488  -0.1326   0.0035   0.1066   0.2092   0.2636   0.3484
     0.4218   0.4530   0.4983   0.5176   0.5219   0.6182   0.7089   0.7855
     0.8104   0.8280   0.9075   1.0900   1.2862   1.3371   1.3408   1.3554
     1.4199   1.4605   1.5683   1.5897   1.6055   1.8280   2.0211   2.2283
     2.4174   2.6179   2.8753   3.1269   3.1547   3.2677   3.3663   3.5689
     3.7718   4.1498   4.1672   4.1855   4.1952   4.2266   4.2394   4.2476
     4.4498   4.4673   4.5542   4.6187   4.7167   4.7455   4.7647   4.8032
     4.8379   4.8592

[...]

          k = 0.3333-0.2896-0.0399 ( 38762 PWs)   bands (ev):

   -13.3512 -13.2264 -11.4254 -11.3938 -10.7550 -10.7121 -10.5012 -10.4675
   -10.3195 -10.2871 -10.1744 -10.1223 -10.0375  -9.9925  -9.9754  -9.9455
    -9.8440  -9.8130  -9.7777  -9.7522  -9.6294  -9.6069  -9.3773  -9.2683
    -3.6642  -3.6404  -3.0925  -2.9997  -2.9519  -2.9382  -2.9230  -2.8959
    -2.8745  -2.8644  -2.8507  -2.8471  -2.8002  -2.7292  -2.6852  -2.5329
    -2.4172  -2.3637  -1.8534  -1.8089  -1.7494  -1.6748  -1.6533  -1.6384
    -1.6033  -1.5867  -1.5616  -1.3924  -1.3187  -1.2472  -1.2327  -1.1245
    -1.0796  -1.0428  -1.0322  -0.9961  -0.9618  -0.9397  -0.8688  -0.7961
    -0.7635  -0.6991  -0.6573  -0.6531  -0.6259  -0.5858  -0.5620  -0.5079
    -0.3056  -0.2698  -0.1792  -0.1428  -0.1263  -0.0558   0.0121   0.0317
     0.1654   0.2058   0.2343   0.3027   0.4144   0.5000   0.5385   0.5785
     0.5887   0.6443   0.7025   0.7366   1.0638   1.1154   1.1777   1.2538
     1.4926   1.5799   1.6228   1.6821   1.7143   1.8085   1.8382   2.0466
     2.0925   2.3366   3.0579   3.1231   3.2397   3.5349   3.7655   3.8268
     4.0593   4.0910   4.1142   4.1372   4.1528   4.1816   4.2113   4.2238
     4.2470   4.2977   4.3937   4.4353   4.4672   4.4833   4.4964   4.5806
     4.6151   4.6542

     the Fermi energy is     3.2005 ev

!    total energy              =    -844.86264734 Ry
     Harris-Foulkes estimate   =    -844.86264771 Ry
     estimated scf accuracy    <       0.00000051 Ry

     The total energy is the sum of the following terms:

     one-electron contribution =   -1407.02271465 Ry
     hartree contribution      =     793.85967951 Ry
     xc contribution           =    -334.17339128 Ry
     ewald contribution        =     102.48862937 Ry
     smearing contrib. (-TS)   =      -0.01485029 Ry

     convergence has been achieved in  18 iterations

     negative rho (up, down):  3.079E-05 0.000E+00

     Forces acting on atoms (cartesian axes, Ry/au):

     atom    1 type  1   force =    -0.00199732    0.00348632    0.00144276
     atom    2 type  1   force =    -0.00178269    0.00296074    0.00417408
     atom    3 type  1   force =    -0.00394167    0.00194057   -0.00102779
     atom    4 type  1   force =    -0.00376767    0.00313942    0.00429299
     atom    5 type  1   force =    -0.00201764    0.00413058    0.00546656
     atom    6 type  1   force =    -0.00287391    0.00304867    0.00320950
     atom    7 type  1   force =    -0.00076191   -0.00020012    0.00215961
     atom    8 type  1   force =    -0.00407150   -0.00181242   -0.00029030
     atom    9 type  1   force =     0.00336572   -0.05671952    0.03497414
     atom   10 type  1   force =    -0.00738312    0.02107038   -0.06966584
     atom   11 type  1   force =    -0.00559752   -0.01130869    0.05782443
     atom   12 type  1   force =     0.01874499    0.04051003   -0.05337132
     atom   13 type  2   force =     0.00037695    0.00069163   -0.00387273
     atom   14 type  2   force =    -0.00154189   -0.00003354   -0.00458832
     atom   15 type  2   force =    -0.00097743    0.00291180   -0.00044964
     atom   16 type  2   force =     0.00104511   -0.00002061   -0.00358847
     atom   17 type  2   force =     0.00975266    0.00292758   -0.04188729
     atom   18 type  2   force =     0.00933314   -0.03590642    0.02555207
     atom   19 type  2   force =     0.00344769   -0.00249108    0.00358940
     atom   20 type  2   force =     0.00388817    0.00123911    0.00205601
     atom   21 type  2   force =     0.00177364   -0.00521591   -0.00255091
     atom   22 type  2   force =     0.00168215   -0.00175670   -0.00470805
     atom   23 type  2   force =     0.11408756   -0.04706081   -0.01360583
     atom   24 type  2   force =     0.11367848   -0.05184310   -0.04339981
     atom   25 type  2   force =     0.00011644    0.00022006   -0.00216006
     atom   26 type  2   force =    -0.00049452    0.00005442   -0.00178395
     atom   27 type  2   force =     0.00238205   -0.00216697    0.00512764
     atom   28 type  2   force =     0.00293707   -0.00179684    0.00529248
     atom   29 type  2   force =     0.00359077   -0.00305377    0.00680818
     atom   30 type  2   force =     0.00159778   -0.00127871    0.00101066
     atom   31 type  2   force =    -0.01590421    0.00515989    0.05538481
     atom   32 type  2   force =    -0.00924875    0.03961446   -0.02135510
     atom   33 type  2   force =    -0.00081285   -0.00292917   -0.00459303
     atom   34 type  2   force =     0.00038392   -0.00380113   -0.00150830
     atom   35 type  2   force =    -0.11721238    0.05603107    0.01695136
     atom   36 type  2   force =    -0.11179731    0.04025876    0.03909007

     Total force =     0.306293     Total SCF correction =     0.001135

     General routines

     Parallel routines

   This run was terminated on:  19:48: 6  19Nov2021

   JOB DONE.