     Program PWSCF v.6.4 starts on 18Oct2021 at 16:55: 2

     R & G space division:  proc/nbgrp/npool/nimage =      40
     Waiting for input...
     Reading input from standard input
Warning: card    &IONS ignored
Warning: card      ION_DYNAMICS = 'BFGS' ignored
Warning: card   / ignored
Warning: card    &CELL ignored
Warning: card      CELL_DYNAMICS = 'BFGS', ignored
Warning: card    / ignored

     Current dimensions of program PWSCF are:
     Max number of different atomic species (ntypx) = 10
     Max number of k-points (npk) =  40000
     Max angular momentum in pseudopotentials (lmaxx) =  3

     bravais-lattice index     =            0
     lattice parameter (alat)  =      12.1750  a.u.
     unit-cell volume          =    6624.4892 (a.u.)^3
     number of atoms/cell      =           24
     number of atomic types    =            2
     number of electrons       =       144.00
     number of Kohn-Sham states=           86
     kinetic-energy cutoff     =      45.0000  Ry
     charge density cutoff     =     360.0000  Ry
     convergence threshold     =      1.0E-06
     mixing beta               =       0.7000
     number of iterations used =            8  local-TF  mixing
     Exchange-correlation      = SLA PW GGX GGC ( 1  4  2  2 0 0)

     celldm(1)=  12.174973  celldm(2)=   0.000000  celldm(3)=   0.000000
     celldm(4)=   0.000000  celldm(5)=   0.000000  celldm(6)=   0.000000

     crystal axes: (cart. coord. in units of alat)
               a(1) = (   0.999894  -0.014483   0.001279 )
               a(2) = (  -0.272789   0.901510  -0.003274 )
               a(3) = (  -0.039691  -0.249968   4.090843 )

     reciprocal axes: (cart. coord. in units 2 pi/alat)
               b(1) = (  1.004474  0.304048  0.028325 )
               b(2) = (  0.016054  1.114356  0.068248 )
               b(3) = ( -0.000301  0.000797  0.244494 )

     PseudoPot. # 1 for Mo read from file:
     ~/pseudo/Mo.pw91-n-van.UPF
     MD5 check sum: Not computed, couldn't open file
     Pseudo is Ultrasoft + core correction, Zval =  6.0
     Generated by new atomic code, or converted to UPF format
     Using radial grid of  965 points,  3 beta functions with:
                l(1) =   1
                l(2) =   2
                l(3) =   2
     Q(r) pseudized with  8 coefficients,  rinner =    1.000   1.000   1.000
                                                       1.200   1.200

     PseudoPot. # 2 for S  read from file:
     ~/pseudo/S.pw91-van_ak.UPF
     MD5 check sum: Not computed, couldn't open file
     Pseudo is Ultrasoft, Zval =  6.0
     Generated by new atomic code, or converted to UPF format
     Using radial grid of  811 points,  6 beta functions with:
                l(1) =   0
                l(2) =   0
                l(3) =   1
                l(4) =   1
                l(5) =   2
                l(6) =   2
     Q(r) pseudized with  8 coefficients,  rinner =    1.100   1.100   1.100
                                                       1.100   1.100

     atomic species   valence    mass     pseudopotential
        Mo             6.00    95.50000     Mo( 1.00)
        S              6.00    32.06500     S ( 1.00)

     No symmetry found

   Cartesian axes

     site n.     atom                  positions (alat units)
         1           Mo  tau(   1) = (   0.0310521   0.1354774   0.5906045  )
         2           Mo  tau(   2) = (  -0.0054903   0.5895120   0.5970732  )
         3           Mo  tau(   3) = (   0.4891349   0.5801128   0.5936604  )
         4           Mo  tau(   4) = (   0.5336377   0.1214798   0.6031854  )
         5           Mo  tau(   5) = (   0.6409993   0.5027209   3.5325620  )
         6           Mo  tau(   6) = (   0.6863458   0.0335784   3.4875254  )
         7           Mo  tau(   7) = (   0.1933547   0.0269442   3.4926322  )
         8           Mo  tau(   8) = (   0.2069184   0.4783061   3.4882094  )
         9           S   tau(   9) = (   0.5001119   0.8640616   0.3417257  )
        10           S   tau(  10) = (   0.7342642   0.4020073   0.3732269  )
        11           S   tau(  11) = (   0.2302469   0.4190399   0.3663640  )
        12           S   tau(  12) = (  -0.0040220   0.8748786   0.3476002  )
        13           S   tau(  13) = (   0.6560847  -0.2307172   3.7620418  )
        14           S   tau(  14) = (   0.4502197   0.2169629   3.7246738  )
        15           S   tau(  15) = (  -0.0559012   0.2377917   3.7043859  )
        16           S   tau(  16) = (   0.1474403  -0.1958746   3.7926775  )
        17           S   tau(  17) = (   0.4150491   0.6687140   3.2291028  )
        18           S   tau(  18) = (   0.4488939   0.2409978   3.2668739  )
        19           S   tau(  19) = (  -0.0406362   0.1258591   3.2286811  )
        20           S   tau(  20) = (  -0.0791993   0.5985513   3.2639086  )
        21           S   tau(  21) = (   0.4973210   0.8700261   0.8404789  )
        22           S   tau(  22) = (   0.7290953   0.4110560   0.8219246  )
        23           S   tau(  23) = (   0.2373206   0.4070640   0.8201721  )
        24           S   tau(  24) = (   0.2723867  -0.0317214   0.8497126  )

     number of k points=     5  Marzari-Vanderbilt smearing, width (Ry)=  0.0200
                       cart. coord. in units 2pi/alat
        k(    1) = (   0.0000000   0.0000000   0.0000000), wk =   0.2222222
        k(    2) = (   0.0053513   0.3714519   0.0227492), wk =   0.4444444
        k(    3) = (   0.3348245   0.1013494   0.0094415), wk =   0.4444444
        k(    4) = (   0.3401758   0.4728014   0.0321908), wk =   0.4444444
        k(    5) = (   0.3294732  -0.2701025  -0.0133077), wk =   0.4444444

     Initial potential from superposition of free atoms

     starting charge  143.98738, renormalised to  144.00000

     negative rho (up, down):  8.832E-04 0.000E+00
     Starting wfcs are  136 randomized atomic wfcs

     Self-consistent Calculation

     iteration #  1     ecut=    45.00 Ry     beta= 0.70
     Davidson diagonalization with overlap
     ethr =  1.00E-02,  avg # of iterations =  2.4

     negative rho (up, down):  1.865E-04 0.000E+00

     total energy              =    -562.03624527 Ry
     Harris-Foulkes estimate   =    -564.00994953 Ry
     estimated scf accuracy    <       5.22434087 Ry

[...]

     iteration # 14     ecut=    45.00 Ry     beta= 0.70
     Davidson diagonalization with overlap
     c_bands:  2 eigenvalues not converged
     ethr =  4.44E-06,  avg # of iterations = 12.6

[...]

     total energy              =    -563.08571867 Ry
     Harris-Foulkes estimate   =    -563.08571723 Ry
     estimated scf accuracy    <       0.00000148 Ry

     iteration # 26     ecut=    45.00 Ry     beta= 0.70
     Davidson diagonalization with overlap
     ethr =  1.03E-09,  avg # of iterations =  3.4

[...]

     End of self-consistent calculation

          k = 0.0000 0.0000 0.0000 ( 33693 PWs)   bands (ev):

   -13.8852 -13.6163 -12.8554 -12.4534 -12.3422 -12.2774 -12.1994 -12.0131
   -11.8961 -11.8458 -11.8418 -11.6312 -11.5542 -11.4698 -11.2922 -10.9267
    -5.7134  -5.5131  -5.4809  -5.2246  -5.1383  -4.9725  -4.9299  -4.7625
    -4.5325  -4.4319  -4.3377  -4.3027  -4.2417  -4.0491  -3.8760  -3.6534
    -3.4887  -3.4673  -3.3313  -3.3030  -3.2480  -3.1995  -2.8155  -2.6517
    -2.5333  -2.4765  -2.4506  -2.3227  -2.1183  -2.0439  -1.9872  -1.8740
    -1.8483  -1.7584  -1.6512  -1.5430  -1.4873  -1.4777  -1.3976  -1.3461
    -1.3125  -1.2458  -1.0352  -0.9636  -0.8314  -0.6223  -0.5378  -0.4626
    -0.4404  -0.3856   0.0238   0.1414   0.1852   0.3568   0.5972   0.6467
     1.0679   1.4813   1.5451   1.9792   2.0551   2.1741   2.1840   2.2863
     2.3998   2.5238   2.5351   2.6481   2.7206   2.7978

[...]

          k = 0.3295-0.2701-0.0133 ( 33774 PWs)   bands (ev):

   -13.5216 -13.1938 -12.8022 -12.5765 -12.4210 -12.3107 -12.1686 -12.0621
   -12.0439 -12.0208 -11.9409 -11.9068 -11.7251 -11.5374 -11.4264 -11.1957
    -5.1813  -4.8953  -4.7786  -4.7357  -4.6211  -4.6096  -4.4268  -4.4069
    -4.3887  -4.2213  -4.0063  -3.9587  -3.7667  -3.7067  -3.6544  -3.5794
    -3.5413  -3.4595  -3.3989  -3.2607  -3.2427  -2.9858  -2.9706  -2.8351
    -2.7626  -2.7180  -2.6747  -2.6565  -2.5708  -2.4658  -2.2916  -2.2357
    -2.1523  -2.0305  -1.9490  -1.8517  -1.7832  -1.7217  -1.6691  -1.5884
    -1.5031  -1.3794  -1.1917  -1.1150  -1.0799  -0.8561  -0.5534  -0.4426
    -0.3254  -0.2547  -0.1482  -0.1086  -0.0666   0.4589   0.5985   0.6125
     0.9352   1.1253   1.3778   1.5174   1.6572   1.8309   1.9113   2.0813
     2.1812   2.2386   2.2762   2.3284   2.4004   2.4796

     the Fermi energy is     0.7668 ev

!    total energy              =    -563.08571973 Ry
     Harris-Foulkes estimate   =    -563.08571883 Ry
     estimated scf accuracy    <       0.00000029 Ry

     The total energy is the sum of the following terms:

     one-electron contribution =   -3657.26237703 Ry
     hartree contribution      =    1878.84821092 Ry
     xc contribution           =    -222.08608400 Ry
     ewald contribution        =    1437.40755763 Ry
     smearing contrib. (-TS)   =       0.00697275 Ry

     convergence has been achieved in  26 iterations

     negative rho (up, down):  1.221E-03 0.000E+00

     Forces acting on atoms (cartesian axes, Ry/au):

     atom    1 type  1   force =     0.02505007   -0.02269810    0.01969094
     atom    2 type  1   force =    -0.02802186   -0.01121915   -0.00174219
     atom    3 type  1   force =     0.00093814    0.00338150   -0.00185194
     atom    4 type  1   force =     0.01372183    0.00764802   -0.02695614
     atom    5 type  1   force =    -0.01360587    0.00466121   -0.04151790
     atom    6 type  1   force =     0.01560960    0.01490259    0.01515946
     atom    7 type  1   force =    -0.00910241   -0.01680442    0.00648499
     atom    8 type  1   force =    -0.00202912    0.00469282    0.01709887
     atom    9 type  2   force =    -0.00487328   -0.00924238    0.03087545
     atom   10 type  2   force =    -0.00874046    0.01816566   -0.01899566
     atom   11 type  2   force =    -0.00737793    0.00976845   -0.02282207
     atom   12 type  2   force =     0.01652790   -0.01201458    0.01738674
     atom   13 type  2   force =     0.01005699    0.00840309   -0.02766848
     atom   14 type  2   force =    -0.00496256    0.00094442    0.01054140
     atom   15 type  2   force =    -0.00188384   -0.00306027   -0.02293569
     atom   16 type  2   force =     0.01183052   -0.01693279   -0.05085076
     atom   17 type  2   force =     0.01263802   -0.01753514    0.03760296
     atom   18 type  2   force =    -0.01750053   -0.01916701    0.01204046
     atom   19 type  2   force =    -0.00629773    0.02018908    0.00612959
     atom   20 type  2   force =     0.00608264    0.02004867    0.03889620
     atom   21 type  2   force =     0.01787636   -0.02141384   -0.01144442
     atom   22 type  2   force =    -0.00438524    0.01265489    0.02548241
     atom   23 type  2   force =    -0.01646679    0.02303092    0.01775000
     atom   24 type  2   force =    -0.00508445    0.00159637   -0.02835423

     Total force =     0.153149     Total SCF correction =     0.001200

     General routines

     Parallel routines

   This run was terminated on:  16:56:46  18Oct2021

   JOB DONE.