     Program PWSCF v.6.4 starts on 18Nov2021 at 17: 5: 8

     R & G space division:  proc/nbgrp/npool/nimage =      40
     Waiting for input...
     Reading input from standard input
Warning: card    &IONS ignored
Warning: card      ION_DYNAMICS = 'BFGS' ignored
Warning: card   / ignored
Warning: card    &CELL ignored
Warning: card      CELL_DYNAMICS = 'BFGS', ignored
Warning: card    / ignored

     Current dimensions of program PWSCF are:
     Max number of different atomic species (ntypx) = 10
     Max number of k-points (npk) =  40000
     Max angular momentum in pseudopotentials (lmaxx) =  3

     bravais-lattice index     =            0
     lattice parameter (alat)  =      11.7669  a.u.
     unit-cell volume          =    4779.9169 (a.u.)^3
     number of atoms/cell      =           18
     number of atomic types    =            2
     number of electrons       =       108.00
     number of Kohn-Sham states=           65
     kinetic-energy cutoff     =      45.0000  Ry
     charge density cutoff     =     360.0000  Ry
     convergence threshold     =      1.0E-06
     mixing beta               =       0.7000
     number of iterations used =            8  local-TF  mixing
     Exchange-correlation      = SLA PW GGX GGC ( 1  4  2  2 0 0)

     celldm(1)=  11.766903  celldm(2)=   0.000000  celldm(3)=   0.000000
     celldm(4)=   0.000000  celldm(5)=   0.000000  celldm(6)=   0.000000

     crystal axes: (cart. coord. in units of alat)
               a(1) = (   1.000000   0.000000   0.000000 )
               a(2) = (   0.497227   0.890732   0.000000 )
               a(3) = (   0.081610   0.458238   3.293721 )

     reciprocal axes: (cart. coord. in units 2 pi/alat)
               b(1) = (  1.000000 -0.558223  0.052885 )
               b(2) = (  0.000000  1.122672 -0.156191 )
               b(3) = (  0.000000  0.000000  0.303608 )

     PseudoPot. # 1 for Mo read from file:
     ~/pseudo/Mo.pw91-n-van.UPF
     MD5 check sum: Not computed, couldn't open file
     Pseudo is Ultrasoft + core correction, Zval =  6.0
     Generated by new atomic code, or converted to UPF format
     Using radial grid of  965 points,  3 beta functions with:
                l(1) =   1
                l(2) =   2
                l(3) =   2
     Q(r) pseudized with  8 coefficients,  rinner =    1.000   1.000   1.000
                                                       1.200   1.200

     PseudoPot. # 2 for S  read from file:
     ~/pseudo/S.pw91-van_ak.UPF
     MD5 check sum: Not computed, couldn't open file
     Pseudo is Ultrasoft, Zval =  6.0
     Generated by new atomic code, or converted to UPF format
     Using radial grid of  811 points,  6 beta functions with:
                l(1) =   0
                l(2) =   0
                l(3) =   1
                l(4) =   1
                l(5) =   2
                l(6) =   2
     Q(r) pseudized with  8 coefficients,  rinner =    1.100   1.100   1.100
                                                       1.100   1.100

     atomic species   valence    mass     pseudopotential
        Mo             6.00    95.50000     Mo( 1.00)
        S              6.00    32.06500     S ( 1.00)

     No symmetry found

   Cartesian axes

     site n.     atom                  positions (alat units)
         1           Mo  tau(   1) = (   0.5304218   0.4055427   1.9627605  )
         2           Mo  tau(   2) = (   1.2784351   0.8507449   1.9589026  )
         3           Mo  tau(   3) = (   1.0316276   0.4033529   1.9621575  )
         4           Mo  tau(   4) = (   0.7782802   0.8513763   1.9630236  )
         5           Mo  tau(   5) = (   0.4414178   0.7282870   1.0386649  )
         6           Mo  tau(   6) = (   0.9041066   0.7261523   1.0469161  )
         7           S   tau(   7) = (   0.2804775   0.5571340   2.2176236  )
         8           S   tau(   8) = (   1.0296560   1.0011851   2.2186596  )
         9           S   tau(   9) = (   0.7811190   0.5552584   2.2199691  )
        10           S   tau(  10) = (   0.5269725   0.9996648   2.2182648  )
        11           S   tau(  11) = (   0.6636657   0.5385220   1.2452451  )
        12           S   tau(  12) = (   1.1772322   0.9027159   1.2204767  )
        13           S   tau(  13) = (   0.2806180   0.5546757   1.7049908  )
        14           S   tau(  14) = (   1.0263569   1.0033750   1.7059781  )
        15           S   tau(  15) = (   0.7826916   0.5563048   1.7120433  )
        16           S   tau(  16) = (   0.5291671   1.0002583   1.7044276  )
        17           S   tau(  17) = (   0.1801239   0.1299941   0.9298399  )
        18           S   tau(  18) = (   1.1707941   0.4682720   0.9272522  )

     number of k points=     5  Marzari-Vanderbilt smearing, width (Ry)=  0.0200
                       cart. coord. in units 2pi/alat
        k(    1) = (   0.0000000   0.0000000   0.0000000), wk =   0.2222222
        k(    2) = (   0.0000000   0.3742241  -0.0520638), wk =   0.4444444
        k(    3) = (   0.3333333  -0.1860744   0.0176284), wk =   0.4444444
        k(    4) = (   0.3333333   0.1881498  -0.0344354), wk =   0.4444444
        k(    5) = (   0.3333333  -0.5602985   0.0696921), wk =   0.4444444

     Initial potential from superposition of free atoms

     starting charge  107.99054, renormalised to  108.00000

     negative rho (up, down):  4.935E-04 0.000E+00
     Starting wfcs are  102 randomized atomic wfcs

     Self-consistent Calculation

     iteration #  1     ecut=    45.00 Ry     beta= 0.70
     Davidson diagonalization with overlap
     ethr =  1.00E-02,  avg # of iterations =  2.0

     negative rho (up, down):  2.540E-06 0.000E+00

     total energy              =    -421.77220235 Ry
     Harris-Foulkes estimate   =    -422.93676820 Ry
     estimated scf accuracy    <       2.98880263 Ry

[...]

     total energy              =    -422.34013483 Ry
     Harris-Foulkes estimate   =    -422.34013770 Ry
     estimated scf accuracy    <       0.00000130 Ry

     iteration # 18     ecut=    45.00 Ry     beta= 0.70
     Davidson diagonalization with overlap
     ethr =  1.20E-09,  avg # of iterations =  3.2

[...]

     End of self-consistent calculation

          k = 0.0000 0.0000 0.0000 ( 24379 PWs)   bands (ev):

   -13.7835 -13.5868 -12.4303 -11.8121 -11.7163 -11.6361 -11.6061 -11.5507
   -11.4265 -11.4213 -11.1226 -10.2071  -5.6501  -5.2534  -5.2183  -5.2054
    -5.1022  -4.3349  -4.3255  -4.2732  -3.6548  -3.5580  -3.5083  -3.3452
    -2.9541  -2.7072  -2.6362  -2.6128  -2.5718  -2.5187  -2.4329  -2.2693
    -2.1827  -2.0414  -1.9566  -1.7404  -1.5734  -1.4245  -1.3485  -1.1091
    -0.8646  -0.6924  -0.6175  -0.3113  -0.2730  -0.1730  -0.0768  -0.0450
    -0.0083   0.0637   0.3988   0.5237   1.1525   1.3258   1.6083   1.6515
     2.1426   2.8082   2.8254   2.8331   3.0821   3.2945   3.2967   3.3479
     3.3986

[...]

          k = 0.3333-0.5603 0.0697 ( 24348 PWs)   bands (ev):

   -13.6277 -12.5681 -12.5196 -12.4773 -11.9330 -11.8976 -11.8412 -11.5305
   -11.4230 -11.3599 -11.2657 -10.5614  -4.8254  -4.7970  -4.3935  -4.3253
    -4.3098  -4.0353  -3.5844  -3.4972  -3.3888  -3.2974  -3.2242  -3.1383
    -3.1099  -3.0756  -3.0337  -2.9444  -2.7930  -2.7203  -2.6552  -2.5763
    -2.5158  -2.3686  -2.3387  -1.9995  -1.8964  -1.6757  -1.6107  -1.4561
    -1.3027  -1.2708  -1.2177  -0.5863  -0.5101  -0.4665  -0.3758  -0.2433
    -0.1935  -0.1577   0.0814   0.5993   0.8541   1.4863   1.7423   1.9334
     2.3814   2.4009   2.4218   2.4772   2.7157   2.9581   3.0158   3.0624
     3.1218

     the Fermi energy is     1.5529 ev

!    total energy              =    -422.34013387 Ry
     Harris-Foulkes estimate   =    -422.34013507 Ry
     estimated scf accuracy    <       0.00000053 Ry

     The total energy is the sum of the following terms:

     one-electron contribution =   -2027.05110319 Ry
     hartree contribution      =    1052.78809015 Ry
     xc contribution           =    -167.13967296 Ry
     ewald contribution        =     719.06727278 Ry
     smearing contrib. (-TS)   =      -0.00472065 Ry

     convergence has been achieved in  18 iterations

     negative rho (up, down):  7.129E-04 0.000E+00

     Forces acting on atoms (cartesian axes, Ry/au):

     atom    1 type  1   force =     0.00275804    0.00361342    0.00630547
     atom    2 type  1   force =    -0.00196678    0.00186570    0.01145500
     atom    3 type  1   force =     0.00065607    0.00686625    0.01115496
     atom    4 type  1   force =     0.00459742    0.00051465    0.00827836
     atom    5 type  1   force =    -0.05372171    0.02204385   -0.01301192
     atom    6 type  1   force =     0.04676142    0.01326253   -0.00011913
     atom    7 type  2   force =    -0.00131955   -0.00245881    0.00283952
     atom    8 type  2   force =    -0.00140362   -0.00141442    0.00092809
     atom    9 type  2   force =     0.00009494   -0.00103107   -0.00002845
     atom   10 type  2   force =     0.00044371   -0.00031412    0.00304052
     atom   11 type  2   force =     0.00952622   -0.03329246    0.01342103
     atom   12 type  2   force =    -0.00253801    0.02300740    0.02092955
     atom   13 type  2   force =    -0.00041673   -0.00149692   -0.00462603
     atom   14 type  2   force =    -0.00006402   -0.00276144   -0.00014452
     atom   15 type  2   force =    -0.00230498   -0.00119443   -0.00637598
     atom   16 type  2   force =     0.00012320    0.00025375   -0.00508709
     atom   17 type  2   force =     0.00215494   -0.13592731   -0.03270774
     atom   18 type  2   force =    -0.00338057    0.10846341   -0.01625164

     Total force =     0.201108     Total SCF correction =     0.001482

     General routines

     Parallel routines

   This run was terminated on:  17: 6: 5  18Nov2021

   JOB DONE.