     Program PWSCF v.6.4 starts on 12Aug2021 at 14: 0: 1

     R & G space division:  proc/nbgrp/npool/nimage =      40
     Waiting for input...
     Reading input from standard input
Warning: card    &IONS ignored
Warning: card      ION_DYNAMICS = 'BFGS' ignored
Warning: card   / ignored
Warning: card    &CELL ignored
Warning: card      CELL_DYNAMICS = 'BFGS', ignored
Warning: card    / ignored

     Current dimensions of program PWSCF are:
     Max number of different atomic species (ntypx) = 10
     Max number of k-points (npk) =  40000
     Max angular momentum in pseudopotentials (lmaxx) =  3

     bravais-lattice index     =            0
     lattice parameter (alat)  =      13.0868  a.u.
     unit-cell volume          =    3407.8099 (a.u.)^3
     number of atoms/cell      =           24
     number of atomic types    =            2
     number of electrons       =       144.00
     number of Kohn-Sham states=           86
     kinetic-energy cutoff     =      45.0000  Ry
     charge density cutoff     =     360.0000  Ry
     convergence threshold     =      1.0E-06
     mixing beta               =       0.7000
     number of iterations used =            8  local-TF  mixing
     Exchange-correlation      = SLA PW GGX GGC ( 1  4  2  2 0 0)

     celldm(1)=  13.086770  celldm(2)=   0.000000  celldm(3)=   0.000000
     celldm(4)=   0.000000  celldm(5)=   0.000000  celldm(6)=   0.000000

     crystal axes: (cart. coord. in units of alat)
               a(1) = (   0.999847  -0.015963   0.007107 )
               a(2) = (  -0.501654   0.834425  -0.004958 )
               a(3) = (  -0.164020  -0.170722   1.839245 )

     reciprocal axes: (cart. coord. in units 2 pi/alat)
               b(1) = (  1.008809  0.607362  0.146340 )
               b(2) = (  0.018512  1.210237  0.113987 )
               b(3) = ( -0.003848  0.000915  0.543443 )

     PseudoPot. # 1 for Mo read from file:
     ~/pseudo/Mo.pw91-n-van.UPF
     MD5 check sum: Not computed, couldn't open file
     Pseudo is Ultrasoft + core correction, Zval =  6.0
     Generated by new atomic code, or converted to UPF format
     Using radial grid of  965 points,  3 beta functions with:
                l(1) =   1
                l(2) =   2
                l(3) =   2
     Q(r) pseudized with  8 coefficients,  rinner =    1.000   1.000   1.000
                                                       1.200   1.200

     PseudoPot. # 2 for S  read from file:
     ~/pseudo/S.pw91-van_ak.UPF
     MD5 check sum: Not computed, couldn't open file
     Pseudo is Ultrasoft, Zval =  6.0
     Generated by new atomic code, or converted to UPF format
     Using radial grid of  811 points,  6 beta functions with:
                l(1) =   0
                l(2) =   0
                l(3) =   1
                l(4) =   1
                l(5) =   2
                l(6) =   2
     Q(r) pseudized with  8 coefficients,  rinner =    1.100   1.100   1.100
                                                       1.100   1.100

     atomic species   valence    mass     pseudopotential
        Mo             6.00    95.50000     Mo( 1.00)
        S              6.00    32.06500     S ( 1.00)

     No symmetry found

   Cartesian axes

     site n.     atom                  positions (alat units)
         1           Mo  tau(   1) = (   0.0409829   0.2382519   0.5694819  )
         2           Mo  tau(   2) = (  -0.2051807   0.6337919   0.4062857  )
         3           Mo  tau(   3) = (   0.5677069   0.1999440   0.4256266  )
         4           Mo  tau(   4) = (   0.3189798   0.6020959   0.5296409  )
         5           Mo  tau(   5) = (  -0.0468078  -0.0658536   1.3422325  )
         6           Mo  tau(   6) = (  -0.2334774   0.3342305   1.3157663  )
         7           Mo  tau(   7) = (   0.5080925   0.0102168   1.3910936  )
         8           Mo  tau(   8) = (   0.2691362   0.3931457   1.3896369  )
         9           S   tau(   9) = (   0.1093606  -0.1054035   0.6985020  )
        10           S   tau(  10) = (   0.0015375   0.5514974   0.6964891  )
        11           S   tau(  11) = (   0.7438357   0.0707081   0.7088502  )
        12           S   tau(  12) = (   0.3671805   0.3121553   0.7034945  )
        13           S   tau(  13) = (  -0.2135487   0.1277556   1.5807303  )
        14           S   tau(  14) = (  -0.4854278   0.5422551   1.5771745  )
        15           S   tau(  15) = (   0.2504701   0.1121891   1.6215635  )
        16           S   tau(  16) = (  -0.0242118   0.5325216   1.5725228  )
        17           S   tau(  17) = (   0.2431370   0.1174332   0.2887410  )
        18           S   tau(  18) = (   0.1084792   0.7388834   0.2409407  )
        19           S   tau(  19) = (   0.8721738   0.2974226   0.2837401  )
        20           S   tau(  20) = (   0.5064919   0.5077702   0.2366755  )
        21           S   tau(  21) = (   0.0237903   0.2371168   1.1284683  )
        22           S   tau(  22) = (  -0.2424656   0.6801083   1.1535173  )
        23           S   tau(  23) = (   0.4808582   0.2520364   1.1421092  )
        24           S   tau(  24) = (   0.1981834   0.6454813   1.1368497  )

     number of k points=    10  Marzari-Vanderbilt smearing, width (Ry)=  0.0200
                       cart. coord. in units 2pi/alat
        k(    1) = (   0.0000000   0.0000000   0.0000000), wk =   0.1111111
        k(    2) = (   0.0019241  -0.0004576  -0.2717216), wk =   0.1111111
        k(    3) = (   0.0061705   0.4034123   0.0379957), wk =   0.2222222
        k(    4) = (   0.0080947   0.4029546  -0.2337259), wk =   0.2222222
        k(    5) = (   0.3362697   0.2024542   0.0487800), wk =   0.2222222
        k(    6) = (   0.3381939   0.2019965  -0.2229416), wk =   0.2222222
        k(    7) = (   0.3424402   0.6058664   0.0867758), wk =   0.2222222
        k(    8) = (   0.3443644   0.6054088  -0.1849459), wk =   0.2222222
        k(    9) = (   0.3300992  -0.2009581   0.0107843), wk =   0.2222222
        k(   10) = (   0.3320234  -0.2014158  -0.2609373), wk =   0.2222222

     Initial potential from superposition of free atoms

     starting charge  143.98738, renormalised to  144.00000
     Starting wfcs are  136 randomized atomic wfcs

     Self-consistent Calculation

     iteration #  1     ecut=    45.00 Ry     beta= 0.70
     Davidson diagonalization with overlap
     ethr =  1.00E-02,  avg # of iterations =  2.0

     total energy              =    -561.87880099 Ry
     Harris-Foulkes estimate   =    -564.04296394 Ry
     estimated scf accuracy    <       6.01214687 Ry

[...]

     iteration #  6     ecut=    45.00 Ry     beta= 0.70
     Davidson diagonalization with overlap
     c_bands:  1 eigenvalues not converged
     ethr =  1.69E-05,  avg # of iterations =  8.9

[...]

     total energy              =    -563.02712175 Ry
     Harris-Foulkes estimate   =    -563.02712198 Ry
     estimated scf accuracy    <       0.00000210 Ry

     iteration # 14     ecut=    45.00 Ry     beta= 0.70
     Davidson diagonalization with overlap
     ethr =  1.46E-09,  avg # of iterations =  1.0

     End of self-consistent calculation

          k = 0.0000 0.0000 0.0000 ( 17365 PWs)   bands (ev):

    -7.8061  -7.2192  -6.9691  -6.4579  -6.2483  -6.1645  -6.1312  -6.1153
    -6.0561  -5.9878  -5.9273  -5.7909  -5.7327  -5.3547  -5.2621  -5.1021
     0.1481   0.7589   0.8746   0.9833   1.0382   1.0576   1.2472   1.3270
     1.5175   1.6948   1.7313   1.9677   2.0552   2.1438   2.2611   2.3316
     2.4452   2.5258   2.6161   2.6231   2.7787   2.8449   2.9669   2.9723
     3.0118   3.3169   3.4406   3.5510   3.5664   3.7612   3.8966   3.9888
     4.0646   4.1385   4.1776   4.3865   4.4359   4.5353   4.5558   4.6458
     4.6693   4.7438   4.9483   5.0167   5.1614   5.3805   5.4481   5.6459
     5.7426   5.8747   5.9367   6.0903   6.2148   6.4045   6.5599   6.6697
     6.7501   6.7855   6.9931   7.0740   7.2488   7.4709   7.7429   7.9615
     7.9984   8.0989   8.1662   8.4111   8.5238   8.5891

[...]

          k = 0.3320-0.2014-0.2609 ( 17379 PWs)   bands (ev):

    -7.4779  -6.9983  -6.8250  -6.6044  -6.5396  -6.4517  -6.3359  -6.2254
    -6.1263  -6.0644  -5.7785  -5.7006  -5.6311  -5.3856  -5.3189  -5.1614
     0.7158   0.8333   1.1658   1.2728   1.3249   1.4016   1.4174   1.5591
     1.5893   1.6655   1.7842   1.8882   1.9647   2.0030   2.0527   2.1152
     2.2764   2.4859   2.7266   2.8531   2.9108   2.9947   3.0713   3.1362
     3.2237   3.2960   3.3774   3.4399   3.5925   3.6599   3.7535   3.8096
     3.8982   3.9431   4.0490   4.1545   4.1787   4.2125   4.2937   4.3478
     4.4767   4.6424   4.7522   4.8512   4.8956   5.0321   5.2978   5.4052
     5.7541   5.8969   5.9623   6.0430   6.3170   6.4619   6.5508   6.6322
     6.8723   7.1532   7.2611   7.3354   7.5022   7.5794   7.7702   7.8806
     7.9977   8.0636   8.1961   8.2615   8.3977   8.5377

     the Fermi energy is     6.6923 ev

!    total energy              =    -563.02712106 Ry
     Harris-Foulkes estimate   =    -563.02712183 Ry
     estimated scf accuracy    <       0.00000086 Ry

     The total energy is the sum of the following terms:

     one-electron contribution =      -8.53908465 Ry
     hartree contribution      =      85.96645278 Ry
     xc contribution           =    -221.85594471 Ry
     ewald contribution        =    -418.59903152 Ry
     smearing contrib. (-TS)   =       0.00048704 Ry

     convergence has been achieved in  14 iterations

     Forces acting on atoms (cartesian axes, Ry/au):

     atom    1 type  1   force =    -0.00795883   -0.04811475   -0.01779341
     atom    2 type  1   force =     0.01035814    0.00104355    0.01660096
     atom    3 type  1   force =    -0.01858876    0.00377110   -0.01337737
     atom    4 type  1   force =     0.00345115    0.02243874   -0.00329753
     atom    5 type  1   force =     0.00958806    0.03432158   -0.01228020
     atom    6 type  1   force =    -0.00431891    0.05769371    0.01607319
     atom    7 type  1   force =    -0.01338065    0.00667475   -0.00390894
     atom    8 type  1   force =    -0.00962708    0.00320140   -0.00286059
     atom    9 type  2   force =    -0.00520279    0.01139097   -0.01950205
     atom   10 type  2   force =     0.00485477   -0.00499837   -0.01176363
     atom   11 type  2   force =     0.01443272    0.02275665   -0.01292575
     atom   12 type  2   force =    -0.01053957   -0.00155874   -0.01049640
     atom   13 type  2   force =    -0.01040444   -0.02683433    0.01978416
     atom   14 type  2   force =    -0.00313129   -0.02646160   -0.00299850
     atom   15 type  2   force =     0.02255852    0.00677322   -0.06060036
     atom   16 type  2   force =     0.01948134   -0.01690562   -0.04491910
     atom   17 type  2   force =     0.01389007    0.01091710    0.00459618
     atom   18 type  2   force =    -0.00902661   -0.01641576    0.03179055
     atom   19 type  2   force =    -0.00126896    0.00996011   -0.00929702
     atom   20 type  2   force =     0.00062120   -0.00889226    0.02786031
     atom   21 type  2   force =    -0.02131917   -0.02246286    0.02083946
     atom   22 type  2   force =    -0.01974573   -0.02234741    0.04673101
     atom   23 type  2   force =     0.01516473   -0.00257540    0.00130421
     atom   24 type  2   force =     0.02011210    0.00662420    0.04044080

     Total force =     0.172443     Total SCF correction =     0.001820

     General routines

     Parallel routines

   This run was terminated on:  14: 1:13  12Aug2021

   JOB DONE.