     Program PWSCF v.6.4 starts on  8Sep2021 at 13:22:32

     R & G space division:  proc/nbgrp/npool/nimage =      40
     Waiting for input...
     Reading input from standard input
Warning: card    &IONS ignored
Warning: card      ION_DYNAMICS = 'BFGS' ignored
Warning: card   / ignored
Warning: card    &CELL ignored
Warning: card      CELL_DYNAMICS = 'BFGS', ignored
Warning: card    / ignored

     Current dimensions of program PWSCF are:
     Max number of different atomic species (ntypx) = 10
     Max number of k-points (npk) =  40000
     Max angular momentum in pseudopotentials (lmaxx) =  3

     gamma-point specific algorithms are used

     bravais-lattice index     =            0
     lattice parameter (alat)  =      33.8969  a.u.
     unit-cell volume          =   50337.3375 (a.u.)^3
     number of atoms/cell      =           30
     number of atomic types    =            2
     number of electrons       =       180.00
     number of Kohn-Sham states=          108
     kinetic-energy cutoff     =      45.0000  Ry
     charge density cutoff     =     360.0000  Ry
     convergence threshold     =      1.0E-06
     mixing beta               =       0.7000
     number of iterations used =            8  local-TF  mixing
     Exchange-correlation      = SLA PW GGX GGC ( 1  4  2  2 0 0)

     celldm(1)=  33.896874  celldm(2)=   0.000000  celldm(3)=   0.000000
     celldm(4)=   0.000000  celldm(5)=   0.000000  celldm(6)=   0.000000

     crystal axes: (cart. coord. in units of alat)
               a(1) = (   0.999991  -0.003464   0.002576 )
               a(2) = (  -0.003606   1.064330  -0.000272 )
               a(3) = (   0.005865   0.029179   1.214359 )

     reciprocal axes: (cart. coord. in units 2 pi/alat)
               b(1) = (  1.000034  0.003387 -0.004911 )
               b(2) = (  0.003313  0.939564 -0.022592 )
               b(3) = ( -0.002120  0.000203  0.823485 )

     PseudoPot. # 1 for Mo read from file:
     ~/pseudo/Mo.pw91-n-van.UPF
     MD5 check sum: Not computed, couldn't open file
     Pseudo is Ultrasoft + core correction, Zval =  6.0
     Generated by new atomic code, or converted to UPF format
     Using radial grid of  965 points,  3 beta functions with:
                l(1) =   1
                l(2) =   2
                l(3) =   2
     Q(r) pseudized with  8 coefficients,  rinner =    1.000   1.000   1.000
                                                       1.200   1.200

     PseudoPot. # 2 for S  read from file:
     ~/pseudo/S.pw91-van_ak.UPF
     MD5 check sum: Not computed, couldn't open file
     Pseudo is Ultrasoft, Zval =  6.0
     Generated by new atomic code, or converted to UPF format
     Using radial grid of  811 points,  6 beta functions with:
                l(1) =   0
                l(2) =   0
                l(3) =   1
                l(4) =   1
                l(5) =   2
                l(6) =   2
     Q(r) pseudized with  8 coefficients,  rinner =    1.100   1.100   1.100
                                                       1.100   1.100

     atomic species   valence    mass     pseudopotential
        Mo             6.00    95.50000     Mo( 1.00)
        S              6.00    32.06500     S ( 1.00)

     No symmetry found

   Cartesian axes

     site n.     atom                  positions (alat units)
         1           Mo  tau(   1) = (   0.6020920   0.4454322   0.4178073  )
         2           Mo  tau(   2) = (   0.4117699   0.4917198   0.8073348  )
         3           Mo  tau(   3) = (   0.6263493   0.4597627   0.6270651  )
         4           Mo  tau(   4) = (   0.4186957   0.6233270   0.7070391  )
         5           Mo  tau(   5) = (   0.5666284   0.6642703   0.6079388  )
         6           Mo  tau(   6) = (   0.4156273   0.4129392   0.6709138  )
         7           Mo  tau(   7) = (   0.3973710   0.6099863   0.5372715  )
         8           Mo  tau(   8) = (   0.5398275   0.3999244   0.7675796  )
         9           Mo  tau(   9) = (   0.4169902   0.4295636   0.5166323  )
        10           Mo  tau(  10) = (   0.5213085   0.6574353   0.4607365  )
        11           S   tau(  11) = (   0.3488303   0.5305482   0.6379690  )
        12           S   tau(  12) = (   0.5178481   0.7108217   0.7148833  )
        13           S   tau(  13) = (   0.6854466   0.4232126   0.5159423  )
        14           S   tau(  14) = (   0.5240358   0.3858424   0.5917772  )
        15           S   tau(  15) = (   0.4949980   0.4296155   0.8861559  )
        16           S   tau(  16) = (   0.5174793   0.5594956   0.5492732  )
        17           S   tau(  17) = (   0.4008583   0.6945636   0.4350163  )
        18           S   tau(  18) = (   0.3622872   0.6117724   0.8217789  )
        19           S   tau(  19) = (   0.4987270   0.5094122   0.7063255  )
        20           S   tau(  20) = (   0.5981161   0.7473477   0.5162187  )
        21           S   tau(  21) = (   0.4707461   0.3014995   0.7344914  )
        22           S   tau(  22) = (   0.3452965   0.5180904   0.4576051  )
        23           S   tau(  23) = (   0.3422425   0.6936160   0.6264026  )
        24           S   tau(  24) = (   0.6660504   0.3964549   0.7330577  )
        25           S   tau(  25) = (   0.3244296   0.4079093   0.7752026  )
        26           S   tau(  26) = (   0.3425949   0.3475796   0.5761001  )
        27           S   tau(  27) = (   0.6640047   0.4057638   0.3232261  )
        28           S   tau(  28) = (   0.6646427   0.5864473   0.6345141  )
        29           S   tau(  29) = (   0.5837346   0.5726814   0.3856568  )
        30           S   tau(  30) = (   0.4906499   0.3808058   0.4177899  )

     number of k points=     1  Marzari-Vanderbilt smearing, width (Ry)=  0.0200
                       cart. coord. in units 2pi/alat
        k(    1) = (   0.0000000   0.0000000   0.0000000), wk =   2.0000000

     Initial potential from superposition of free atoms

     starting charge  179.98423, renormalised to  180.00000

     negative rho (up, down):  7.529E-03 0.000E+00
     Starting wfcs are  170 randomized atomic wfcs

     Self-consistent Calculation

     iteration #  1     ecut=    45.00 Ry     beta= 0.70
     Davidson diagonalization with overlap
     ethr =  1.00E-02,  avg # of iterations =  2.0

     negative rho (up, down):  5.926E-03 0.000E+00

     total energy              =    -701.70773238 Ry
     Harris-Foulkes estimate   =    -704.61059560 Ry
     estimated scf accuracy    <       7.06084942 Ry

[...]

     total energy              =    -703.36543972 Ry
     Harris-Foulkes estimate   =    -703.36543625 Ry
     estimated scf accuracy    <       0.00000114 Ry

     iteration # 33     ecut=    45.00 Ry     beta= 0.70
     Davidson diagonalization with overlap
     ethr =  6.36E-10,  avg # of iterations =  1.0

[...]

     End of self-consistent calculation

          k = 0.0000 0.0000 0.0000 (128317 PWs)   bands (ev):

   -18.8683 -18.0972 -17.5741 -17.4858 -17.1252 -17.0833 -16.9961 -16.9804
   -16.9378 -16.8521 -16.8080 -16.7866 -16.7494 -16.7246 -16.6837 -16.6100
   -16.5948 -16.5544 -16.4665 -16.3813 -10.5842 -10.4716  -9.9994  -9.8687
    -9.8195  -9.5598  -9.4240  -9.2642  -8.9558  -8.9133  -8.8454  -8.7787
    -8.6766  -8.6342  -8.5922  -8.5151  -8.4193  -8.4031  -8.3446  -8.2657
    -8.2469  -8.2176  -8.1100  -8.0235  -7.9887  -7.9707  -7.9478  -7.9225
    -7.8849  -7.8568  -7.8352  -7.7491  -7.7162  -7.6620  -7.6145  -7.5832
    -7.5223  -7.4634  -7.4419  -7.3452  -7.2725  -7.2241  -7.1096  -7.0172
    -6.9967  -6.9481  -6.8710  -6.7712  -6.6387  -6.5620  -6.4838  -6.4500
    -6.3853  -6.3552  -6.2005  -6.0808  -6.0105  -5.8637  -5.7675  -5.6378
    -5.5470  -5.4923  -5.2809  -5.1569  -5.0990  -4.8576  -4.7738  -4.6495
    -4.5298  -4.3106  -4.1670  -4.0418  -3.8949  -3.8412  -3.7673  -3.6685
    -3.6240  -3.5912  -3.4666  -3.3490  -3.2628  -3.1967  -3.1276  -3.0653
    -2.9938  -2.9492  -2.8366  -2.7782

     the Fermi energy is    -4.2586 ev

!    total energy              =    -703.36544827 Ry
     Harris-Foulkes estimate   =    -703.36543976 Ry
     estimated scf accuracy    <       0.00000076 Ry

     The total energy is the sum of the following terms:

     one-electron contribution =   -3527.45324708 Ry
     hartree contribution      =    1793.37920654 Ry
     xc contribution           =    -277.11333761 Ry
     ewald contribution        =    1307.81870901 Ry
     smearing contrib. (-TS)   =       0.00322087 Ry

     convergence has been achieved in  33 iterations

     negative rho (up, down):  1.040E-02 0.000E+00

     Forces acting on atoms (cartesian axes, Ry/au):

     atom    1 type  1   force =     0.00547786   -0.00066672    0.00144399
     atom    2 type  1   force =    -0.00186813   -0.00477488    0.01565963
     atom    3 type  1   force =    -0.01250919   -0.00117442    0.00610508
     atom    4 type  1   force =    -0.00462728   -0.00660328   -0.00330000
     atom    5 type  1   force =     0.01309764    0.00612495    0.01048658
     atom    6 type  1   force =     0.01243373   -0.01112044    0.02397331
     atom    7 type  1   force =    -0.00867106    0.00528875    0.00622005
     atom    8 type  1   force =    -0.00543514   -0.00970302    0.01452384
     atom    9 type  1   force =    -0.00599208    0.00332328   -0.00295813
     atom   10 type  1   force =     0.00513702    0.00701260   -0.01800517
     atom   11 type  2   force =    -0.01465952   -0.00850388   -0.00769892
     atom   12 type  2   force =    -0.00082435    0.01177346    0.01130691
     atom   13 type  2   force =    -0.00922682    0.01135336    0.00731939
     atom   14 type  2   force =    -0.00863204    0.00277612   -0.00338079
     atom   15 type  2   force =     0.00287557    0.00410071   -0.00219951
     atom   16 type  2   force =     0.00094050   -0.00805099   -0.02077994
     atom   17 type  2   force =     0.01883629   -0.00428894    0.00513954
     atom   18 type  2   force =     0.00312521    0.00504159    0.00330100
     atom   19 type  2   force =     0.00484454    0.01060440   -0.01474293
     atom   20 type  2   force =    -0.00940125   -0.00565580   -0.00537732
     atom   21 type  2   force =     0.00100093   -0.00984086    0.00575450
     atom   22 type  2   force =    -0.00074778    0.00049282   -0.01169017
     atom   23 type  2   force =     0.00740770   -0.00949216   -0.00230969
     atom   24 type  2   force =     0.00740993    0.00408090   -0.01317600
     atom   25 type  2   force =     0.00356414    0.00140699   -0.00119953
     atom   26 type  2   force =    -0.00302989   -0.00416943   -0.00929622
     atom   27 type  2   force =    -0.00791710    0.00162202    0.00831121
     atom   28 type  2   force =     0.00551940    0.00165962    0.01021461
     atom   29 type  2   force =     0.00450111   -0.00172897   -0.00858558
     atom   30 type  2   force =    -0.00262995    0.00911222   -0.00505975

     Total force =     0.080044     Total SCF correction =     0.000908

     General routines

     Parallel routines

   This run was terminated on:  13:27:44   8Sep2021

   JOB DONE.