     Program PWSCF v.6.4 starts on 23Dec2021 at 23: 9:11

     R & G space division:  proc/nbgrp/npool/nimage =      40
     Waiting for input...
     Reading input from standard input
Warning: card    &IONS ignored
Warning: card      ION_DYNAMICS = 'BFGS' ignored
Warning: card   / ignored
Warning: card    &CELL ignored
Warning: card      CELL_DYNAMICS = 'BFGS', ignored
Warning: card    / ignored

     Current dimensions of program PWSCF are:
     Max number of different atomic species (ntypx) = 10
     Max number of k-points (npk) =  40000
     Max angular momentum in pseudopotentials (lmaxx) =  3

     bravais-lattice index     =            0
     lattice parameter (alat)  =      12.6709  a.u.
     unit-cell volume          =    4760.3811 (a.u.)^3
     number of atoms/cell      =           36
     number of atomic types    =            2
     number of electrons       =       216.00
     number of Kohn-Sham states=          130
     kinetic-energy cutoff     =      45.0000  Ry
     charge density cutoff     =     360.0000  Ry
     convergence threshold     =      1.0E-06
     mixing beta               =       0.7000
     number of iterations used =            8  local-TF  mixing
     Exchange-correlation      = SLA PW GGX GGC ( 1  4  2  2 0 0)

     celldm(1)=  12.670909  celldm(2)=   0.000000  celldm(3)=   0.000000
     celldm(4)=   0.000000  celldm(5)=   0.000000  celldm(6)=   0.000000

     crystal axes: (cart. coord. in units of alat)
               a(1) = (   1.000000   0.000000   0.000000 )
               a(2) = (   0.121246   1.356738   0.000000 )
               a(3) = (   0.063136   0.157953   1.724735 )

     reciprocal axes: (cart. coord. in units 2 pi/alat)
               b(1) = (  1.000000 -0.089366 -0.028422 )
               b(2) = (  0.000000  0.737062 -0.067501 )
               b(3) = (  0.000000  0.000000  0.579799 )

     PseudoPot. # 1 for Mo read from file:
     ~/pseudo/Mo.pw91-n-van.UPF
     MD5 check sum: Not computed, couldn't open file
     Pseudo is Ultrasoft + core correction, Zval =  6.0
     Generated by new atomic code, or converted to UPF format
     Using radial grid of  965 points,  3 beta functions with:
                l(1) =   1
                l(2) =   2
                l(3) =   2
     Q(r) pseudized with  8 coefficients,  rinner =    1.000   1.000   1.000
                                                       1.200   1.200

     PseudoPot. # 2 for S  read from file:
     ~/pseudo/S.pw91-van_ak.UPF
     MD5 check sum: Not computed, couldn't open file
     Pseudo is Ultrasoft, Zval =  6.0
     Generated by new atomic code, or converted to UPF format
     Using radial grid of  811 points,  6 beta functions with:
                l(1) =   0
                l(2) =   0
                l(3) =   1
                l(4) =   1
                l(5) =   2
                l(6) =   2
     Q(r) pseudized with  8 coefficients,  rinner =    1.100   1.100   1.100
                                                       1.100   1.100

     atomic species   valence    mass     pseudopotential
        Mo             6.00    95.50000     Mo( 1.00)
        S              6.00    32.06500     S ( 1.00)

     No symmetry found

   Cartesian axes

     site n.     atom                  positions (alat units)
         1           Mo  tau(   1) = (   0.5400130   0.8974911   0.7979943  )
         2           Mo  tau(   2) = (   0.4855382   1.4121816   1.6177895  )
         3           Mo  tau(   3) = (   0.5156236   0.9397883   1.6388272  )
         4           Mo  tau(   4) = (   0.7625578   0.3816635   0.9893670  )
         5           Mo  tau(   5) = (   0.7638205   0.9032126   1.1962678  )
         6           Mo  tau(   6) = (   0.9288695   0.3097561   0.6079513  )
         7           Mo  tau(   7) = (   1.0344811   0.9349612   1.6409169  )
         8           Mo  tau(   8) = (   0.9854944   0.8532281   0.7777376  )
         9           Mo  tau(   9) = (   0.2286931   0.2867302   0.0858713  )
        10           Mo  tau(  10) = (   0.2070049   0.7893666   0.3252899  )
        11           Mo  tau(  11) = (   0.5397776   0.4219656   1.4686744  )
        12           Mo  tau(  12) = (   0.8203228   1.3233428   0.8297958  )
        13           S   tau(  13) = (   0.5644357   1.1600650   1.0389962  )
        14           S   tau(  14) = (   1.0265115   1.0988875   1.0392033  )
        15           S   tau(  15) = (   0.4614731   0.5713347   0.2108216  )
        16           S   tau(  16) = (   0.4541900   1.0229101   0.1808522  )
        17           S   tau(  17) = (   0.7730492   1.0679988   0.5923028  )
        18           S   tau(  18) = (   0.9645304   0.9987412   0.1838413  )
        19           S   tau(  19) = (   0.2766045   0.6784640   1.5258154  )
        20           S   tau(  20) = (   0.3116794   0.2165052   1.2986912  )
        21           S   tau(  21) = (   0.4626705   0.2280135   0.8838491  )
        22           S   tau(  22) = (   0.5077838   0.6758902   1.0873960  )
        23           S   tau(  23) = (   0.8138610   0.2602168   1.3155589  )
        24           S   tau(  24) = (   0.7293196   0.6057807   0.6731858  )
        25           S   tau(  25) = (   0.7734838   1.1545648   1.4771255  )
        26           S   tau(  26) = (   0.7709946   0.7093071   1.5147224  )
        27           S   tau(  27) = (   0.6516088   0.1381238   0.5061302  )
        28           S   tau(  28) = (   1.0019597   0.1426089   0.8869180  )
        29           S   tau(  29) = (   1.0658396   0.1932225   1.7189254  )
        30           S   tau(  30) = (   0.9646838   0.5430796   0.2033406  )
        31           S   tau(  31) = (   0.9973594   0.6525727   1.0783709  )
        32           S   tau(  32) = (   0.1771137   0.1676279   0.4176154  )
        33           S   tau(  33) = (   0.2611688   1.0095871   0.6114212  )
        34           S   tau(  34) = (   0.1935166   0.5852706   0.6354708  )
        35           S   tau(  35) = (   0.2753589   1.1278422   1.4559485  )
        36           S   tau(  36) = (   0.5336858   0.1114055   0.0489613  )

     number of k points=     8  Marzari-Vanderbilt smearing, width (Ry)=  0.0200
                       cart. coord. in units 2pi/alat
        k(    1) = (   0.0000000   0.0000000   0.0000000), wk =   0.1666667
        k(    2) = (   0.0000000   0.0000000  -0.2898996), wk =   0.1666667
        k(    3) = (   0.0000000  -0.3685310   0.0337504), wk =   0.1666667
        k(    4) = (   0.0000000  -0.3685310  -0.2561492), wk =   0.1666667
        k(    5) = (   0.3333333  -0.0297886  -0.0094741), wk =   0.3333333
        k(    6) = (   0.3333333  -0.0297886  -0.2993737), wk =   0.3333333
        k(    7) = (   0.3333333  -0.3983196   0.0242763), wk =   0.3333333
        k(    8) = (   0.3333333  -0.3983196  -0.2656233), wk =   0.3333333

     Initial potential from superposition of free atoms

     starting charge  215.98107, renormalised to  216.00000
     Starting wfcs are  204 randomized atomic wfcs

     Self-consistent Calculation

     iteration #  1     ecut=    45.00 Ry     beta= 0.70
     Davidson diagonalization with overlap
     ethr =  1.00E-02,  avg # of iterations =  2.0

     total energy              =    -842.80083614 Ry
     Harris-Foulkes estimate   =    -845.85515743 Ry
     estimated scf accuracy    <       8.06930175 Ry

[...]

     total energy              =    -844.39642852 Ry
     Harris-Foulkes estimate   =    -844.39642872 Ry
     estimated scf accuracy    <       0.00000180 Ry

     iteration # 14     ecut=    45.00 Ry     beta= 0.70
     Davidson diagonalization with overlap
     ethr =  8.32E-10,  avg # of iterations =  1.0

     End of self-consistent calculation

          k = 0.0000 0.0000 0.0000 ( 24287 PWs)   bands (ev):

    -7.0633  -6.6570  -6.2237  -6.0158  -5.9515  -5.8303  -5.7845  -5.7528
    -5.5821  -5.4975  -5.4114  -5.3760  -5.3005  -5.2091  -5.1941  -5.0833
    -4.9984  -4.9725  -4.9276  -4.8465  -4.7723  -4.6070  -4.5026  -4.4203
     1.1115   1.3976   1.5089   1.5640   1.6779   1.7454   1.8880   1.9775
     2.0209   2.0677   2.1936   2.2473   2.2724   2.3321   2.3970   2.4410
     2.4730   2.5774   2.6455   2.6487   2.7405   2.8225   2.9003   2.9886
     3.0252   3.1209   3.2226   3.2685   3.3549   3.3906   3.4443   3.5479
     3.6152   3.6276   3.6501   3.7509   3.8286   3.9238   3.9625   4.0272
     4.0887   4.2164   4.2831   4.3181   4.3501   4.4341   4.4604   4.4781
     4.6382   4.6586   4.7454   4.8302   4.8708   4.9564   5.0030   5.0371
     5.2142   5.2460   5.3174   5.5284   5.6252   5.6902   5.8011   5.8227
     5.9149   5.9496   6.0437   6.0516   6.2264   6.3088   6.3924   6.4540
     6.4923   6.5950   6.6624   6.7213   6.8507   6.9386   7.0006   7.1280
     7.1767   7.3273   7.3672   7.5206   7.5523   7.5919   7.8146   7.9832
     8.1044   8.1979   8.2613   8.3561   8.4302   8.5224   8.5470   8.5941
     8.7168   8.8284   8.8590   8.9672   9.0987   9.1293   9.1415   9.3035
     9.3208   9.4773

[...]

          k = 0.3333-0.3983-0.2656 ( 24233 PWs)   bands (ev):

    -6.7093  -6.5482  -6.3640  -6.1734  -6.0311  -5.9752  -5.8686  -5.7191
    -5.5545  -5.4941  -5.4491  -5.3959  -5.3090  -5.2579  -5.1745  -5.1123
    -4.9885  -4.9607  -4.9003  -4.8426  -4.7047  -4.6298  -4.5556  -4.4197
     1.2654   1.4077   1.6371   1.6964   1.7673   1.8593   1.9299   1.9494
     2.0257   2.1503   2.2043   2.2718   2.3396   2.4034   2.4464   2.4951
     2.5475   2.6475   2.6620   2.6915   2.7924   2.9012   2.9726   3.0216
     3.1199   3.1569   3.2572   3.2971   3.3566   3.4072   3.4604   3.4973
     3.6308   3.6847   3.7512   3.8194   3.9493   3.9770   4.0204   4.0771
     4.1411   4.2300   4.2551   4.3171   4.3563   4.4158   4.4445   4.5045
     4.5587   4.6634   4.6987   4.7896   4.8539   4.8700   4.9045   5.0054
     5.0385   5.0808   5.2207   5.2473   5.2929   5.3407   5.4857   5.5415
     5.6307   5.7224   5.7827   5.8898   6.0175   6.1456   6.2204   6.2948
     6.4306   6.5991   6.6855   6.8584   6.9264   6.9982   7.1154   7.1868
     7.2311   7.3734   7.4035   7.4539   7.6241   7.6715   7.7750   7.9548
     8.0648   8.1771   8.2254   8.2884   8.4040   8.5215   8.6011   8.6987
     8.7678   8.8498   8.9094   8.9598   8.9894   9.0859   9.2200   9.2954
     9.3986   9.4462

     the Fermi energy is     7.5509 ev

!    total energy              =    -844.39642833 Ry
     Harris-Foulkes estimate   =    -844.39642862 Ry
     estimated scf accuracy    <       0.00000034 Ry

     The total energy is the sum of the following terms:

     one-electron contribution =      54.33496027 Ry
     hartree contribution      =     102.03406190 Ry
     xc contribution           =    -333.89443352 Ry
     ewald contribution        =    -666.87508579 Ry
     smearing contrib. (-TS)   =       0.00406881 Ry

     convergence has been achieved in  14 iterations

     Forces acting on atoms (cartesian axes, Ry/au):

     atom    1 type  1   force =    -0.01385750    0.01004859    0.01810753
     atom    2 type  1   force =    -0.02674381    0.01799417   -0.04308839
     atom    3 type  1   force =     0.03367980    0.02296452   -0.00905465
     atom    4 type  1   force =    -0.06886232    0.00820767   -0.01233752
     atom    5 type  1   force =     0.02705009    0.01075116    0.06576771
     atom    6 type  1   force =    -0.01016100    0.00978364   -0.06472095
     atom    7 type  1   force =    -0.03450968    0.00661249    0.00072752
     atom    8 type  1   force =     0.03099443    0.01308862    0.00358050
     atom    9 type  1   force =    -0.01493644   -0.01132126   -0.00612722
     atom   10 type  1   force =    -0.00201313    0.01326699    0.01341534
     atom   11 type  1   force =    -0.03703921   -0.04201459   -0.05938838
     atom   12 type  1   force =    -0.01593397    0.02117867   -0.00268041
     atom   13 type  2   force =    -0.02055266   -0.01161820    0.00152510
     atom   14 type  2   force =    -0.00022701   -0.00844951    0.01184001
     atom   15 type  2   force =    -0.00325142   -0.01541563    0.00664394
     atom   16 type  2   force =     0.00701801   -0.00009533    0.00273638
     atom   17 type  2   force =    -0.01688602   -0.01664999   -0.04423471
     atom   18 type  2   force =    -0.00770117    0.00865746   -0.00535145
     atom   19 type  2   force =    -0.00362606   -0.02396972    0.00339004
     atom   20 type  2   force =     0.01356031    0.00056981    0.02455410
     atom   21 type  2   force =     0.02022610    0.01593294    0.03129615
     atom   22 type  2   force =     0.00595831   -0.00818349   -0.00021360
     atom   23 type  2   force =     0.01156912   -0.01025674    0.01115968
     atom   24 type  2   force =     0.00159774   -0.00745815    0.01369028
     atom   25 type  2   force =     0.00285518   -0.00624104   -0.00366851
     atom   26 type  2   force =     0.00387245    0.02252884   -0.01070198
     atom   27 type  2   force =     0.00575032    0.00584063   -0.02576099
     atom   28 type  2   force =     0.05304694   -0.04378412    0.05795832
     atom   29 type  2   force =    -0.01426372    0.00171022   -0.00583405
     atom   30 type  2   force =     0.01327086   -0.00979732    0.00158284
     atom   31 type  2   force =     0.00257246   -0.00462068    0.00367836
     atom   32 type  2   force =     0.02208146   -0.01669485    0.01818406
     atom   33 type  2   force =     0.00325862    0.04958280   -0.01417902
     atom   34 type  2   force =    -0.00810453   -0.00607867   -0.00214342
     atom   35 type  2   force =     0.00232348    0.01219241   -0.00058465
     atom   36 type  2   force =     0.03798398   -0.00826234    0.02023205

     Total force =     0.232060     Total SCF correction =     0.001111

     General routines

     Parallel routines

   This run was terminated on:  23:11: 6  23Dec2021

   JOB DONE.