     Program PWSCF v.6.4 starts on  8Sep2021 at 11:18:56

     R & G space division:  proc/nbgrp/npool/nimage =      40
     Waiting for input...
     Reading input from standard input
Warning: card    &IONS ignored
Warning: card      ION_DYNAMICS = 'BFGS' ignored
Warning: card   / ignored
Warning: card    &CELL ignored
Warning: card      CELL_DYNAMICS = 'BFGS', ignored
Warning: card    / ignored

     Current dimensions of program PWSCF are:
     Max number of different atomic species (ntypx) = 10
     Max number of k-points (npk) =  40000
     Max angular momentum in pseudopotentials (lmaxx) =  3

     bravais-lattice index     =            0
     lattice parameter (alat)  =      12.4257  a.u.
     unit-cell volume          =    3502.5679 (a.u.)^3
     number of atoms/cell      =           24
     number of atomic types    =            2
     number of electrons       =       144.00
     number of Kohn-Sham states=           86
     kinetic-energy cutoff     =      45.0000  Ry
     charge density cutoff     =     360.0000  Ry
     convergence threshold     =      1.0E-06
     mixing beta               =       0.7000
     number of iterations used =            8  local-TF  mixing
     Exchange-correlation      = SLA PW GGX GGC ( 1  4  2  2 0 0)

     celldm(1)=  12.425655  celldm(2)=   0.000000  celldm(3)=   0.000000
     celldm(4)=   0.000000  celldm(5)=   0.000000  celldm(6)=   0.000000

     crystal axes: (cart. coord. in units of alat)
               a(1) = (   0.999905   0.013797   0.000017 )
               a(2) = (  -0.243027   0.422000   0.000033 )
               a(3) = (  -0.245799  -0.128467   4.292585 )

     reciprocal axes: (cart. coord. in units 2 pi/alat)
               b(1) = (  0.992210  0.571402  0.073916 )
               b(2) = ( -0.032440  2.350981  0.068502 )
               b(3) = ( -0.000004 -0.000020  0.232959 )

     PseudoPot. # 1 for Mo read from file:
     ~/pseudo/Mo.pw91-n-van.UPF
     MD5 check sum: Not computed, couldn't open file
     Pseudo is Ultrasoft + core correction, Zval =  6.0
     Generated by new atomic code, or converted to UPF format
     Using radial grid of  965 points,  3 beta functions with:
                l(1) =   1
                l(2) =   2
                l(3) =   2
     Q(r) pseudized with  8 coefficients,  rinner =    1.000   1.000   1.000
                                                       1.200   1.200

     PseudoPot. # 2 for S  read from file:
     ~/pseudo/S.pw91-van_ak.UPF
     MD5 check sum: Not computed, couldn't open file
     Pseudo is Ultrasoft, Zval =  6.0
     Generated by new atomic code, or converted to UPF format
     Using radial grid of  811 points,  6 beta functions with:
                l(1) =   0
                l(2) =   0
                l(3) =   1
                l(4) =   1
                l(5) =   2
                l(6) =   2
     Q(r) pseudized with  8 coefficients,  rinner =    1.100   1.100   1.100
                                                       1.100   1.100

     atomic species   valence    mass     pseudopotential
        Mo             6.00    95.50000     Mo( 1.00)
        S              6.00    32.06500     S ( 1.00)

     No symmetry found

   Cartesian axes

     site n.     atom                  positions (alat units)
         1           Mo  tau(   1) = (   0.0985321   0.1480680   1.5651428  )
         2           Mo  tau(   2) = (  -0.3028614   0.0128679   3.8251850  )
         3           Mo  tau(   3) = (   0.5160136   0.1070957   1.5848837  )
         4           Mo  tau(   4) = (   0.2692706   0.0607519   3.7933812  )
         5           Mo  tau(   5) = (  -0.0921854  -0.1963662   0.5397409  )
         6           Mo  tau(   6) = (  -0.1927487  -0.2132733   2.6609972  )
         7           Mo  tau(   7) = (   0.4852081  -0.1455661   0.5297124  )
         8           Mo  tau(   8) = (   0.2307299  -0.2498844   2.6730074  )
         9           S   tau(   9) = (   0.3160144   0.2732309   1.8426529  )
        10           S   tau(  10) = (  -0.0196562   0.1747525   4.0140811  )
        11           S   tau(  11) = (   0.8076952   0.2742829   1.7845078  )
        12           S   tau(  12) = (   0.4859659   0.1856018   4.0777679  )
        13           S   tau(  13) = (  -0.0449197   0.1123709   0.3157913  )
        14           S   tau(  14) = (  -0.2338515   0.0435365   2.4037126  )
        15           S   tau(  15) = (   0.4501352   0.1154251   0.2714742  )
        16           S   tau(  16) = (   0.2733493   0.0546469   2.4469906  )
        17           S   tau(  17) = (  -0.0481794   0.3906652   0.7537348  )
        18           S   tau(  18) = (  -0.2153502   0.3356749   2.9304518  )
        19           S   tau(  19) = (   0.4571753   0.4009556   0.7981305  )
        20           S   tau(  20) = (   0.2770800   0.3378834   2.8861402  )
        21           S   tau(  21) = (   0.2971879  -0.0190774   1.3079171  )
        22           S   tau(  22) = (  -0.0142617  -0.1020489   3.6052116  )
        23           S   tau(  23) = (   0.8051879  -0.0061692   1.3634891  )
        24           S   tau(  24) = (   0.4805152  -0.0980977   3.5406649  )

     number of k points=     8  Marzari-Vanderbilt smearing, width (Ry)=  0.0200
                       cart. coord. in units 2pi/alat
        k(    1) = (   0.0000000   0.0000000   0.0000000), wk =   0.1333333
        k(    2) = (  -0.0064881   0.4701963   0.0137003), wk =   0.2666667
        k(    3) = (  -0.0129762   0.9403926   0.0274007), wk =   0.2666667
        k(    4) = (   0.3307365   0.1904675   0.0246386), wk =   0.2666667
        k(    5) = (   0.3242484   0.6606638   0.0383390), wk =   0.2666667
        k(    6) = (   0.3177604   1.1308601   0.0520393), wk =   0.2666667
        k(    7) = (   0.3437127  -0.7499251  -0.0027620), wk =   0.2666667
        k(    8) = (   0.3372246  -0.2797288   0.0109383), wk =   0.2666667

     Initial potential from superposition of free atoms

     starting charge  143.98738, renormalised to  144.00000
     Starting wfcs are  136 randomized atomic wfcs

     Self-consistent Calculation

     iteration #  1     ecut=    45.00 Ry     beta= 0.70
     Davidson diagonalization with overlap
     ethr =  1.00E-02,  avg # of iterations =  2.0

     total energy              =    -562.35494968 Ry
     Harris-Foulkes estimate   =    -564.26019147 Ry
     estimated scf accuracy    <       5.03161599 Ry

[...]

     total energy              =    -563.36423756 Ry
     Harris-Foulkes estimate   =    -563.36423960 Ry
     estimated scf accuracy    <       0.00000975 Ry

     iteration # 16     ecut=    45.00 Ry     beta= 0.70
     Davidson diagonalization with overlap
     ethr =  3.35E-09,  avg # of iterations =  2.4

     End of self-consistent calculation

          k = 0.0000 0.0000 0.0000 ( 17957 PWs)   bands (ev):

    -8.0573  -8.0365  -8.0289  -7.9824  -7.1751  -7.1551  -7.1129  -7.0125
    -6.3994  -6.3622  -6.3545  -6.3447  -6.2331  -6.2126  -6.1705  -6.1513
     0.0304   0.0356   0.0726   0.1107   0.4219   0.5442   0.6295   0.8027
     1.3687   1.3872   1.4296   1.4426   1.4721   1.5038   1.5610   1.6428
     2.5724   2.5837   2.6686   2.6934   2.7765   2.7914   2.8059   2.8254
     3.0944   3.2078   3.2610   3.2699   3.4420   3.5496   3.6239   3.7054
     3.7167   3.9662   4.1005   4.3013   4.5268   4.5762   4.6635   4.8201
     4.8639   4.9107   4.9603   5.0653   5.1736   5.4233   5.4932   5.5606
     5.6918   5.7483   5.7561   5.7892   5.8016   5.8043   5.8247   5.8788
     6.2978   6.3379   6.3521   6.3923   6.4429   6.4895   6.6629   6.7007
     7.7291   7.7718   7.8696   7.8788   7.9470   8.0554

          k =-0.0065 0.4702 0.0137 ( 17881 PWs)   bands (ev):

[...]

          k =-0.0130 0.9404 0.0274 ( 17787 PWs)   bands (ev):

[...]

          k = 0.3372-0.2797 0.0109 ( 17879 PWs)   bands (ev):

    -7.5918  -7.5724  -7.5618  -7.5200  -6.9918  -6.9708  -6.9340  -6.8354
    -6.2716  -6.2513  -6.2163  -6.1883  -6.1668  -6.1429  -6.1280  -6.1131
     0.6100   0.6262   0.6391   0.6670   0.8754   0.9498   1.0044   1.0814
     1.2104   1.2666   1.3203   1.4161   1.5811   1.6269   1.6746   1.7430
     2.3086   2.3485   2.3684   2.4196   2.5362   2.5993   2.6461   2.6853
     2.6917   2.7343   2.7725   2.8009   3.2460   3.2985   3.3198   3.3444
     3.4557   3.4898   3.5360   3.5564   3.6245   3.6415   3.6716   3.6912
     4.3732   4.4237   4.4898   4.5440   4.8907   4.9292   4.9891   5.1009
     5.2040   5.2233   5.2739   5.2881   5.3627   5.4188   5.5341   5.6539
     6.2157   6.2333   6.3192   6.4159   7.0600   7.0877   7.1404   7.1959
     8.0563   8.0756   8.1473   8.2051   8.2480   8.2791

     the Fermi energy is     5.9106 ev

!    total energy              =    -563.36423768 Ry
     Harris-Foulkes estimate   =    -563.36423839 Ry
     estimated scf accuracy    <       0.00000074 Ry

     The total energy is the sum of the following terms:

     one-electron contribution =    -111.35298995 Ry
     hartree contribution      =     134.96972270 Ry
     xc contribution           =    -222.40402454 Ry
     ewald contribution        =    -364.58619149 Ry
     smearing contrib. (-TS)   =       0.00924561 Ry

     convergence has been achieved in  16 iterations

     Forces acting on atoms (cartesian axes, Ry/au):

     atom    1 type  1   force =    -0.02484611   -0.01568093    0.00536867
     atom    2 type  1   force =    -0.01912278   -0.01247332   -0.02506585
     atom    3 type  1   force =     0.02264300    0.01395381   -0.00614305
     atom    4 type  1   force =     0.01867386    0.01139336    0.02606850
     atom    5 type  1   force =     0.02000296    0.01187924    0.02119825
     atom    6 type  1   force =    -0.01291577   -0.00866493   -0.00201252
     atom    7 type  1   force =    -0.02054182   -0.01119117   -0.02082745
     atom    8 type  1   force =     0.01161780    0.00596757    0.00248557
     atom    9 type  2   force =    -0.00793347   -0.00472242    0.00121274
     atom   10 type  2   force =     0.00510005    0.00454245   -0.00109402
     atom   11 type  2   force =    -0.00471265   -0.00208626   -0.01179459
     atom   12 type  2   force =    -0.00985011   -0.00493049   -0.00081466
     atom   13 type  2   force =    -0.00143290   -0.00162294    0.02671296
     atom   14 type  2   force =     0.00360281    0.00294551   -0.00680447
     atom   15 type  2   force =    -0.00964579   -0.00533472   -0.00780332
     atom   16 type  2   force =     0.00493991    0.00349052    0.02575393
     atom   17 type  2   force =     0.00072929    0.00079013   -0.02791177
     atom   18 type  2   force =    -0.00306753   -0.00148662    0.00713931
     atom   19 type  2   force =     0.00866094    0.00501420    0.00667312
     atom   20 type  2   force =    -0.00380645   -0.00128075   -0.02508729
     atom   21 type  2   force =     0.00926210    0.00585453   -0.00190916
     atom   22 type  2   force =    -0.00376758   -0.00278630   -0.00208569
     atom   23 type  2   force =     0.00690443    0.00241965    0.01663760
     atom   24 type  2   force =     0.00950583    0.00400989    0.00010319

     Total force =     0.103197     Total SCF correction =     0.002587

     General routines

     Parallel routines

   This run was terminated on:  11:20: 1   8Sep2021

   JOB DONE.