     Program PWSCF v.6.4 starts on  3Aug2021 at 15:11: 8

     R & G space division:  proc/nbgrp/npool/nimage =      20
     Waiting for input...
     Reading input from standard input
Warning: card    &IONS ignored
Warning: card      ION_DYNAMICS = 'BFGS' ignored
Warning: card   / ignored
Warning: card    &CELL ignored
Warning: card      CELL_DYNAMICS = 'BFGS', ignored
Warning: card    / ignored

     Current dimensions of program PWSCF are:
     Max number of different atomic species (ntypx) = 10
     Max number of k-points (npk) =  40000
     Max angular momentum in pseudopotentials (lmaxx) =  3

     bravais-lattice index     =            0
     lattice parameter (alat)  =      12.3604  a.u.
     unit-cell volume          =    5463.4390 (a.u.)^3
     number of atoms/cell      =           36
     number of atomic types    =            2
     number of electrons       =       216.00
     number of Kohn-Sham states=          130
     kinetic-energy cutoff     =      45.0000  Ry
     charge density cutoff     =     360.0000  Ry
     convergence threshold     =      1.0E-06
     mixing beta               =       0.7000
     number of iterations used =            8  local-TF  mixing
     Exchange-correlation      = SLA PW GGX GGC ( 1  4  2  2 0 0)

     celldm(1)=  12.360359  celldm(2)=   0.000000  celldm(3)=   0.000000
     celldm(4)=   0.000000  celldm(5)=   0.000000  celldm(6)=   0.000000

     crystal axes: (cart. coord. in units of alat)
               a(1) = (   1.000000   0.000000   0.000000 )
               a(2) = (  -0.250000   0.433013   0.000000 )
               a(3) = (   0.000000   0.000000   6.681472 )

     reciprocal axes: (cart. coord. in units 2 pi/alat)
               b(1) = (  1.000000  0.577350  0.000000 )
               b(2) = (  0.000000  2.309401  0.000000 )
               b(3) = (  0.000000  0.000000  0.149668 )

     PseudoPot. # 1 for Mo read from file:
     ~/pseudo/Mo.pw91-n-van.UPF
     MD5 check sum: Not computed, couldn't open file
     Pseudo is Ultrasoft + core correction, Zval =  6.0
     Generated by new atomic code, or converted to UPF format
     Using radial grid of  965 points,  3 beta functions with:
                l(1) =   1
                l(2) =   2
                l(3) =   2
     Q(r) pseudized with  8 coefficients,  rinner =    1.000   1.000   1.000
                                                       1.200   1.200

     PseudoPot. # 2 for S  read from file:
     ~/pseudo/S.pw91-van_ak.UPF
     MD5 check sum: Not computed, couldn't open file
     Pseudo is Ultrasoft, Zval =  6.0
     Generated by new atomic code, or converted to UPF format
     Using radial grid of  811 points,  6 beta functions with:
                l(1) =   0
                l(2) =   0
                l(3) =   1
                l(4) =   1
                l(5) =   2
                l(6) =   2
     Q(r) pseudized with  8 coefficients,  rinner =    1.100   1.100   1.100
                                                       1.100   1.100

     atomic species   valence    mass     pseudopotential
        Mo             6.00    95.50000     Mo( 1.00)
        S              6.00    32.06500     S ( 1.00)

     No symmetry found

   Cartesian axes

     site n.     atom                  positions (alat units)
         1           Mo  tau(   1) = (   0.2790463   0.1394264   1.1210286  )
         2           Mo  tau(   2) = (   0.2573653   0.1480337   4.4241230  )
         3           Mo  tau(   3) = (   0.7510342   0.1563691   1.0847411  )
         4           Mo  tau(   4) = (   0.7211154   0.1487311   4.4445506  )
         5           Mo  tau(   5) = (   0.0076824   0.2798008   2.1981792  )
         6           Mo  tau(   6) = (   0.0018849   0.2866872   5.5366956  )
         7           Mo  tau(   7) = (   0.5113876   0.3054781   2.2492816  )
         8           Mo  tau(   8) = (   0.4800518   0.2711023   5.5520424  )
         9           Mo  tau(   9) = (  -0.0020310  -0.0004300   3.3094846  )
        10           Mo  tau(  10) = (   0.0024750   0.0189334   6.6568451  )
        11           Mo  tau(  11) = (   0.4764646  -0.0194272   3.3418971  )
        12           Mo  tau(  12) = (   0.5116802  -0.0277860   6.6858731  )
        13           S   tau(  13) = (   0.0017862   0.3032542   0.2713670  )
        14           S   tau(  14) = (   0.0059169   0.2798869   3.5566018  )
        15           S   tau(  15) = (   0.5300902   0.2838008   0.2421469  )
        16           S   tau(  16) = (   0.4725418   0.2760480   3.5899301  )
        17           S   tau(  17) = (  -0.0157221   0.0182578   0.8487227  )
        18           S   tau(  18) = (  -0.0247459  -0.0122077   4.2214603  )
        19           S   tau(  19) = (   0.4874022   0.0000884   0.8396878  )
        20           S   tau(  20) = (   0.4938394   0.0036189   4.1785546  )
        21           S   tau(  21) = (   0.0129786   0.0104773   1.3837533  )
        22           S   tau(  22) = (   0.0137632   0.0045525   4.7257848  )
        23           S   tau(  23) = (   0.4861472  -0.0162382   1.3362314  )
        24           S   tau(  24) = (   0.5166327  -0.0162273   4.6789881  )
        25           S   tau(  25) = (   0.2351777   0.1548596   1.9565393  )
        26           S   tau(  26) = (   0.2351713   0.1635052   5.3032172  )
        27           S   tau(  27) = (   0.7635992   0.1201813   1.9682226  )
        28           S   tau(  28) = (   0.7565118   0.1329068   5.3494656  )
        29           S   tau(  29) = (   0.2502694   0.1591478   2.4449542  )
        30           S   tau(  30) = (   0.2370017   0.1396867   5.8397233  )
        31           S   tau(  31) = (   0.7608500   0.1401450   2.4999823  )
        32           S   tau(  32) = (   0.7232637   0.1521136   5.7998046  )
        33           S   tau(  33) = (   0.0207447   0.2978020   3.0741817  )
        34           S   tau(  34) = (   0.0279687   0.2946807   6.4246441  )
        35           S   tau(  35) = (   0.4995243   0.2881829   3.1252773  )
        36           S   tau(  36) = (   0.5193976   0.2942792   6.4584066  )

     number of k points=    10  Marzari-Vanderbilt smearing, width (Ry)=  0.0200
                       cart. coord. in units 2pi/alat
        k(    1) = (   0.0000000   0.0000000   0.0000000), wk =   0.1111111
        k(    2) = (   0.0000000   0.3849001   0.0000000), wk =   0.2222222
        k(    3) = (   0.0000000   0.7698003   0.0000000), wk =   0.2222222
        k(    4) = (   0.0000000  -1.1547004   0.0000000), wk =   0.1111111
        k(    5) = (   0.3333333   0.1924501   0.0000000), wk =   0.2222222
        k(    6) = (   0.3333333   0.5773502   0.0000000), wk =   0.2222222
        k(    7) = (   0.3333333  -0.9622504   0.0000000), wk =   0.2222222
        k(    8) = (   0.3333333  -0.5773502   0.0000000), wk =   0.2222222
        k(    9) = (   0.3333333  -0.1924501   0.0000000), wk =   0.2222222
        k(   10) = (   0.6666667  -0.3849001   0.0000000), wk =   0.2222222

     Initial potential from superposition of free atoms

     starting charge  215.98107, renormalised to  216.00000
     Starting wfcs are  204 randomized atomic wfcs

     Self-consistent Calculation

     iteration #  1     ecut=    45.00 Ry     beta= 0.70
     Davidson diagonalization with overlap
     ethr =  1.00E-02,  avg # of iterations =  2.0

     total energy              =    -843.24402616 Ry
     Harris-Foulkes estimate   =    -846.27237735 Ry
     estimated scf accuracy    <       8.03874082 Ry

[...]

     iteration #  6     ecut=    45.00 Ry     beta= 0.70
     Davidson diagonalization with overlap
     c_bands:  1 eigenvalues not converged
     ethr =  4.22E-06,  avg # of iterations =  9.9

[...]

     total energy              =    -844.82348823 Ry
     Harris-Foulkes estimate   =    -844.82348831 Ry
     estimated scf accuracy    <       0.00000116 Ry

     iteration # 17     ecut=    45.00 Ry     beta= 0.70
     Davidson diagonalization with overlap
     ethr =  5.38E-10,  avg # of iterations =  1.2

     End of self-consistent calculation

          k = 0.0000 0.0000 0.0000 ( 27967 PWs)   bands (ev):

    -8.7328  -8.6187  -8.4323  -8.3234  -8.3164  -8.2924  -7.5019  -7.4104
    -7.3665  -7.3630  -7.3257  -7.2779  -7.1626  -7.0249  -6.9470  -6.7534
    -6.7392  -6.6679  -6.5649  -6.4924  -6.3846  -6.3664  -6.2942  -6.2370
    -0.4636  -0.2781  -0.1022  -0.0686  -0.0214   0.0298   0.0656   0.0867
     0.1678   0.2125   0.2668   0.3035   0.7595   0.8230   0.8545   0.9439
     0.9856   1.0395   1.4090   1.4207   1.4789   1.5434   1.5868   1.6763
     1.7888   1.8826   2.1484   2.2561   2.3456   2.3788   2.3816   2.4973
     2.5195   2.6021   2.6050   2.7201   2.8152   2.8597   2.8899   2.9527
     2.9651   2.9856   3.0154   3.0912   3.2126   3.2485   3.2812   3.3644
     3.4496   3.4768   3.5733   3.5918   3.6392   3.7231   3.7662   3.7722
     3.8498   3.9677   3.9823   4.0387   4.1019   4.1160   4.2316   4.3071
     4.3114   4.4567   4.4900   4.5337   4.5919   4.6738   4.7330   4.8350
     4.8433   4.9610   4.9719   5.0111   5.0930   5.1830   5.3973   5.5107
     5.5744   5.6102   5.6988   5.7421   6.6013   6.6614   6.7000   6.7895
     6.7955   7.0935   7.1109   7.1505   7.1743   7.1774   7.2083   7.2492
     7.2626   7.3343   7.3389   7.3568   7.4387   7.5069   7.5305   7.5749
     7.6063   7.6582

[...]

          k = 0.6667-0.3849 0.0000 ( 27835 PWs)   bands (ev):

    -7.6813  -7.6744  -7.4541  -7.3837  -7.3294  -7.2468  -7.2058  -7.1803
    -6.9131  -6.9125  -6.8836  -6.8756  -6.8166  -6.7286  -6.6871  -6.6768
    -6.6630  -6.5072  -6.4897  -6.4860  -6.3248  -6.2843  -6.1902  -6.0390
    -0.0121   0.0384   0.2213   0.2441   0.2967   0.3741   0.4062   0.4330
     0.4793   0.5419   0.5445   0.5699   0.6733   0.8404   0.8973   0.9027
     0.9170   0.9461   1.0258   1.1966   1.3330   1.3412   1.3757   1.4535
     1.4624   1.5462   1.5659   1.6055   1.6855   1.7016   1.7302   1.7805
     1.8384   1.8895   1.9504   2.0002   2.0163   2.0394   2.1565   2.3299
     2.3436   2.3553   2.4617   2.5495   2.6306   2.6756   2.6953   2.9626
     3.0459   3.0508   3.1059   3.2197   3.2396   3.2670   3.2733   3.3194
     3.4151   3.5299   3.5524   3.5825   3.6288   3.7080   3.8191   3.8675
     3.9406   3.9672   4.0294   4.0366   4.0785   4.1294   4.1621   4.2691
     4.4718   4.5714   4.6009   4.6360   4.6717   4.6936   4.9326   4.9405
     4.9898   5.0957   5.1288   5.1778   6.6218   6.8106   6.8440   6.8868
     6.9086   6.9179   6.9384   6.9687   7.0227   7.0730   7.1054   7.1279
     7.1889   7.2175   7.2367   7.3132   7.3660   7.4708   7.5205   7.5750
     7.5865   7.6600

     the Fermi energy is     5.6509 ev

!    total energy              =    -844.82348765 Ry
     Harris-Foulkes estimate   =    -844.82348826 Ry
     estimated scf accuracy    <       0.00000064 Ry

     The total energy is the sum of the following terms:

     one-electron contribution =    -154.50167585 Ry
     hartree contribution      =     192.88653641 Ry
     xc contribution           =    -332.88405958 Ry
     ewald contribution        =    -550.34571243 Ry
     smearing contrib. (-TS)   =       0.02142380 Ry

     convergence has been achieved in  17 iterations

     Forces acting on atoms (cartesian axes, Ry/au):

     atom    1 type  1   force =    -0.18856143    0.00170297   -0.17113653
     atom    2 type  1   force =    -0.04929450   -0.04002538    0.08195806
     atom    3 type  1   force =    -0.02823955   -0.00603104    0.08909531
     atom    4 type  1   force =     0.12850401   -0.02637536    0.06282970
     atom    5 type  1   force =    -0.06188964    0.08122772    0.05707175
     atom    6 type  1   force =    -0.01553908    0.06374395    0.21229522
     atom    7 type  1   force =     0.02359832   -0.07038637   -0.10175335
     atom    8 type  1   force =     0.01797392    0.04689418    0.12563771
     atom    9 type  1   force =     0.06247206    0.00579117    0.11801352
     atom   10 type  1   force =     0.10280746   -0.03476103    0.17347809
     atom   11 type  1   force =     0.15944196    0.12721111   -0.01478779
     atom   12 type  1   force =     0.00779901    0.12496247    0.06464405
     atom   13 type  2   force =    -0.00291793   -0.01331882   -0.11344258
     atom   14 type  2   force =    -0.12482323   -0.05062517    0.06212809
     atom   15 type  2   force =    -0.01800792   -0.01928059   -0.04030894
     atom   16 type  2   force =     0.03781598    0.00278887   -0.04094722
     atom   17 type  2   force =     0.05018680   -0.01541745    0.04267091
     atom   18 type  2   force =     0.01032160    0.06896642   -0.03898658
     atom   19 type  2   force =     0.04808155    0.00317750    0.06942307
     atom   20 type  2   force =     0.00482800   -0.00904136    0.01871267
     atom   21 type  2   force =    -0.01386525   -0.01196114   -0.11718799
     atom   22 type  2   force =    -0.02639651    0.00161798   -0.11807779
     atom   23 type  2   force =     0.13318476    0.02800262    0.08853537
     atom   24 type  2   force =    -0.06876826    0.00502422   -0.00587461
     atom   25 type  2   force =     0.06793739   -0.02866761    0.03290117
     atom   26 type  2   force =     0.02915961   -0.05911910   -0.03457439
     atom   27 type  2   force =    -0.02693547    0.03303230    0.06689158
     atom   28 type  2   force =    -0.06840790   -0.01476361   -0.13578573
     atom   29 type  2   force =    -0.00871691   -0.05220280    0.01399607
     atom   30 type  2   force =    -0.00177061   -0.00314944   -0.13078092
     atom   31 type  2   force =     0.00563026    0.03670777   -0.06900242
     atom   32 type  2   force =     0.03812884   -0.03377019   -0.03733916
     atom   33 type  2   force =    -0.06330159   -0.03249214   -0.01645297
     atom   34 type  2   force =    -0.04442058    0.02363820   -0.00114780
     atom   35 type  2   force =    -0.07154297   -0.05328320   -0.10803780
     atom   36 type  2   force =    -0.04447221   -0.07981764   -0.08465776

     Total force =     0.747008     Total SCF correction =     0.002473

     General routines

     Parallel routines

   This run was terminated on:  15:13:34   3Aug2021

   JOB DONE.