     Program PWSCF v.6.4 starts on 24Dec2021 at  0:58:57

     R & G space division:  proc/nbgrp/npool/nimage =      40
     Waiting for input...
     Reading input from standard input
Warning: card    &IONS ignored
Warning: card      ION_DYNAMICS = 'BFGS' ignored
Warning: card   / ignored
Warning: card    &CELL ignored
Warning: card      CELL_DYNAMICS = 'BFGS', ignored
Warning: card    / ignored

     Current dimensions of program PWSCF are:
     Max number of different atomic species (ntypx) = 10
     Max number of k-points (npk) =  40000
     Max angular momentum in pseudopotentials (lmaxx) =  3

     bravais-lattice index     =            0
     lattice parameter (alat)  =      18.0918  a.u.
     unit-cell volume          =    4951.7793 (a.u.)^3
     number of atoms/cell      =           33
     number of atomic types    =            2
     number of electrons       =       198.00
     number of Kohn-Sham states=          119
     kinetic-energy cutoff     =      45.0000  Ry
     charge density cutoff     =     360.0000  Ry
     convergence threshold     =      1.0E-06
     mixing beta               =       0.7000
     number of iterations used =            8  local-TF  mixing
     Exchange-correlation      = SLA PW GGX GGC ( 1  4  2  2 0 0)

     celldm(1)=  18.091772  celldm(2)=   0.000000  celldm(3)=   0.000000
     celldm(4)=   0.000000  celldm(5)=   0.000000  celldm(6)=   0.000000

     crystal axes: (cart. coord. in units of alat)
               a(1) = (   1.000000   0.000000   0.000000 )
               a(2) = (   0.101247   0.997716   0.000000 )
               a(3) = (   0.474981   0.388362   0.838130 )

     reciprocal axes: (cart. coord. in units 2 pi/alat)
               b(1) = (  1.000000 -0.101479 -0.519694 )
               b(2) = (  0.000000  1.002289 -0.464428 )
               b(3) = (  0.000000  0.000000  1.193133 )

     PseudoPot. # 1 for Mo read from file:
     ~/pseudo/Mo.pw91-n-van.UPF
     MD5 check sum: Not computed, couldn't open file
     Pseudo is Ultrasoft + core correction, Zval =  6.0
     Generated by new atomic code, or converted to UPF format
     Using radial grid of  965 points,  3 beta functions with:
                l(1) =   1
                l(2) =   2
                l(3) =   2
     Q(r) pseudized with  8 coefficients,  rinner =    1.000   1.000   1.000
                                                       1.200   1.200

     PseudoPot. # 2 for S  read from file:
     ~/pseudo/S.pw91-van_ak.UPF
     MD5 check sum: Not computed, couldn't open file
     Pseudo is Ultrasoft, Zval =  6.0
     Generated by new atomic code, or converted to UPF format
     Using radial grid of  811 points,  6 beta functions with:
                l(1) =   0
                l(2) =   0
                l(3) =   1
                l(4) =   1
                l(5) =   2
                l(6) =   2
     Q(r) pseudized with  8 coefficients,  rinner =    1.100   1.100   1.100
                                                       1.100   1.100

     atomic species   valence    mass     pseudopotential
        Mo             6.00    95.50000     Mo( 1.00)
        S              6.00    32.06500     S ( 1.00)

     No symmetry found

   Cartesian axes

     site n.     atom                  positions (alat units)
         1           Mo  tau(   1) = (   0.8660164   0.9538221   0.3795339  )
         2           Mo  tau(   2) = (   1.3253082   1.0919956   0.6864399  )
         3           Mo  tau(   3) = (   0.1745163   0.2483768   0.2540713  )
         4           Mo  tau(   4) = (   0.7443577   0.2680108   0.4502971  )
         5           Mo  tau(   5) = (   1.0184308   0.8409099   0.1182748  )
         6           Mo  tau(   6) = (   0.3716435   0.4823946   0.2188718  )
         7           Mo  tau(   7) = (   0.7112216   1.0701120   0.6208561  )
         8           Mo  tau(   8) = (   1.0176517   1.0778131   0.6426232  )
         9           Mo  tau(   9) = (   0.6703285   0.8076582   0.8299253  )
        10           Mo  tau(  10) = (   0.6995384   0.8228316   0.1143713  )
        11           Mo  tau(  11) = (   1.0697283   0.5328063   0.2456279  )
        12           S   tau(  12) = (   0.5405948   0.6211256   0.0662530  )
        13           S   tau(  13) = (   0.8600402   0.8690383   0.6381993  )
        14           S   tau(  14) = (   0.3618278   1.0861527   0.4378760  )
        15           S   tau(  15) = (   1.1878527   0.8816877   0.6535354  )
        16           S   tau(  16) = (   0.5177412   0.8931375   0.6440173  )
        17           S   tau(  17) = (   0.8980820   0.4734166   0.4291834  )
        18           S   tau(  18) = (   0.3697215   0.2779232   0.1000759  )
        19           S   tau(  19) = (   0.5874311   0.4454855   0.3592007  )
        20           S   tau(  20) = (   1.0484216   0.7704467   0.3635122  )
        21           S   tau(  21) = (   0.2419149   0.6560938   0.0866699  )
        22           S   tau(  22) = (   0.8686470   0.6396999   0.0987617  )
        23           S   tau(  23) = (   0.6931362   0.7724938   0.3605864  )
        24           S   tau(  24) = (   1.2261022   0.4337261   0.4070083  )
        25           S   tau(  25) = (   0.2467412   0.9901306   0.1380549  )
        26           S   tau(  26) = (   0.9957529   0.3304145   0.1031556  )
        27           S   tau(  27) = (   0.6610398   1.1137101   0.3794933  )
        28           S   tau(  28) = (   0.8475773   1.2661449   0.6945220  )
        29           S   tau(  29) = (   0.5291454   1.2411646   0.7096440  )
        30           S   tau(  30) = (   1.0484933   1.1405692   0.3943719  )
        31           S   tau(  31) = (   1.1676456   1.2758470   0.7006159  )
        32           S   tau(  32) = (   0.8619881   1.0263416   0.1259702  )
        33           S   tau(  33) = (   0.4433055   0.9165083   0.1656970  )

     number of k points=     8  Marzari-Vanderbilt smearing, width (Ry)=  0.0200
                       cart. coord. in units 2pi/alat
        k(    1) = (   0.0000000   0.0000000   0.0000000), wk =   0.2500000
        k(    2) = (   0.0000000   0.0000000  -0.5965665), wk =   0.2500000
        k(    3) = (   0.0000000  -0.5011447   0.2322140), wk =   0.2500000
        k(    4) = (   0.0000000  -0.5011447  -0.3643526), wk =   0.2500000
        k(    5) = (  -0.5000000   0.0507394   0.2598469), wk =   0.2500000
        k(    6) = (  -0.5000000   0.0507394  -0.3367196), wk =   0.2500000
        k(    7) = (  -0.5000000  -0.4504053   0.4920608), wk =   0.2500000
        k(    8) = (  -0.5000000  -0.4504053  -0.1045057), wk =   0.2500000

     Initial potential from superposition of free atoms

     starting charge  197.98265, renormalised to  198.00000
     Starting wfcs are  187 randomized atomic wfcs

     Self-consistent Calculation

     iteration #  1     ecut=    45.00 Ry     beta= 0.70
     Davidson diagonalization with overlap
     ethr =  1.00E-02,  avg # of iterations =  2.0

     total energy              =    -772.48953200 Ry
     Harris-Foulkes estimate   =    -775.28433649 Ry
     estimated scf accuracy    <       7.56576331 Ry

[...]

     total energy              =    -773.94910330 Ry
     Harris-Foulkes estimate   =    -773.94910372 Ry
     estimated scf accuracy    <       0.00000220 Ry

     iteration # 14     ecut=    45.00 Ry     beta= 0.70
     Davidson diagonalization with overlap
     ethr =  1.11E-09,  avg # of iterations =  1.0

     End of self-consistent calculation

          k = 0.0000 0.0000 0.0000 ( 25283 PWs)   bands (ev):

    -9.1548  -8.2604  -7.7250  -7.7173  -7.4835  -7.4531  -7.3169  -7.2896
    -7.2088  -7.1424  -7.0536  -6.9066  -6.8226  -6.7335  -6.5511  -6.4046
    -6.3551  -6.0611  -5.9344  -5.9001  -5.6645  -4.8085  -0.0998  -0.0393
     0.1433   0.2025   0.3089   0.3692   0.4396   0.5264   0.6231   0.6582
     0.7369   0.8961   1.0153   1.0931   1.1129   1.1532   1.2067   1.2846
     1.3271   1.4172   1.4684   1.4770   1.6056   1.6677   1.6830   1.7820
     1.8277   1.8937   1.9190   2.0201   2.0534   2.1261   2.2700   2.2889
     2.4026   2.4463   2.4654   2.5284   2.5577   2.6258   2.6547   2.7284
     2.8040   2.8802   2.9869   3.0793   3.2026   3.2555   3.3754   3.5278
     3.5770   3.6017   3.7993   3.9422   4.0603   4.1723   4.2212   4.2519
     4.4002   4.4449   4.5334   4.6536   4.7351   4.8295   4.8551   4.9435
     5.0856   5.1607   5.3120   5.3256   5.3800   5.4299   5.5281   5.6064
     5.6435   5.7998   5.8409   5.9180   6.0419   6.1864   6.2146   6.3632
     6.5745   6.6977   6.7478   6.8969   7.0655   7.2083   7.2516   7.2733
     7.3708   7.4557   7.6074   7.6408   7.6869   7.7550   7.8506

[...]

          k = 0.0000-0.5011-0.3644 ( 25212 PWs)   bands (ev):

[...]

          k =-0.5000 0.0507 0.2598 ( 25230 PWs)   bands (ev):

[...]

          k =-0.5000-0.4504-0.1045 ( 25220 PWs)   bands (ev):

    -9.1229  -8.1613  -7.9384  -7.7506  -7.5018  -7.4411  -7.3623  -7.3136
    -7.2215  -7.1138  -7.0378  -6.8986  -6.7804  -6.7144  -6.5734  -6.3361
    -6.2684  -6.0043  -5.9525  -5.9301  -5.6443  -4.8197  -0.3642  -0.1036
    -0.0276   0.1152   0.1741   0.3304   0.4438   0.4580   0.5289   0.7016
     0.8301   0.9268   0.9723   1.0560   1.1727   1.2058   1.2943   1.3611
     1.3981   1.4261   1.4858   1.5856   1.6920   1.7100   1.7626   1.8055
     1.9299   1.9533   2.0068   2.0207   2.0835   2.1193   2.2688   2.3080
     2.4019   2.4602   2.5082   2.5350   2.6266   2.7066   2.8152   2.8680
     2.8935   2.9864   3.1106   3.1309   3.1889   3.2541   3.3483   3.4036
     3.5784   3.6316   3.7505   3.8491   3.9006   3.9932   4.1415   4.1970
     4.3078   4.3739   4.4377   4.4785   4.5172   4.5792   4.7019   4.9408
     5.1536   5.1984   5.2451   5.3906   5.4544   5.5508   5.6393   5.6924
     5.8128   5.8324   5.9538   5.9970   6.1107   6.1637   6.2530   6.3757
     6.6186   6.6423   6.8850   7.0035   7.0623   7.1329   7.2543   7.2791
     7.3212   7.4418   7.5979   7.6917   7.6960   7.7574   7.7877

     the Fermi energy is     5.9558 ev

!    total energy              =    -773.94910319 Ry
     Harris-Foulkes estimate   =    -773.94910344 Ry
     estimated scf accuracy    <       0.00000028 Ry

     The total energy is the sum of the following terms:

     one-electron contribution =    -148.08161475 Ry
     hartree contribution      =     181.36118079 Ry
     xc contribution           =    -305.59786579 Ry
     ewald contribution        =    -501.63130571 Ry
     smearing contrib. (-TS)   =       0.00050227 Ry

     convergence has been achieved in  14 iterations

     Forces acting on atoms (cartesian axes, Ry/au):

     atom    1 type  1   force =    -0.01147722   -0.01174986   -0.00516529
     atom    2 type  1   force =    -0.02501584   -0.06179196   -0.00732967
     atom    3 type  1   force =     0.00304985   -0.04087526   -0.00641667
     atom    4 type  1   force =    -0.00118989    0.03835007   -0.02363551
     atom    5 type  1   force =     0.00357097   -0.03025181    0.03709274
     atom    6 type  1   force =     0.05831641    0.03602786    0.01070387
     atom    7 type  1   force =     0.00730188   -0.00680443    0.03216461
     atom    8 type  1   force =    -0.02744637   -0.03746559    0.00023235
     atom    9 type  1   force =    -0.01580344    0.07564202    0.00688206
     atom   10 type  1   force =     0.08281549   -0.04546127    0.02566974
     atom   11 type  1   force =    -0.06223543   -0.03522007   -0.02776718
     atom   12 type  2   force =     0.02101996    0.00540254   -0.00980429
     atom   13 type  2   force =    -0.00417895    0.02116711   -0.02178449
     atom   14 type  2   force =     0.00019108    0.02690767   -0.00315555
     atom   15 type  2   force =     0.00065846    0.05002424    0.01044694
     atom   16 type  2   force =     0.02182884    0.00911757   -0.00114166
     atom   17 type  2   force =    -0.00215448    0.00909270   -0.00540609
     atom   18 type  2   force =     0.02109911   -0.05485622   -0.01852611
     atom   19 type  2   force =    -0.02562038   -0.00371826   -0.01043442
     atom   20 type  2   force =     0.01882436    0.00678682   -0.02506229
     atom   21 type  2   force =    -0.03220192   -0.03377903   -0.01735369
     atom   22 type  2   force =    -0.00593639    0.00736954   -0.00557711
     atom   23 type  2   force =    -0.01008500   -0.00827317   -0.02522072
     atom   24 type  2   force =     0.01078227    0.00996607    0.05703577
     atom   25 type  2   force =    -0.01326923    0.04664839   -0.00628308
     atom   26 type  2   force =    -0.01370155    0.01464140    0.01617845
     atom   27 type  2   force =     0.01068313   -0.01006232    0.03105005
     atom   28 type  2   force =     0.00373253   -0.00357298   -0.01890059
     atom   29 type  2   force =     0.01145265   -0.00035013   -0.02293158
     atom   30 type  2   force =     0.01723878   -0.00676014    0.00874170
     atom   31 type  2   force =    -0.00823163    0.02439267   -0.01488733
     atom   32 type  2   force =    -0.02451801    0.01966937    0.00816250
     atom   33 type  2   force =    -0.00950001   -0.01021353    0.03242255

     Total force =     0.259486     Total SCF correction =     0.000859

     General routines

     Parallel routines

   This run was terminated on:   1: 1: 0  24Dec2021

   JOB DONE.