     Program PWSCF v.6.4 starts on 24Dec2021 at 20:19: 1

     R & G space division:  proc/nbgrp/npool/nimage =      40
     Waiting for input...
     Reading input from standard input
Warning: card    &IONS ignored
Warning: card      ION_DYNAMICS = 'BFGS' ignored
Warning: card   / ignored
Warning: card    &CELL ignored
Warning: card      CELL_DYNAMICS = 'BFGS', ignored
Warning: card    / ignored

     Current dimensions of program PWSCF are:
     Max number of different atomic species (ntypx) = 10
     Max number of k-points (npk) =  40000
     Max angular momentum in pseudopotentials (lmaxx) =  3

     bravais-lattice index     =            0
     lattice parameter (alat)  =      15.9229  a.u.
     unit-cell volume          =    5999.6646 (a.u.)^3
     number of atoms/cell      =           42
     number of atomic types    =            2
     number of electrons       =       252.00
     number of Kohn-Sham states=          151
     kinetic-energy cutoff     =      45.0000  Ry
     charge density cutoff     =     360.0000  Ry
     convergence threshold     =      1.0E-06
     mixing beta               =       0.7000
     number of iterations used =            8  local-TF  mixing
     Exchange-correlation      = SLA PW GGX GGC ( 1  4  2  2 0 0)

     celldm(1)=  15.922874  celldm(2)=   0.000000  celldm(3)=   0.000000
     celldm(4)=   0.000000  celldm(5)=   0.000000  celldm(6)=   0.000000

     crystal axes: (cart. coord. in units of alat)
               a(1) = (   1.000000   0.000000   0.000000 )
               a(2) = (   0.123804   1.221633   0.000000 )
               a(3) = (   0.036615   0.122970   1.216528 )

     reciprocal axes: (cart. coord. in units 2 pi/alat)
               b(1) = (  1.000000 -0.101343 -0.019854 )
               b(2) = (  0.000000  0.818577 -0.082744 )
               b(3) = (  0.000000  0.000000  0.822012 )

     PseudoPot. # 1 for Mo read from file:
     ~/pseudo/Mo.pw91-n-van.UPF
     MD5 check sum: Not computed, couldn't open file
     Pseudo is Ultrasoft + core correction, Zval =  6.0
     Generated by new atomic code, or converted to UPF format
     Using radial grid of  965 points,  3 beta functions with:
                l(1) =   1
                l(2) =   2
                l(3) =   2
     Q(r) pseudized with  8 coefficients,  rinner =    1.000   1.000   1.000
                                                       1.200   1.200

     PseudoPot. # 2 for S  read from file:
     ~/pseudo/S.pw91-van_ak.UPF
     MD5 check sum: Not computed, couldn't open file
     Pseudo is Ultrasoft, Zval =  6.0
     Generated by new atomic code, or converted to UPF format
     Using radial grid of  811 points,  6 beta functions with:
                l(1) =   0
                l(2) =   0
                l(3) =   1
                l(4) =   1
                l(5) =   2
                l(6) =   2
     Q(r) pseudized with  8 coefficients,  rinner =    1.100   1.100   1.100
                                                       1.100   1.100

     atomic species   valence    mass     pseudopotential
        Mo             6.00    95.50000     Mo( 1.00)
        S              6.00    32.06500     S ( 1.00)

     No symmetry found

   Cartesian axes

     site n.     atom                  positions (alat units)
         1           Mo  tau(   1) = (   0.2139541   0.5385007   0.7704013  )
         2           Mo  tau(   2) = (   0.4276555   0.2869700   0.8080191  )
         3           Mo  tau(   3) = (   0.1936289   0.3331592   1.0493239  )
         4           Mo  tau(   4) = (   0.4351515   0.5596799   1.0294069  )
         5           Mo  tau(   5) = (   0.6953625   0.4403613   0.1655072  )
         6           Mo  tau(   6) = (   0.9073544   0.2080627   0.2018699  )
         7           Mo  tau(   7) = (   0.6949029   0.2425240   0.4628495  )
         8           Mo  tau(   8) = (   0.9153050   0.4793292   0.4362332  )
         9           Mo  tau(   9) = (   0.4605423   0.7036840   0.0773261  )
        10           Mo  tau(  10) = (   0.1761915   0.7778830   0.4490275  )
        11           Mo  tau(  11) = (   0.5660990   1.1345175   0.5851564  )
        12           Mo  tau(  12) = (   0.8014661   1.1812064   0.7924146  )
        13           Mo  tau(  13) = (   0.9102368   0.8714787   0.6812443  )
        14           Mo  tau(  14) = (   0.6997483   0.8065903   0.9956155  )
        15           S   tau(  15) = (   0.1437382   0.2591685   0.7912004  )
        16           S   tau(  16) = (   0.4984341   0.5561912   0.7455955  )
        17           S   tau(  17) = (   0.3997137   0.4362295   0.1174028  )
        18           S   tau(  18) = (   0.2887750   1.2624413   1.1298150  )
        19           S   tau(  19) = (   0.4089721   0.1888702   0.5215017  )
        20           S   tau(  20) = (   0.2134694   0.5032901   0.4748753  )
        21           S   tau(  21) = (   0.3429173   1.0121298   0.4515259  )
        22           S   tau(  22) = (   0.6381015   0.1584580   0.1989670  )
        23           S   tau(  23) = (   0.9886452   0.4708966   0.1603657  )
        24           S   tau(  24) = (   0.9132244   0.5688590   0.7185928  )
        25           S   tau(  25) = (   0.7151912   0.2368134   0.7687080  )
        26           S   tau(  26) = (   0.9131132   0.2928891   1.1172411  )
        27           S   tau(  27) = (   0.7345289   0.5431262   1.0721942  )
        28           S   tau(  28) = (   0.2014462   0.7712403   0.1641321  )
        29           S   tau(  29) = (   0.1496460   0.6095501   1.0374325  )
        30           S   tau(  30) = (   0.5645284   0.9190252   0.2302119  )
        31           S   tau(  31) = (   0.5272598   1.2006896   0.8511184  )
        32           S   tau(  32) = (   0.1936523   0.8272488   0.7266115  )
        33           S   tau(  33) = (   0.4299908   0.8665530   1.0291775  )
        34           S   tau(  34) = (   0.4628760   0.2717208   1.0914513  )
        35           S   tau(  35) = (   0.6199420   0.8565039   0.7109139  )
        36           S   tau(  36) = (   0.6281617   0.5157364   0.4316787  )
        37           S   tau(  37) = (   0.9201707   0.9837996   0.9461073  )
        38           S   tau(  38) = (   0.1662462   1.1820244   0.1476247  )
        39           S   tau(  39) = (   0.7478981   0.7152209   0.0547554  )
        40           S   tau(  40) = (   0.9048628   0.7790554   0.3960595  )
        41           S   tau(  41) = (   0.8407178   1.1242228   0.5221921  )
        42           S   tau(  42) = (   0.9770238   0.1960012   0.4752172  )

     number of k points=     8  Marzari-Vanderbilt smearing, width (Ry)=  0.0200
                       cart. coord. in units 2pi/alat
        k(    1) = (   0.0000000   0.0000000   0.0000000), wk =   0.2500000
        k(    2) = (   0.0000000   0.0000000  -0.4110059), wk =   0.2500000
        k(    3) = (   0.0000000  -0.4092883   0.0413719), wk =   0.2500000
        k(    4) = (   0.0000000  -0.4092883  -0.3696340), wk =   0.2500000
        k(    5) = (  -0.5000000   0.0506715   0.0099271), wk =   0.2500000
        k(    6) = (  -0.5000000   0.0506715  -0.4010788), wk =   0.2500000
        k(    7) = (  -0.5000000  -0.3586169   0.0512990), wk =   0.2500000
        k(    8) = (  -0.5000000  -0.3586169  -0.3597069), wk =   0.2500000

     Initial potential from superposition of free atoms

     starting charge  251.97792, renormalised to  252.00000
     Starting wfcs are  238 randomized atomic wfcs

     Self-consistent Calculation

     iteration #  1     ecut=    45.00 Ry     beta= 0.70
     Davidson diagonalization with overlap
     ethr =  1.00E-02,  avg # of iterations =  2.0

     total energy              =    -983.34629614 Ry
     Harris-Foulkes estimate   =    -986.62856451 Ry
     estimated scf accuracy    <       9.08095869 Ry

[...]

     total energy              =    -985.10279376 Ry
     Harris-Foulkes estimate   =    -985.10279388 Ry
     estimated scf accuracy    <       0.00000112 Ry

     iteration # 15     ecut=    45.00 Ry     beta= 0.70
     Davidson diagonalization with overlap
     ethr =  4.45E-10,  avg # of iterations =  2.0

     End of self-consistent calculation

          k = 0.0000 0.0000 0.0000 ( 30531 PWs)   bands (ev):

    -7.8988  -7.5960  -7.2171  -7.0549  -7.0395  -6.9428  -6.8100  -6.7291
    -6.6970  -6.5656  -6.5506  -6.5195  -6.4137  -6.3232  -6.2938  -6.2910
    -6.1944  -6.1756  -6.1089  -6.0759  -6.0208  -5.9205  -5.8026  -5.5939
    -5.4664  -5.3664  -5.0696  -4.0769   0.3979   0.4771   0.5234   0.6080
     0.8689   0.9256   0.9974   1.0588   1.1169   1.2220   1.2968   1.3355
     1.3907   1.4096   1.4689   1.6001   1.6336   1.6929   1.7531   1.7673
     1.8588   1.8795   1.9713   2.0177   2.0822   2.1316   2.1638   2.1773
     2.2471   2.2911   2.3735   2.4377   2.4678   2.5091   2.5528   2.6106
     2.6455   2.7316   2.7329   2.7977   2.8666   2.8987   2.9351   2.9768
     3.0480   3.0846   3.1401   3.1719   3.1977   3.2694   3.3359   3.3693
     3.4287   3.4511   3.5274   3.5762   3.6395   3.7244   3.7551   3.8147
     3.8573   3.8920   4.0158   4.0909   4.1314   4.1706   4.2643   4.3242
     4.3597   4.4194   4.5495   4.5656   4.6230   4.7197   4.7627   4.8704
     4.9388   5.0235   5.1035   5.2239   5.2511   5.2682   5.3431   5.4745
     5.6223   5.6506   5.7501   5.8447   5.9283   6.0207   6.0878   6.1353
     6.2015   6.2691   6.3427   6.4087   6.4961   6.5711   6.6629   6.7201
     6.8033   6.9346   7.0146   7.1366   7.2826   7.3304   7.4689   7.5365
     7.6253   7.6871   7.8039   7.8513   7.8751   7.9005   8.0198   8.1036
     8.1708   8.3460   8.3615   8.4362   8.4753   8.5015   8.5393

[...]

          k = 0.0000-0.4093-0.3696 ( 30538 PWs)   bands (ev):

[...]

          k =-0.5000 0.0507 0.0099 ( 30552 PWs)   bands (ev):

[...]

          k =-0.5000-0.3586-0.3597 ( 30564 PWs)   bands (ev):

    -7.7273  -7.4501  -7.2774  -7.2288  -7.1043  -6.9789  -6.9578  -6.8149
    -6.6065  -6.5562  -6.5258  -6.4772  -6.4054  -6.3837  -6.3373  -6.2748
    -6.2501  -6.1345  -6.1130  -6.0997  -6.0367  -5.8480  -5.7660  -5.6087
    -5.4316  -5.3274  -5.0633  -4.0782   0.6098   0.6890   0.7013   0.8288
     0.8880   0.9808   1.0122   1.1182   1.1974   1.2045   1.2540   1.3594
     1.3912   1.4425   1.5144   1.5698   1.5989   1.6633   1.7259   1.7515
     1.8026   1.8531   1.8783   1.8996   1.9693   2.0423   2.0704   2.1730
     2.2152   2.2583   2.3924   2.4129   2.4697   2.5286   2.5485   2.5932
     2.6848   2.6991   2.7876   2.8138   2.8484   2.8996   2.9549   3.0376
     3.0741   3.0944   3.1243   3.1385   3.2287   3.2813   3.3208   3.3559
     3.4099   3.4374   3.5525   3.5978   3.6092   3.6508   3.7513   3.7697
     3.8248   3.8998   3.9719   4.0311   4.0965   4.1663   4.2249   4.2548
     4.3419   4.3622   4.4304   4.5552   4.5791   4.6329   4.7931   4.8772
     4.9321   4.9870   5.0501   5.1408   5.1594   5.2618   5.2825   5.3595
     5.5122   5.6677   5.7094   5.7520   5.7972   6.0386   6.1361   6.1971
     6.2194   6.2910   6.3246   6.4368   6.5061   6.5732   6.6266   6.7317
     6.8385   6.9237   7.0630   7.1703   7.2152   7.2881   7.3922   7.4847
     7.5278   7.5983   7.7401   7.7527   7.8941   7.9301   8.0226   8.0600
     8.1305   8.2077   8.3186   8.3950   8.4515   8.5148   8.5605

     the Fermi energy is     6.6126 ev

!    total energy              =    -985.10279366 Ry
     Harris-Foulkes estimate   =    -985.10279390 Ry
     estimated scf accuracy    <       0.00000034 Ry

     The total energy is the sum of the following terms:

     one-electron contribution =     -98.06949089 Ry
     hartree contribution      =     191.42097409 Ry
     xc contribution           =    -389.40531926 Ry
     ewald contribution        =    -689.05179509 Ry
     smearing contrib. (-TS)   =       0.00283748 Ry

     convergence has been achieved in  15 iterations

     Forces acting on atoms (cartesian axes, Ry/au):

     atom    1 type  1   force =    -0.02133266   -0.00339664   -0.01172456
     atom    2 type  1   force =     0.01026171   -0.03340651    0.03249097
     atom    3 type  1   force =    -0.04003056   -0.02797035    0.00757195
     atom    4 type  1   force =     0.01579633    0.00749342    0.01117291
     atom    5 type  1   force =    -0.02395656    0.05212513   -0.00642744
     atom    6 type  1   force =     0.04888841   -0.07457297   -0.02318821
     atom    7 type  1   force =     0.00981476   -0.03062657   -0.00470421
     atom    8 type  1   force =     0.00617438    0.02446289   -0.02809589
     atom    9 type  1   force =     0.00213627    0.02063855    0.01003740
     atom   10 type  1   force =    -0.02882625   -0.03078017    0.00023296
     atom   11 type  1   force =    -0.03721102   -0.02054236   -0.02835365
     atom   12 type  1   force =    -0.01233513    0.02033709    0.02126090
     atom   13 type  1   force =     0.00148858   -0.02517807   -0.03667377
     atom   14 type  1   force =     0.00159842    0.02064378    0.00393125
     atom   15 type  2   force =    -0.00325945    0.00436766   -0.01593886
     atom   16 type  2   force =    -0.02364865   -0.02048399    0.01968335
     atom   17 type  2   force =     0.00953314    0.00983811    0.00073941
     atom   18 type  2   force =    -0.03488448    0.01763498    0.03197482
     atom   19 type  2   force =    -0.00609870   -0.00828238   -0.00821498
     atom   20 type  2   force =     0.00642342    0.00464726   -0.00530522
     atom   21 type  2   force =     0.02884014   -0.00420608   -0.02143663
     atom   22 type  2   force =    -0.02080987   -0.00183088   -0.02232832
     atom   23 type  2   force =    -0.01022910   -0.00942258   -0.01235463
     atom   24 type  2   force =     0.00509638    0.01814394    0.00046272
     atom   25 type  2   force =     0.02473822   -0.01050165   -0.01309039
     atom   26 type  2   force =     0.01632861    0.00903456   -0.00244391
     atom   27 type  2   force =    -0.00316017   -0.02088275    0.02386850
     atom   28 type  2   force =     0.01079822    0.01163536    0.00405904
     atom   29 type  2   force =     0.00679646    0.00579787    0.01621199
     atom   30 type  2   force =    -0.02095322   -0.02054693    0.00102233
     atom   31 type  2   force =     0.00365251    0.00731615    0.00369289
     atom   32 type  2   force =    -0.00495690    0.03710444    0.01093813
     atom   33 type  2   force =    -0.01067604   -0.00702063   -0.00973737
     atom   34 type  2   force =     0.00440962    0.02275728   -0.01371643
     atom   35 type  2   force =     0.02024030    0.01152327   -0.00441336
     atom   36 type  2   force =     0.01819515   -0.00575808    0.00945226
     atom   37 type  2   force =     0.01010076    0.00637563    0.02972042
     atom   38 type  2   force =     0.02567553    0.01129989   -0.00678629
     atom   39 type  2   force =     0.00245174    0.01203642    0.00237519
     atom   40 type  2   force =    -0.00077215    0.01326595    0.01469178
     atom   41 type  2   force =     0.01431473   -0.00469569    0.00600396
     atom   42 type  2   force =    -0.00061289    0.01162566    0.01333898

     Total force =     0.215269     Total SCF correction =     0.000983

     General routines

     Parallel routines

   This run was terminated on:  20:22: 1  24Dec2021

   JOB DONE.