     Program PWSCF v.6.4 starts on 18Oct2021 at 15:31:50

     R & G space division:  proc/nbgrp/npool/nimage =      40
     Waiting for input...
     Reading input from standard input
Warning: card    &IONS ignored
Warning: card      ION_DYNAMICS = 'BFGS' ignored
Warning: card   / ignored
Warning: card    &CELL ignored
Warning: card      CELL_DYNAMICS = 'BFGS', ignored
Warning: card    / ignored

     Current dimensions of program PWSCF are:
     Max number of different atomic species (ntypx) = 10
     Max number of k-points (npk) =  40000
     Max angular momentum in pseudopotentials (lmaxx) =  3

     bravais-lattice index     =            0
     lattice parameter (alat)  =      12.0323  a.u.
     unit-cell volume          =    2159.6457 (a.u.)^3
     number of atoms/cell      =           12
     number of atomic types    =            2
     number of electrons       =        72.00
     number of Kohn-Sham states=           43
     kinetic-energy cutoff     =      45.0000  Ry
     charge density cutoff     =     360.0000  Ry
     convergence threshold     =      1.0E-06
     mixing beta               =       0.7000
     number of iterations used =            8  local-TF  mixing
     Exchange-correlation      = SLA PW GGX GGC ( 1  4  2  2 0 0)

     celldm(1)=  12.032326  celldm(2)=   0.000000  celldm(3)=   0.000000
     celldm(4)=   0.000000  celldm(5)=   0.000000  celldm(6)=   0.000000

     crystal axes: (cart. coord. in units of alat)
               a(1) = (   0.999720   0.023632   0.001425 )
               a(2) = (   0.498575   0.902531   0.004370 )
               a(3) = (   0.442652   0.352727   1.394238 )

     reciprocal axes: (cart. coord. in units 2 pi/alat)
               b(1) = (  1.013755 -0.559144 -0.180397 )
               b(2) = ( -0.026171  1.123789 -0.275997 )
               b(3) = ( -0.000954 -0.002951  0.718287 )

     PseudoPot. # 1 for Mo read from file:
     ~/pseudo/Mo.pw91-n-van.UPF
     MD5 check sum: Not computed, couldn't open file
     Pseudo is Ultrasoft + core correction, Zval =  6.0
     Generated by new atomic code, or converted to UPF format
     Using radial grid of  965 points,  3 beta functions with:
                l(1) =   1
                l(2) =   2
                l(3) =   2
     Q(r) pseudized with  8 coefficients,  rinner =    1.000   1.000   1.000
                                                       1.200   1.200

     PseudoPot. # 2 for S  read from file:
     ~/pseudo/S.pw91-van_ak.UPF
     MD5 check sum: Not computed, couldn't open file
     Pseudo is Ultrasoft, Zval =  6.0
     Generated by new atomic code, or converted to UPF format
     Using radial grid of  811 points,  6 beta functions with:
                l(1) =   0
                l(2) =   0
                l(3) =   1
                l(4) =   1
                l(5) =   2
                l(6) =   2
     Q(r) pseudized with  8 coefficients,  rinner =    1.100   1.100   1.100
                                                       1.100   1.100

     atomic species   valence    mass     pseudopotential
        Mo             6.00    95.50000     Mo( 1.00)
        S              6.00    32.06500     S ( 1.00)

     No symmetry found

   Cartesian axes

     site n.     atom                  positions (alat units)
         1           Mo  tau(   1) = (   1.0359597   1.1407494   1.3038695  )
         2           Mo  tau(   2) = (   1.6883362   0.8601472   1.3718727  )
         3           Mo  tau(   3) = (   0.7645622   0.4320723   0.0623435  )
         4           Mo  tau(   4) = (   1.0118477   0.9355138   0.0318118  )
         5           S   tau(   5) = (   0.1822658   0.1558053   0.1821284  )
         6           S   tau(   6) = (   0.4880089   0.6204786   0.2303035  )
         7           S   tau(   7) = (   1.0136343   0.6253201   0.2720764  )
         8           S   tau(   8) = (   0.6837390   0.1701438   0.3252660  )
         9           S   tau(   9) = (   0.7362665   0.5357208   1.1306699  )
        10           S   tau(  10) = (   0.8391917   0.9739629   1.0387444  )
        11           S   tau(  11) = (   1.3690625   0.9905521   1.1660776  )
        12           S   tau(  12) = (   1.2279950   0.5064431   1.1933953  )

     number of k points=    14  Marzari-Vanderbilt smearing, width (Ry)=  0.0200
                       cart. coord. in units 2pi/alat
        k(    1) = (   0.0000000   0.0000000   0.0000000), wk =   0.0833333
        k(    2) = (   0.0004772   0.0014754  -0.3591436), wk =   0.0833333
        k(    3) = (  -0.0087237   0.3745963  -0.0919990), wk =   0.1666667
        k(    4) = (  -0.0082465   0.3760717  -0.4511426), wk =   0.1666667
        k(    5) = (   0.2534387  -0.1397860  -0.0450992), wk =   0.1666667
        k(    6) = (   0.2539159  -0.1383106  -0.4042428), wk =   0.1666667
        k(    7) = (   0.2447150   0.2348103  -0.1370982), wk =   0.1666667
        k(    8) = (   0.2451922   0.2362857  -0.4962418), wk =   0.1666667
        k(    9) = (   0.2621625  -0.5143823   0.0468998), wk =   0.1666667
        k(   10) = (   0.2626397  -0.5129069  -0.3122438), wk =   0.1666667
        k(   11) = (  -0.5068775   0.2795720   0.0901984), wk =   0.0833333
        k(   12) = (  -0.5064003   0.2810474  -0.2689452), wk =   0.0833333
        k(   13) = (  -0.5156012   0.6541683  -0.0018006), wk =   0.1666667
        k(   14) = (  -0.5151240   0.6556437  -0.3609442), wk =   0.1666667

     Initial potential from superposition of free atoms

     starting charge   71.99369, renormalised to   72.00000
     Starting wfcs are   68 randomized atomic wfcs

     Self-consistent Calculation

     iteration #  1     ecut=    45.00 Ry     beta= 0.70
     Davidson diagonalization with overlap
     ethr =  1.00E-02,  avg # of iterations =  2.0

     total energy              =    -280.97508653 Ry
     Harris-Foulkes estimate   =    -281.97080811 Ry
     estimated scf accuracy    <       2.69574881 Ry

[...]

     total energy              =    -281.50298549 Ry
     Harris-Foulkes estimate   =    -281.50298647 Ry
     estimated scf accuracy    <       0.00000286 Ry

     iteration # 11     ecut=    45.00 Ry     beta= 0.70
     Davidson diagonalization with overlap
     ethr =  3.97E-09,  avg # of iterations =  3.9

     End of self-consistent calculation

          k = 0.0000 0.0000 0.0000 ( 10999 PWs)   bands (ev):

   -10.4035  -9.4141  -9.0130  -8.7410  -8.6145  -8.3477  -8.1045  -7.9790
    -2.2497  -1.9563  -1.6942  -1.6001  -1.2842  -1.1061  -0.7867  -0.5904
    -0.1978   0.0414   0.2616   0.4452   0.6579   0.9291   1.2194   1.2682
     1.4793   1.6401   1.7973   1.9269   1.9593   2.0879   2.3700   2.5126
     3.0832   3.2783   3.5422   3.7282   4.4214   4.6511   5.1715   5.3872
     5.6037   5.6228   5.7812

[...]

          k =-0.0087 0.3746-0.0920 ( 11014 PWs)   bands (ev):

[...]

          k = 0.2626-0.5129-0.3122 ( 11016 PWs)   bands (ev):

[...]

          k =-0.5151 0.6556-0.3609 ( 11025 PWs)   bands (ev):

    -9.9053  -9.4317  -9.1902  -9.0038  -8.8761  -8.3851  -8.1764  -7.9395
    -1.7684  -1.4826  -1.4489  -1.3345  -0.8943  -0.7614  -0.5726  -0.4199
    -0.2214  -0.0635   0.0792   0.1994   0.3577   0.5949   0.8507   1.1145
     1.1528   1.3189   1.4734   1.8517   2.1141   2.2762   2.5167   2.7143
     3.0298   3.0933   3.2229   3.6536   4.0436   4.4345   4.6568   5.3308
     5.5528   5.6146   5.8492

     the Fermi energy is     3.8317 ev

!    total energy              =    -281.50298597 Ry
     Harris-Foulkes estimate   =    -281.50298675 Ry
     estimated scf accuracy    <       0.00000087 Ry

     The total energy is the sum of the following terms:

     one-electron contribution =    -196.55654668 Ry
     hartree contribution      =     132.09314189 Ry
     xc contribution           =    -111.15302931 Ry
     ewald contribution        =    -105.88910727 Ry
     smearing contrib. (-TS)   =       0.00255541 Ry

     convergence has been achieved in  11 iterations

     Forces acting on atoms (cartesian axes, Ry/au):

     atom    1 type  1   force =    -0.00046382    0.00189192   -0.00100031
     atom    2 type  1   force =    -0.00222105   -0.00010016   -0.00066986
     atom    3 type  1   force =     0.00095136   -0.00033843   -0.00222075
     atom    4 type  1   force =    -0.00125876   -0.00077619    0.00162448
     atom    5 type  2   force =    -0.00245703    0.00306029   -0.00290550
     atom    6 type  2   force =     0.00051466   -0.00178980   -0.00445571
     atom    7 type  2   force =     0.00220309   -0.00082547    0.00066077
     atom    8 type  2   force =     0.00026122   -0.00068425    0.00339214
     atom    9 type  2   force =    -0.00002448    0.00067172    0.00089447
     atom   10 type  2   force =     0.00004475    0.00032492   -0.00184108
     atom   11 type  2   force =     0.00106700    0.00011452    0.00311579
     atom   12 type  2   force =     0.00138306   -0.00154907    0.00340556

     Total force =     0.010847     Total SCF correction =     0.001901
     SCF correction compared to forces is large: reduce conv_thr to get better values

     General routines

     Parallel routines

   This run was terminated on:  15:32:14  18Oct2021

   JOB DONE.