     Program PWSCF v.6.4 starts on  3Dec2021 at 15:59: 8

     R & G space division:  proc/nbgrp/npool/nimage =      40
     Waiting for input...
     Reading input from standard input
Warning: card    &IONS ignored
Warning: card      ION_DYNAMICS = 'BFGS' ignored
Warning: card   / ignored
Warning: card    &CELL ignored
Warning: card      CELL_DYNAMICS = 'BFGS', ignored
Warning: card    / ignored

     Current dimensions of program PWSCF are:
     Max number of different atomic species (ntypx) = 10
     Max number of k-points (npk) =  40000
     Max angular momentum in pseudopotentials (lmaxx) =  3

     bravais-lattice index     =            0
     lattice parameter (alat)  =      11.8752  a.u.
     unit-cell volume          =   10433.7618 (a.u.)^3
     number of atoms/cell      =           36
     number of atomic types    =            2
     number of electrons       =       216.00
     number of Kohn-Sham states=          130
     kinetic-energy cutoff     =      45.0000  Ry
     charge density cutoff     =     360.0000  Ry
     convergence threshold     =      1.0E-06
     mixing beta               =       0.7000
     number of iterations used =            8  local-TF  mixing
     Exchange-correlation      = SLA PW GGX GGC ( 1  4  2  2 0 0)

     celldm(1)=  11.875216  celldm(2)=   0.000000  celldm(3)=   0.000000
     celldm(4)=   0.000000  celldm(5)=   0.000000  celldm(6)=   0.000000

     crystal axes: (cart. coord. in units of alat)
               a(1) = (   1.000000   0.000000   0.000000 )
               a(2) = (  -0.000949   1.794293   0.000000 )
               a(3) = (   0.174298   0.662463   3.472346 )

     reciprocal axes: (cart. coord. in units 2 pi/alat)
               b(1) = (  1.000000  0.000529 -0.050297 )
               b(2) = (  0.000000  0.557323 -0.106327 )
               b(3) = (  0.000000  0.000000  0.287990 )

     PseudoPot. # 1 for Mo read from file:
     ~/pseudo/Mo.pw91-n-van.UPF
     MD5 check sum: Not computed, couldn't open file
     Pseudo is Ultrasoft + core correction, Zval =  6.0
     Generated by new atomic code, or converted to UPF format
     Using radial grid of  965 points,  3 beta functions with:
                l(1) =   1
                l(2) =   2
                l(3) =   2
     Q(r) pseudized with  8 coefficients,  rinner =    1.000   1.000   1.000
                                                       1.200   1.200

     PseudoPot. # 2 for S  read from file:
     ~/pseudo/S.pw91-van_ak.UPF
     MD5 check sum: Not computed, couldn't open file
     Pseudo is Ultrasoft, Zval =  6.0
     Generated by new atomic code, or converted to UPF format
     Using radial grid of  811 points,  6 beta functions with:
                l(1) =   0
                l(2) =   0
                l(3) =   1
                l(4) =   1
                l(5) =   2
                l(6) =   2
     Q(r) pseudized with  8 coefficients,  rinner =    1.100   1.100   1.100
                                                       1.100   1.100

     atomic species   valence    mass     pseudopotential
        Mo             6.00    95.50000     Mo( 1.00)
        S              6.00    32.06500     S ( 1.00)

     No symmetry found

   Cartesian axes

     site n.     atom                  positions (alat units)
         1           Mo  tau(   1) = (   1.0683245   0.8427768   2.3170264  )
         2           Mo  tau(   2) = (   0.8198155   1.2893023   2.3191196  )
         3           Mo  tau(   3) = (   0.5686153   0.8414586   2.3172127  )
         4           Mo  tau(   4) = (   0.3178991   1.2896422   2.3191288  )
         5           Mo  tau(   5) = (   0.5650159   1.7399584   2.2962081  )
         6           Mo  tau(   6) = (   1.0652209   1.7395273   2.2954777  )
         7           Mo  tau(   7) = (   0.3148183   2.1865784   2.2937087  )
         8           Mo  tau(   8) = (   0.8139793   2.1864436   2.2938478  )
         9           Mo  tau(   9) = (   0.5237195   1.5167355   1.1865446  )
        10           Mo  tau(  10) = (   1.0177315   1.4984485   1.2144684  )
        11           Mo  tau(  11) = (   0.7890655   1.5177685   0.0892409  )
        12           Mo  tau(  12) = (   0.2890948   1.5184982   0.0905351  )
        13           S   tau(  13) = (   0.8187604   0.9933221   2.5750760  )
        14           S   tau(  14) = (   1.0651396   0.5364229   2.5529243  )
        15           S   tau(  15) = (   0.3191181   0.9933533   2.5748034  )
        16           S   tau(  16) = (   0.5651957   0.5357486   2.5536461  )
        17           S   tau(  17) = (   0.0382581   1.6294748   0.3340549  )
        18           S   tau(  18) = (   0.5392691   1.7641724  -0.0176093  )
        19           S   tau(  19) = (   0.8187746   0.9949502   2.0662287  )
        20           S   tau(  20) = (   1.0656040   0.5554447   2.0480076  )
        21           S   tau(  21) = (   0.3194501   0.9950019   2.0666391  )
        22           S   tau(  22) = (   0.5657481   0.5551339   2.0471517  )
        23           S   tau(  23) = (   0.2144713   2.0691149   3.3180095  )
        24           S   tau(  24) = (   0.5390480   1.2779839   0.2124833  )
        25           S   tau(  25) = (   0.5686088   1.4521130   2.5659912  )
        26           S   tau(  26) = (   1.0684783   1.4532165   2.5641816  )
        27           S   tau(  27) = (   0.5690330   1.4338397   2.0627775  )
        28           S   tau(  28) = (   1.0689042   1.4346528   2.0576960  )
        29           S   tau(  29) = (   0.3146058   1.8898788   2.0376491  )
        30           S   tau(  30) = (   0.8145540   1.8898785   2.0383355  )
        31           S   tau(  31) = (   0.0753545   1.6261231   1.5288329  )
        32           S   tau(  32) = (   0.2909919   1.7703808   1.2645007  )
        33           S   tau(  33) = (   0.3142638   1.8920435   2.5453247  )
        34           S   tau(  34) = (   0.8144716   1.8918026   2.5456121  )
        35           S   tau(  35) = (   0.7840709   1.6530476   0.9792230  )
        36           S   tau(  36) = (   0.2779302   1.2841400   1.0623731  )

     number of k points=     4  Marzari-Vanderbilt smearing, width (Ry)=  0.0200
                       cart. coord. in units 2pi/alat
        k(    1) = (   0.0000000   0.0000000   0.0000000), wk =   0.3333333
        k(    2) = (   0.0000000  -0.2786613   0.0531637), wk =   0.3333333
        k(    3) = (   0.3333333   0.0001763  -0.0167657), wk =   0.6666667
        k(    4) = (   0.3333333  -0.2784849   0.0363980), wk =   0.6666667

     Initial potential from superposition of free atoms

     starting charge  215.98107, renormalised to  216.00000

     negative rho (up, down):  1.832E-04 0.000E+00
     Starting wfcs are  204 randomized atomic wfcs

     Self-consistent Calculation

     iteration #  1     ecut=    45.00 Ry     beta= 0.70
     Davidson diagonalization with overlap
     ethr =  1.00E-02,  avg # of iterations =  2.5

     negative rho (up, down):  3.425E-06 0.000E+00

     total energy              =    -843.44082730 Ry
     Harris-Foulkes estimate   =    -846.09157683 Ry
     estimated scf accuracy    <       7.26512635 Ry

[...]

     iteration # 18     ecut=    45.00 Ry     beta= 0.70
     Davidson diagonalization with overlap
     c_bands:  2 eigenvalues not converged
     ethr =  3.37E-08,  avg # of iterations =  7.5

[...]

     total energy              =    -844.77944980 Ry
     Harris-Foulkes estimate   =    -844.77945003 Ry
     estimated scf accuracy    <       0.00000164 Ry

     iteration # 21     ecut=    45.00 Ry     beta= 0.70
     Davidson diagonalization with overlap
     ethr =  7.59E-10,  avg # of iterations =  6.5

[...]

     End of self-consistent calculation

          k = 0.0000 0.0000 0.0000 ( 53185 PWs)   bands (ev):

   -14.1444 -13.7930 -13.4005 -13.3863 -12.9615 -12.6352 -12.6265 -12.4156
   -12.3471 -12.3390 -12.3254 -12.3141 -12.3043 -12.2178 -12.2131 -12.0610
   -12.0476 -12.0322 -12.0238 -11.8390 -11.7380 -11.7235 -11.6440 -11.2139
    -5.8150  -5.7675  -5.7630  -5.6211  -5.2159  -5.1970  -4.9967  -4.9904
    -4.9653  -4.9643  -4.8746  -4.8633  -4.7992  -4.6246  -4.3560  -4.3318
    -4.1378  -4.1090  -4.1043  -3.9699  -3.9324  -3.8396  -3.7253  -3.6843
    -3.6730  -3.6396  -3.6181  -3.3772  -3.3698  -3.3045  -3.2900  -3.2148
    -3.2090  -3.2022  -3.1853  -3.0838  -2.9537  -2.9187  -2.8694  -2.8651
    -2.7934  -2.7734  -2.7514  -2.7022  -2.6866  -2.4815  -2.4437  -2.2767
    -2.2510  -2.2040  -2.1382  -2.0933  -1.9980  -1.9637  -1.8859  -1.7851
    -1.7638  -1.7006  -1.6463  -1.6326  -1.6087  -1.5224  -1.4839  -1.3556
    -1.3156  -1.2843  -1.2633  -1.1119  -1.0903  -0.9703  -0.9648  -0.9096
    -0.7578  -0.7234  -0.7221  -0.7073  -0.6999  -0.6456  -0.2390  -0.1421
     0.3324   0.3368   0.3455   0.5713   0.5970   0.7530   1.1407   1.8077
     1.8830   1.9173   1.9292   1.9497   1.9638   1.9798   2.0092   2.0201
     2.0548   2.1817   2.2483   2.2987   2.3201   2.3285   2.4046   2.5212
     2.5349   2.5457

[...]

          k = 0.3333-0.2785 0.0364 ( 53166 PWs)   bands (ev):

   -13.7761 -13.6641 -13.6512 -12.9733 -12.9591 -12.7414 -12.7290 -12.5639
   -12.5556 -12.3854 -12.3709 -12.2509 -12.2384 -12.2292 -12.2272 -12.1515
   -12.1432 -12.0291 -12.0231 -11.9211 -11.8104 -11.7310 -11.7173 -11.2035
    -5.2234  -5.2139  -5.1770  -5.1681  -5.1464  -5.1308  -5.1237  -5.0951
    -5.0430  -5.0366  -4.6445  -4.6030  -4.5799  -4.0987  -4.0728  -4.0694
    -3.9259  -3.9039  -3.8867  -3.8572  -3.8513  -3.8468  -3.8443  -3.8145
    -3.5245  -3.4961  -3.4901  -3.3281  -3.2550  -3.2515  -3.2482  -3.2314
    -3.2198  -3.1384  -3.1319  -3.1241  -3.0620  -3.0464  -3.0295  -2.9763
    -2.9705  -2.8991  -2.8953  -2.8098  -2.7162  -2.6123  -2.5947  -2.5324
    -2.3919  -2.3660  -2.3617  -2.3120  -2.3075  -2.2771  -2.1508  -2.1456
    -2.0079  -1.9924  -1.9184  -1.7935  -1.7799  -1.7299  -1.7237  -1.6462
    -1.6359  -1.5728  -1.5665  -1.5588  -1.3974  -1.1799  -1.1681  -1.0295
    -1.0243  -0.6891  -0.6845  -0.5677  -0.5656  -0.4059  -0.3901  -0.3777
     0.3415   0.4453   0.5307   0.5761   0.7893   1.1011   1.3089   1.7922
     1.8121   1.8336   1.8688   1.8784   1.9334   1.9416   1.9713   1.9810
     2.1626   2.1748   2.2224   2.2339   2.2423   2.2742   2.2838   2.2850
     2.3032   2.3290

     the Fermi energy is     0.6718 ev

!    total energy              =    -844.77944960 Ry
     Harris-Foulkes estimate   =    -844.77945054 Ry
     estimated scf accuracy    <       0.00000090 Ry

     The total energy is the sum of the following terms:

     one-electron contribution =   -2721.14023999 Ry
     hartree contribution      =    1433.89811323 Ry
     xc contribution           =    -333.39571904 Ry
     ewald contribution        =     775.86065020 Ry
     smearing contrib. (-TS)   =      -0.00225400 Ry

     convergence has been achieved in  21 iterations

     negative rho (up, down):  4.037E-04 0.000E+00

     Forces acting on atoms (cartesian axes, Ry/au):

     atom    1 type  1   force =    -0.00023478    0.00088175   -0.00254477
     atom    2 type  1   force =    -0.00412487    0.01093637   -0.00696281
     atom    3 type  1   force =    -0.00102107    0.00653447   -0.00314729
     atom    4 type  1   force =     0.00346350    0.00987297   -0.00701475
     atom    5 type  1   force =     0.00124143    0.00032289    0.00238809
     atom    6 type  1   force =     0.00032871    0.00231901   -0.00070113
     atom    7 type  1   force =    -0.00181371    0.01022488    0.00514421
     atom    8 type  1   force =     0.00273170    0.01072954    0.00540970
     atom    9 type  1   force =     0.01119833   -0.00715728    0.02956385
     atom   10 type  1   force =    -0.00460711   -0.01169293   -0.05621804
     atom   11 type  1   force =    -0.00116744    0.00108457    0.00853775
     atom   12 type  1   force =     0.00252529    0.00060609    0.00778453
     atom   13 type  2   force =    -0.00000354   -0.00451290   -0.01266965
     atom   14 type  2   force =     0.00151056   -0.00361835   -0.00265364
     atom   15 type  2   force =    -0.00109744   -0.00433977   -0.01250594
     atom   16 type  2   force =     0.00127915   -0.00323071   -0.00281505
     atom   17 type  2   force =    -0.00027643    0.00769110    0.01398009
     atom   18 type  2   force =    -0.00026955    0.01444393   -0.01039348
     atom   19 type  2   force =    -0.00040451   -0.00187707    0.00177039
     atom   20 type  2   force =     0.00040220   -0.00339628    0.00667661
     atom   21 type  2   force =    -0.00175889   -0.00176757    0.00114281
     atom   22 type  2   force =     0.00028185   -0.00368263    0.00789495
     atom   23 type  2   force =    -0.00059211   -0.00930310   -0.01786159
     atom   24 type  2   force =     0.00025729   -0.01407837    0.00037816
     atom   25 type  2   force =    -0.00098742   -0.00338274   -0.00930286
     atom   26 type  2   force =    -0.00066182   -0.00356164   -0.00291675
     atom   27 type  2   force =    -0.00167810   -0.00539362   -0.00539884
     atom   28 type  2   force =    -0.00182425   -0.00732753    0.00838846
     atom   29 type  2   force =     0.00158149   -0.00197604    0.01268057
     atom   30 type  2   force =    -0.00026566   -0.00246452    0.01070673
     atom   31 type  2   force =    -0.02195873    0.00747681    0.08086711
     atom   32 type  2   force =     0.01228148    0.05044072   -0.00854863
     atom   33 type  2   force =     0.00074557   -0.00049761    0.00365055
     atom   34 type  2   force =     0.00148239   -0.00036397    0.00288225
     atom   35 type  2   force =     0.00756688    0.02411992   -0.02786785
     atom   36 type  2   force =    -0.00413037   -0.06406037   -0.02032375

     Total force =     0.152824     Total SCF correction =     0.002142

     General routines

     Parallel routines

   This run was terminated on:  16: 2:42   3Dec2021

   JOB DONE.