     Program PWSCF v.6.4.1 starts on  2Aug2021 at 11: 2:27

     R & G space division:  proc/nbgrp/npool/nimage =      20
     Waiting for input...
     Reading input from standard input
Warning: card    &IONS ignored
Warning: card      ION_DYNAMICS = 'BFGS' ignored
Warning: card   / ignored
Warning: card    &CELL ignored
Warning: card      CELL_DYNAMICS = 'BFGS', ignored
Warning: card    / ignored

     Current dimensions of program PWSCF are:
     Max number of different atomic species (ntypx) = 10
     Max number of k-points (npk) =  40000
     Max angular momentum in pseudopotentials (lmaxx) =  3

     Subspace diagonalization in iterative solution of the eigenvalue problem:
     a serial algorithm will be used

     bravais-lattice index     =            0
     lattice parameter (alat)  =      12.3591  a.u.
     unit-cell volume          =    3812.4133 (a.u.)^3
     number of atoms/cell      =           24
     number of atomic types    =            2
     number of electrons       =       144.00
     number of Kohn-Sham states=           86
     kinetic-energy cutoff     =      45.0000  Ry
     charge density cutoff     =     360.0000  Ry
     convergence threshold     =      1.0E-06
     mixing beta               =       0.7000
     number of iterations used =            8  local-TF  mixing
     Exchange-correlation      = SLA PW GGX GGC ( 1  4  2  2 0 0)

     celldm(1)=  12.359088  celldm(2)=   0.000000  celldm(3)=   0.000000
     celldm(4)=   0.000000  celldm(5)=   0.000000  celldm(6)=   0.000000

     crystal axes: (cart. coord. in units of alat)
               a(1) = (   1.000000   0.000000   0.000000 )
               a(2) = (  -0.250000   0.433013   0.000000 )
               a(3) = (   0.000000   0.000000   4.663803 )

     reciprocal axes: (cart. coord. in units 2 pi/alat)
               b(1) = (  1.000000  0.577350 -0.000000 )
               b(2) = (  0.000000  2.309402  0.000000 )
               b(3) = (  0.000000 -0.000000  0.214417 )

     PseudoPot. # 1 for Mo read from file:
     /home/kkety/pseudo/Mo.pw91-n-van.UPF
     MD5 check sum: 875977911cf57e7168990cb144db214a
     Pseudo is Ultrasoft + core correction, Zval =  6.0
     Generated by new atomic code, or converted to UPF format
     Using radial grid of  965 points,  3 beta functions with:
                l(1) =   1
                l(2) =   2
                l(3) =   2
     Q(r) pseudized with  8 coefficients,  rinner =    1.000   1.000   1.000
                                                       1.200   1.200

     PseudoPot. # 2 for S  read from file:
     /home/kkety/pseudo/S.pw91-van_ak.UPF
     MD5 check sum: 708c80e9edb6b1bde406d41998b2c042
     Pseudo is Ultrasoft, Zval =  6.0
     Generated by new atomic code, or converted to UPF format
     Using radial grid of  811 points,  6 beta functions with:
                l(1) =   0
                l(2) =   0
                l(3) =   1
                l(4) =   1
                l(5) =   2
                l(6) =   2
     Q(r) pseudized with  8 coefficients,  rinner =    1.100   1.100   1.100
                                                       1.100   1.100

     atomic species   valence    mass     pseudopotential
        Mo             6.00    95.50000     Mo( 1.00)
        S              6.00    32.06500     S ( 1.00)

     No symmetry found

   Cartesian axes

     site n.     atom                  positions (alat units)
         1           Mo  tau(   1) = (  -0.0010553   0.2933455   0.5684541  )
         2           Mo  tau(   2) = (  -0.0000135   0.2909738   2.8997602  )
         3           Mo  tau(   3) = (   0.5062539   0.2911507   0.5967066  )
         4           Mo  tau(   4) = (   0.4923723   0.2833892   2.9027247  )
         5           Mo  tau(   5) = (   0.2489763   0.1529008   1.7363002  )
         6           Mo  tau(   6) = (   0.2455759   0.1518333   4.0933981  )
         7           Mo  tau(   7) = (   0.7389482   0.1530904   1.7548442  )
         8           Mo  tau(   8) = (   0.7448105   0.1463500   4.0665863  )
         9           S   tau(   9) = (   0.2509653   0.1531809   0.8406666  )
        10           S   tau(  10) = (   0.2360933   0.1456958   3.1539240  )
        11           S   tau(  11) = (   0.7557393   0.1337150   0.8188489  )
        12           S   tau(  12) = (   0.7502678   0.1364717   3.1732411  )
        13           S   tau(  13) = (  -0.0052862   0.2939464   1.9808373  )
        14           S   tau(  14) = (   0.0150464   0.2896858   4.3286061  )
        15           S   tau(  15) = (   0.4924414   0.2766052   1.9886157  )
        16           S   tau(  16) = (   0.4922588   0.2760566   4.3299087  )
        17           S   tau(  17) = (   0.2355753   0.1425219   0.3329855  )
        18           S   tau(  18) = (   0.2506252   0.1297880   2.6649614  )
        19           S   tau(  19) = (   0.7620696   0.1532744   0.3405921  )
        20           S   tau(  20) = (   0.7568809   0.1519753   2.6583028  )
        21           S   tau(  21) = (   0.0000068   0.2880741   1.5189489  )
        22           S   tau(  22) = (  -0.0046675   0.2928016   3.8495354  )
        23           S   tau(  23) = (   0.4963537   0.2742127   1.5070370  )
        24           S   tau(  24) = (   0.4942665   0.2845743   3.8491403  )

     number of k points=    10  Marzari-Vanderbilt smearing, width (Ry)=  0.0200
                       cart. coord. in units 2pi/alat
        k(    1) = (   0.0000000   0.0000000   0.0000000), wk =   0.1111111
        k(    2) = (   0.0000000   0.3849003   0.0000000), wk =   0.2222222
        k(    3) = (   0.0000000   0.7698006   0.0000000), wk =   0.2222222
        k(    4) = (   0.0000000  -1.1547008   0.0000000), wk =   0.1111111
        k(    5) = (   0.3333333   0.1924501   0.0000000), wk =   0.2222222
        k(    6) = (   0.3333333   0.5773504   0.0000000), wk =   0.2222222
        k(    7) = (   0.3333333  -0.9622507   0.0000000), wk =   0.2222222
        k(    8) = (   0.3333333  -0.5773504   0.0000000), wk =   0.2222222
        k(    9) = (   0.3333333  -0.1924501   0.0000000), wk =   0.2222222
        k(   10) = (   0.6666667  -0.3849003   0.0000000), wk =   0.2222222

     Initial potential from superposition of free atoms

     starting charge  143.98738, renormalised to  144.00000
     Starting wfcs are  136 randomized atomic wfcs

     Self-consistent Calculation

     iteration #  1     ecut=    45.00 Ry     beta= 0.70
     Davidson diagonalization with overlap
     ethr =  1.00E-02,  avg # of iterations =  2.0

     total energy              =    -562.53808763 Ry
     Harris-Foulkes estimate   =    -564.47440372 Ry
     estimated scf accuracy    <       5.02939922 Ry

[...]

     total energy              =    -563.52566233 Ry
     Harris-Foulkes estimate   =    -563.52566268 Ry
     estimated scf accuracy    <       0.00000254 Ry

     iteration # 15     ecut=    45.00 Ry     beta= 0.70
     Davidson diagonalization with overlap
     ethr =  1.76E-09,  avg # of iterations =  1.9

     End of self-consistent calculation

          k = 0.0000 0.0000 0.0000 ( 19457 PWs)   bands (ev):

    -9.2107  -9.1123  -8.9135  -8.7987  -7.9351  -7.9244  -7.8643  -7.7679
    -7.5958  -7.5258  -7.2682  -7.2587  -7.2248  -7.1499  -6.9908  -6.8564
    -0.8490  -0.7487  -0.6418  -0.5719  -0.5452  -0.4508  -0.3664  -0.3086
     0.2511   0.2611   0.3566   0.4546   0.7873   0.8345   0.9828   1.1498
     1.5333   1.5565   1.7145   1.8911   1.9292   1.9818   2.0129   2.1137
     2.2527   2.4473   2.4755   2.5292   2.6763   2.8042   2.8429   2.9122
     2.9975   2.9990   3.0651   3.1102   3.1906   3.2021   3.2920   3.3352
     3.3843   3.4421   3.6021   3.7149   3.7368   3.9240   4.0840   4.2669
     4.2775   4.3148   4.3585   4.4670   4.7737   4.9030   4.9699   5.0573
     6.3315   6.3750   6.4397   6.7238   6.9386   6.9498   7.0590   7.0666
     7.1372   7.1512   7.1530   7.2531   7.2876   7.2937

[...]

          k = 0.6667-0.3849 0.0000 ( 19413 PWs)   bands (ev):

    -8.0808  -7.9977  -7.8694  -7.7520  -7.6748  -7.5929  -7.4742  -7.4100
    -7.3998  -7.2307  -7.1963  -7.1939  -7.1465  -7.1087  -6.9415  -6.7981
    -0.3889  -0.3470  -0.3392  -0.2172  -0.1747  -0.0831  -0.0445   0.0435
     0.0660   0.1328   0.2738   0.4842   0.6956   0.7126   0.8093   0.8723
     0.9432   0.9778   1.0842   1.1069   1.1336   1.1890   1.3229   1.3947
     1.5353   1.6622   1.7950   1.8980   1.9835   2.0099   2.2300   2.2665
     2.3857   2.5060   2.6541   2.7585   3.0638   3.0759   3.0896   3.1254
     3.1396   3.1639   3.2031   3.2721   3.3663   3.4036   3.6109   3.7375
     3.7913   3.8850   3.9981   4.0674   4.2806   4.3055   4.4144   4.4570
     6.5678   6.5865   6.5912   6.6110   6.6939   6.7277   6.7457   6.7723
     6.8315   6.8572   6.8889   6.9968   7.0253   7.1125

     the Fermi energy is     4.9460 ev

!    total energy              =    -563.52566173 Ry
     Harris-Foulkes estimate   =    -563.52566256 Ry
     estimated scf accuracy    <       0.00000090 Ry

     The total energy is the sum of the following terms:

     one-electron contribution =    -182.76411732 Ry
     hartree contribution      =     165.62689170 Ry
     xc contribution           =    -222.16175858 Ry
     ewald contribution        =    -324.24389913 Ry
     smearing contrib. (-TS)   =       0.01722160 Ry

     convergence has been achieved in  15 iterations

     Forces acting on atoms (cartesian axes, Ry/au):

     atom    1 type  1   force =     0.02176858    0.01029913    0.11324144
     atom    2 type  1   force =    -0.02132371   -0.04328116    0.08522942
     atom    3 type  1   force =    -0.03041086   -0.04187495   -0.09936874
     atom    4 type  1   force =     0.04196563    0.02242661    0.05608213
     atom    5 type  1   force =    -0.01627609   -0.04948139    0.08784161
     atom    6 type  1   force =     0.01850758   -0.05274075   -0.03849173
     atom    7 type  1   force =     0.04002681   -0.08187820   -0.02735829
     atom    8 type  1   force =     0.01791047   -0.02217270    0.14178276
     atom    9 type  2   force =    -0.00801521   -0.01182319   -0.07309231
     atom   10 type  2   force =     0.02293608   -0.00330739   -0.04976254
     atom   11 type  2   force =     0.01690529    0.05220082    0.02750017
     atom   12 type  2   force =    -0.01160828    0.00609906   -0.10612204
     atom   13 type  2   force =     0.00830708    0.01151164    0.00342458
     atom   14 type  2   force =    -0.07049265    0.00761113   -0.00497631
     atom   15 type  2   force =    -0.01045207    0.04658433    0.00644335
     atom   16 type  2   force =     0.03765784    0.04193457   -0.03610080
     atom   17 type  2   force =     0.05049838    0.02467671    0.02051159
     atom   18 type  2   force =    -0.00041664    0.04509444   -0.01684727
     atom   19 type  2   force =    -0.05126969   -0.03287982    0.01143947
     atom   20 type  2   force =    -0.03175274   -0.02729574    0.03186031
     atom   21 type  2   force =    -0.03787751    0.01212129   -0.05543650
     atom   22 type  2   force =     0.01397986    0.01542487   -0.01663283
     atom   23 type  2   force =     0.01664976    0.06107379   -0.01524254
     atom   24 type  2   force =    -0.01721791    0.00967689   -0.04592491

     Total force =     0.382620     Total SCF correction =     0.002553

     General routines

     Parallel routines

   This run was terminated on:  11:17:10   2Aug2021

   JOB DONE.