     Program PWSCF v.6.4 starts on 23Dec2021 at 22:22: 4

     R & G space division:  proc/nbgrp/npool/nimage =      40
     Waiting for input...
     Reading input from standard input
Warning: card    &IONS ignored
Warning: card      ION_DYNAMICS = 'BFGS' ignored
Warning: card   / ignored
Warning: card    &CELL ignored
Warning: card      CELL_DYNAMICS = 'BFGS', ignored
Warning: card    / ignored

     Current dimensions of program PWSCF are:
     Max number of different atomic species (ntypx) = 10
     Max number of k-points (npk) =  40000
     Max angular momentum in pseudopotentials (lmaxx) =  3

     bravais-lattice index     =            0
     lattice parameter (alat)  =      13.8436  a.u.
     unit-cell volume          =    4499.5702 (a.u.)^3
     number of atoms/cell      =           24
     number of atomic types    =            2
     number of electrons       =       144.00
     number of Kohn-Sham states=           86
     kinetic-energy cutoff     =      45.0000  Ry
     charge density cutoff     =     360.0000  Ry
     convergence threshold     =      1.0E-06
     mixing beta               =       0.7000
     number of iterations used =            8  local-TF  mixing
     Exchange-correlation      = SLA PW GGX GGC ( 1  4  2  2 0 0)

     celldm(1)=  13.843645  celldm(2)=   0.000000  celldm(3)=   0.000000
     celldm(4)=   0.000000  celldm(5)=   0.000000  celldm(6)=   0.000000

     crystal axes: (cart. coord. in units of alat)
               a(1) = (   1.000000   0.000000   0.000000 )
               a(2) = (  -0.013292   0.899094   0.000000 )
               a(3) = (  -0.067159   0.103815   1.886315 )

     reciprocal axes: (cart. coord. in units 2 pi/alat)
               b(1) = (  1.000000  0.014784  0.034790 )
               b(2) = (  0.000000  1.112230 -0.061212 )
               b(3) = (  0.000000  0.000000  0.530134 )

     PseudoPot. # 1 for Mo read from file:
     ~/pseudo/Mo.pw91-n-van.UPF
     MD5 check sum: Not computed, couldn't open file
     Pseudo is Ultrasoft + core correction, Zval =  6.0
     Generated by new atomic code, or converted to UPF format
     Using radial grid of  965 points,  3 beta functions with:
                l(1) =   1
                l(2) =   2
                l(3) =   2
     Q(r) pseudized with  8 coefficients,  rinner =    1.000   1.000   1.000
                                                       1.200   1.200

     PseudoPot. # 2 for S  read from file:
     ~/pseudo/S.pw91-van_ak.UPF
     MD5 check sum: Not computed, couldn't open file
     Pseudo is Ultrasoft, Zval =  6.0
     Generated by new atomic code, or converted to UPF format
     Using radial grid of  811 points,  6 beta functions with:
                l(1) =   0
                l(2) =   0
                l(3) =   1
                l(4) =   1
                l(5) =   2
                l(6) =   2
     Q(r) pseudized with  8 coefficients,  rinner =    1.100   1.100   1.100
                                                       1.100   1.100

     atomic species   valence    mass     pseudopotential
        Mo             6.00    95.50000     Mo( 1.00)
        S              6.00    32.06500     S ( 1.00)

     No symmetry found

   Cartesian axes

     site n.     atom                  positions (alat units)
         1           Mo  tau(   1) = (   0.4517245   0.6796156   0.0208816  )
         2           Mo  tau(   2) = (   0.8289382   0.9340767   0.9335992  )
         3           Mo  tau(   3) = (   0.2227894   0.7142866   1.5318328  )
         4           Mo  tau(   4) = (   0.0454545   0.5132321   1.8043432  )
         5           Mo  tau(   5) = (  -0.0021448   0.2638218   1.2177775  )
         6           Mo  tau(   6) = (   0.0207508   0.9250001   1.7975812  )
         7           Mo  tau(   7) = (   0.8337894   0.4720137   0.9323457  )
         8           Mo  tau(   8) = (  -0.0067814   0.6930803   1.2104785  )
         9           S   tau(   9) = (   0.2461769   0.4822965   1.2907171  )
        10           S   tau(  10) = (   0.6145008   0.2486970   0.8221073  )
        11           S   tau(  11) = (   0.7491914   0.9242567   1.2425533  )
        12           S   tau(  12) = (   0.6087746   0.7024659   0.8312173  )
        13           S   tau(  13) = (   0.0108440   0.3756848   0.2259970  )
        14           S   tau(  14) = (   0.2338241   0.8282876   0.2098267  )
        15           S   tau(  15) = (   0.7402167   0.4754995   1.2399898  )
        16           S   tau(  16) = (   0.0815086   0.2572330   0.8992562  )
        17           S   tau(  17) = (   0.9313739   0.2786202   1.6112913  )
        18           S   tau(  18) = (   0.3381979   0.0943927   1.6672076  )
        19           S   tau(  19) = (   0.2326248   0.9254813   1.2654327  )
        20           S   tau(  20) = (   0.0639835   0.7061048   0.8876600  )
        21           S   tau(  21) = (   0.3653363   0.5017081   1.7447583  )
        22           S   tau(  22) = (   0.5565331   0.4852797   0.2903391  )
        23           S   tau(  23) = (   0.9010917   0.7031165   1.5795369  )
        24           S   tau(  24) = (   0.7590706   0.8125223   0.0367467  )

     number of k points=     8  Marzari-Vanderbilt smearing, width (Ry)=  0.0200
                       cart. coord. in units 2pi/alat
        k(    1) = (   0.0000000   0.0000000   0.0000000), wk =   0.1666667
        k(    2) = (   0.0000000   0.0000000  -0.2650670), wk =   0.1666667
        k(    3) = (   0.0000000   0.3707434  -0.0204041), wk =   0.3333333
        k(    4) = (   0.0000000   0.3707434  -0.2854711), wk =   0.3333333
        k(    5) = (  -0.5000000  -0.0073920  -0.0173949), wk =   0.1666667
        k(    6) = (  -0.5000000  -0.0073920  -0.2824620), wk =   0.1666667
        k(    7) = (  -0.5000000   0.3633514  -0.0377990), wk =   0.3333333
        k(    8) = (  -0.5000000   0.3633514  -0.3028661), wk =   0.3333333

     Initial potential from superposition of free atoms

     starting charge  143.98738, renormalised to  144.00000
     Starting wfcs are  136 randomized atomic wfcs

     Self-consistent Calculation

     iteration #  1     ecut=    45.00 Ry     beta= 0.70
     Davidson diagonalization with overlap
     ethr =  1.00E-02,  avg # of iterations =  2.0

     total energy              =    -561.37714611 Ry
     Harris-Foulkes estimate   =    -563.89072729 Ry
     estimated scf accuracy    <       7.36737372 Ry

[...]

     total energy              =    -562.75906739 Ry
     Harris-Foulkes estimate   =    -562.75906755 Ry
     estimated scf accuracy    <       0.00000122 Ry

     iteration # 14     ecut=    45.00 Ry     beta= 0.70
     Davidson diagonalization with overlap
     ethr =  8.48E-10,  avg # of iterations =  1.6

     End of self-consistent calculation

          k = 0.0000 0.0000 0.0000 ( 22961 PWs)   bands (ev):

   -10.4979 -10.0309  -9.8967  -9.5855  -9.4912  -9.2511  -9.1601  -9.1056
    -9.0005  -8.7906  -8.7389  -8.4322  -8.3318  -7.9574  -7.8621  -7.4945
    -2.4467  -2.2334  -2.0903  -1.9584  -1.8988  -1.7915  -1.6986  -1.4561
    -1.1688  -0.9799  -0.9404  -0.8475  -0.6448  -0.5224  -0.4753  -0.4210
    -0.3264  -0.3023  -0.2385  -0.0967  -0.0725  -0.0199   0.0611   0.0853
     0.1589   0.2237   0.3326   0.3538   0.5812   0.6268   0.7504   0.8452
     0.9157   0.9928   1.0935   1.1860   1.3733   1.4175   1.5809   1.7351
     1.8338   1.8904   1.9706   2.0824   2.1675   2.2653   2.4791   2.6245
     2.7250   2.7934   2.8960   2.9452   3.0421   3.0966   3.2169   3.2662
     3.3279   3.5328   3.6598   3.8846   4.1755   4.2135   4.5320   4.5856
     4.7741   4.8346   4.8799   4.9642   5.0834   5.1308

[...]

          k = 0.0000 0.3707-0.2855 ( 22944 PWs)   bands (ev):

[...]

          k =-0.5000-0.0074-0.0174 ( 22944 PWs)   bands (ev):

[...]

          k =-0.5000 0.3634-0.3029 ( 22946 PWs)   bands (ev):

   -10.2750  -9.9574  -9.7505  -9.6539  -9.4710  -9.4001  -9.2747  -9.1799
    -9.0387  -8.8774  -8.7026  -8.4147  -8.3762  -8.1041  -7.8719  -7.5113
    -2.0804  -1.9178  -1.8140  -1.7208  -1.6863  -1.4351  -1.3043  -1.2167
    -1.1945  -1.0950  -0.9274  -0.8583  -0.7611  -0.7124  -0.6530  -0.5364
    -0.4561  -0.3757  -0.2698  -0.2355  -0.1297  -0.0754  -0.0062   0.0845
     0.2133   0.2685   0.3513   0.4102   0.4432   0.5164   0.6908   0.7595
     0.9284   0.9766   1.1107   1.1555   1.2831   1.3555   1.4687   1.5755
     1.6896   1.7971   1.8686   1.9363   1.9673   2.1943   2.3728   2.4470
     2.5439   2.6414   2.7672   2.9450   3.0098   3.0946   3.2003   3.3842
     3.5027   3.5372   3.6981   3.9879   4.1230   4.2308   4.3981   4.5173
     4.6052   4.7113   4.7779   4.9708   5.0354   5.0933

     the Fermi energy is     3.3704 ev

!    total energy              =    -562.75906725 Ry
     Harris-Foulkes estimate   =    -562.75906746 Ry
     estimated scf accuracy    <       0.00000026 Ry

     The total energy is the sum of the following terms:

     one-electron contribution =    -324.61506427 Ry
     hartree contribution      =     228.15168999 Ry
     xc contribution           =    -221.28209838 Ry
     ewald contribution        =    -245.01926984 Ry
     smearing contrib. (-TS)   =       0.00567525 Ry

     convergence has been achieved in  14 iterations

     Forces acting on atoms (cartesian axes, Ry/au):

     atom    1 type  1   force =     0.08140105   -0.03520478    0.11368381
     atom    2 type  1   force =    -0.03647916   -0.00766160    0.00177305
     atom    3 type  1   force =     0.01426841    0.03023419    0.02378481
     atom    4 type  1   force =    -0.04333984   -0.04607667    0.07223678
     atom    5 type  1   force =    -0.00983372   -0.00045312    0.01789865
     atom    6 type  1   force =    -0.02011977   -0.00303057    0.02105438
     atom    7 type  1   force =    -0.03005220    0.00388857    0.00063067
     atom    8 type  1   force =    -0.00678478    0.00856745   -0.01185192
     atom    9 type  2   force =    -0.01899723    0.00265154   -0.00682453
     atom   10 type  2   force =     0.02946540    0.00158851    0.00894361
     atom   11 type  2   force =     0.00396026    0.00582954    0.00236696
     atom   12 type  2   force =     0.02887422   -0.00389771    0.00744880
     atom   13 type  2   force =     0.02493574    0.01549026   -0.09906264
     atom   14 type  2   force =    -0.00798351   -0.02035733   -0.04760789
     atom   15 type  2   force =     0.00875417   -0.00772422   -0.00493684
     atom   16 type  2   force =     0.01464464    0.00214415   -0.00803036
     atom   17 type  2   force =     0.01195280    0.00461984   -0.00857903
     atom   18 type  2   force =    -0.00500959    0.01012158   -0.00546023
     atom   19 type  2   force =    -0.02121717   -0.00305686   -0.00150671
     atom   20 type  2   force =     0.00633379   -0.00229984   -0.00046259
     atom   21 type  2   force =    -0.02014448    0.00338525   -0.00710211
     atom   22 type  2   force =    -0.01131629    0.05545566   -0.07011404
     atom   23 type  2   force =     0.01624109    0.00630627    0.00924569
     atom   24 type  2   force =    -0.00955383   -0.02052010   -0.00752831

     Total force =     0.249349     Total SCF correction =     0.001073

     General routines

     Parallel routines

   This run was terminated on:  22:23:10  23Dec2021

   JOB DONE.