     Program PWSCF v.6.4 starts on  5Aug2021 at 17:15:11

     R & G space division:  proc/nbgrp/npool/nimage =      40
     Waiting for input...
     Reading input from standard input
Warning: card    &IONS ignored
Warning: card      ION_DYNAMICS = 'BFGS' ignored
Warning: card   / ignored
Warning: card    &CELL ignored
Warning: card      CELL_DYNAMICS = 'BFGS', ignored
Warning: card    / ignored

     Current dimensions of program PWSCF are:
     Max number of different atomic species (ntypx) = 10
     Max number of k-points (npk) =  40000
     Max angular momentum in pseudopotentials (lmaxx) =  3

     bravais-lattice index     =            0
     lattice parameter (alat)  =      12.7280  a.u.
     unit-cell volume          =    6326.8277 (a.u.)^3
     number of atoms/cell      =           24
     number of atomic types    =            2
     number of electrons       =       144.00
     number of Kohn-Sham states=           86
     kinetic-energy cutoff     =      45.0000  Ry
     charge density cutoff     =     360.0000  Ry
     convergence threshold     =      1.0E-06
     mixing beta               =       0.7000
     number of iterations used =            8  local-TF  mixing
     Exchange-correlation      = SLA PW GGX GGC ( 1  4  2  2 0 0)

     celldm(1)=  12.728045  celldm(2)=   0.000000  celldm(3)=   0.000000
     celldm(4)=   0.000000  celldm(5)=   0.000000  celldm(6)=   0.000000

     crystal axes: (cart. coord. in units of alat)
               a(1) = (   0.999846  -0.014522   0.009867 )
               a(2) = (  -0.470725   0.883308  -0.008715 )
               a(3) = (   0.062351  -0.092795   3.502347 )

     reciprocal axes: (cart. coord. in units 2 pi/alat)
               b(1) = (  1.007992  0.537134 -0.003714 )
               b(2) = (  0.016277  1.141077  0.029943 )
               b(3) = ( -0.002799  0.001326  0.285608 )

     PseudoPot. # 1 for Mo read from file:
     ~/pseudo/Mo.pw91-n-van.UPF
     MD5 check sum: Not computed, couldn't open file
     Pseudo is Ultrasoft + core correction, Zval =  6.0
     Generated by new atomic code, or converted to UPF format
     Using radial grid of  965 points,  3 beta functions with:
                l(1) =   1
                l(2) =   2
                l(3) =   2
     Q(r) pseudized with  8 coefficients,  rinner =    1.000   1.000   1.000
                                                       1.200   1.200

     PseudoPot. # 2 for S  read from file:
     ~/pseudo/S.pw91-van_ak.UPF
     MD5 check sum: Not computed, couldn't open file
     Pseudo is Ultrasoft, Zval =  6.0
     Generated by new atomic code, or converted to UPF format
     Using radial grid of  811 points,  6 beta functions with:
                l(1) =   0
                l(2) =   0
                l(3) =   1
                l(4) =   1
                l(5) =   2
                l(6) =   2
     Q(r) pseudized with  8 coefficients,  rinner =    1.100   1.100   1.100
                                                       1.100   1.100

     atomic species   valence    mass     pseudopotential
        Mo             6.00    95.50000     Mo( 1.00)
        S              6.00    32.06500     S ( 1.00)

     No symmetry found

   Cartesian axes

     site n.     atom                  positions (alat units)
         1           Mo  tau(   1) = (   0.3829822   0.0599375   0.5831034  )
         2           Mo  tau(   2) = (   0.1323274   0.4909461   0.5860065  )
         3           Mo  tau(   3) = (   0.9004211   0.1151772   0.5787264  )
         4           Mo  tau(   4) = (   0.6670292   0.4806194   0.5795822  )
         5           Mo  tau(   5) = (  -0.0471082   0.2687210   2.9233490  )
         6           Mo  tau(   6) = (  -0.3007605   0.7239313   2.9052572  )
         7           Mo  tau(   7) = (   0.4254909   0.2577809   2.9245506  )
         8           Mo  tau(   8) = (   0.1952838   0.6846580   2.9358238  )
         9           S   tau(   9) = (  -0.1009317   0.3751289   0.8326238  )
        10           S   tau(  10) = (  -0.3441304   0.8095737   0.7919167  )
        11           S   tau(  11) = (   0.3971972   0.3540081   0.8141155  )
        12           S   tau(  12) = (   0.1718316   0.8064352   0.7992521  )
        13           S   tau(  13) = (   0.1954184   0.1201358   3.1603167  )
        14           S   tau(  14) = (  -0.0578336   0.5676123   3.1594365  )
        15           S   tau(  15) = (   0.6896164   0.1158293   3.1633857  )
        16           S   tau(  16) = (   0.4642525   0.5541242   3.1561901  )
        17           S   tau(  17) = (   0.1500476   0.2267257   0.3338997  )
        18           S   tau(  18) = (  -0.0982495   0.6562366   0.3388652  )
        19           S   tau(  19) = (   0.6310802   0.2123905   0.3383189  )
        20           S   tau(  20) = (   0.4049739   0.6663246   0.3706496  )
        21           S   tau(  21) = (   0.4379560  -0.0273689   2.6917502  )
        22           S   tau(  22) = (   0.1907802   0.4222311   2.6873339  )
        23           S   tau(  23) = (   0.9166436  -0.0247686   2.6981863  )
        24           S   tau(  24) = (   0.6990595   0.4103938   2.6953625  )

     number of k points=     5  Marzari-Vanderbilt smearing, width (Ry)=  0.0200
                       cart. coord. in units 2pi/alat
        k(    1) = (   0.0000000   0.0000000   0.0000000), wk =   0.2222222
        k(    2) = (   0.0054258   0.3803591   0.0099811), wk =   0.4444444
        k(    3) = (   0.3359973   0.1790448  -0.0012379), wk =   0.4444444
        k(    4) = (   0.3414231   0.5594039   0.0087432), wk =   0.4444444
        k(    5) = (   0.3305716  -0.2013144  -0.0112189), wk =   0.4444444

     Initial potential from superposition of free atoms

     starting charge  143.98738, renormalised to  144.00000

     negative rho (up, down):  6.004E-04 0.000E+00
     Starting wfcs are  136 randomized atomic wfcs

     Self-consistent Calculation

     iteration #  1     ecut=    45.00 Ry     beta= 0.70
     Davidson diagonalization with overlap
     ethr =  1.00E-02,  avg # of iterations =  2.0

     negative rho (up, down):  2.700E-04 0.000E+00

     total energy              =    -561.82854165 Ry
     Harris-Foulkes estimate   =    -564.32329998 Ry
     estimated scf accuracy    <       6.73969403 Ry

[...]

     total energy              =    -563.14654209 Ry
     Harris-Foulkes estimate   =    -563.14654348 Ry
     estimated scf accuracy    <       0.00000161 Ry

     iteration # 19     ecut=    45.00 Ry     beta= 0.70
     Davidson diagonalization with overlap
     ethr =  1.12E-09,  avg # of iterations =  4.2

[...]

     End of self-consistent calculation

          k = 0.0000 0.0000 0.0000 ( 32309 PWs)   bands (ev):

   -12.9277 -12.7944 -12.0385 -11.9192 -11.7580 -11.6964 -11.6904 -11.6463
   -11.6022 -11.4092 -11.2896 -11.2489 -11.2319 -11.1183 -11.0858 -10.7029
    -4.8436  -4.8275  -4.8205  -4.7800  -4.6728  -4.6446  -4.4397  -4.2523
    -3.4439  -3.4036  -3.3893  -3.3572  -3.2434  -3.2261  -3.1057  -3.0363
    -3.0192  -2.9997  -2.9550  -2.9420  -2.7596  -2.6754  -2.6189  -2.5056
    -2.4937  -2.4670  -2.4095  -2.3586  -2.1737  -2.0038  -1.5434  -1.5089
    -1.4698  -1.3162  -1.2694  -1.2332  -1.1728  -1.0256  -0.8353  -0.8086
    -0.6417  -0.6093  -0.5513  -0.4950  -0.3649  -0.3465  -0.3168  -0.1962
    -0.0969  -0.0073   0.1164   0.1981   0.3928   0.5351   0.5695   0.6611
     0.7543   0.8052   0.8574   0.8808   1.6789   1.6974   1.7422   1.8169
     1.9980   2.1883   2.3199   2.3210   2.3733   2.4550

[...]

          k = 0.3306-0.2013-0.0112 ( 32248 PWs)   bands (ev):

   -12.6173 -12.4874 -12.0313 -11.8417 -11.8258 -11.8153 -11.6819 -11.6191
   -11.5976 -11.5239 -11.5205 -11.3764 -11.3370 -11.2899 -11.2404 -10.7868
    -4.3099  -4.2903  -4.2709  -4.0845  -4.0654  -4.0040  -3.9653  -3.7745
    -3.6352  -3.6082  -3.5807  -3.5415  -3.4247  -3.3786  -3.1270  -3.0250
    -2.9253  -2.8824  -2.7829  -2.7491  -2.7341  -2.6353  -2.6181  -2.5853
    -2.5390  -2.5164  -2.4470  -2.3439  -2.3120  -2.0691  -2.0335  -1.9664
    -1.8669  -1.7757  -1.5976  -1.5507  -1.5325  -1.4103  -1.3452  -1.1191
    -1.1086  -0.9401  -0.9230  -0.8347  -0.6544  -0.5168  -0.3908  -0.2653
    -0.0847  -0.0321   0.2501   0.3450   0.4296   0.5827   0.6236   0.7334
     1.1182   1.1647   1.2962   1.3618   1.6148   1.6690   1.7204   1.8191
     1.8373   2.0441   2.0791   2.1640   2.1984   2.2064

     the Fermi energy is     0.8440 ev

!    total energy              =    -563.14653874 Ry
     Harris-Foulkes estimate   =    -563.14654243 Ry
     estimated scf accuracy    <       0.00000082 Ry

     The total energy is the sum of the following terms:

     one-electron contribution =   -2259.83018699 Ry
     hartree contribution      =    1181.67711220 Ry
     xc contribution           =    -221.03855978 Ry
     ewald contribution        =     736.03506669 Ry
     smearing contrib. (-TS)   =       0.01002915 Ry

     convergence has been achieved in  19 iterations

     negative rho (up, down):  8.597E-04 0.000E+00

     Forces acting on atoms (cartesian axes, Ry/au):

     atom    1 type  1   force =    -0.00453423    0.01483740    0.02878789
     atom    2 type  1   force =    -0.01316473   -0.00695931   -0.02089888
     atom    3 type  1   force =    -0.02359669   -0.01801840   -0.00779533
     atom    4 type  1   force =     0.03306128   -0.00976263    0.01145624
     atom    5 type  1   force =     0.03456795   -0.00017835    0.00699962
     atom    6 type  1   force =     0.00556600    0.02064612   -0.00569257
     atom    7 type  1   force =    -0.03133061    0.00366779   -0.00728060
     atom    8 type  1   force =     0.00196907   -0.01178391   -0.00138167
     atom    9 type  2   force =    -0.01227862    0.00666784   -0.01552698
     atom   10 type  2   force =    -0.00428652    0.00586909   -0.03436165
     atom   11 type  2   force =    -0.00108767    0.00352652   -0.04002840
     atom   12 type  2   force =    -0.00832721    0.00128119   -0.04555490
     atom   13 type  2   force =    -0.01592164    0.00544366   -0.01158512
     atom   14 type  2   force =     0.00411439   -0.00425631   -0.03080964
     atom   15 type  2   force =    -0.00332062   -0.00080348   -0.04609620
     atom   16 type  2   force =    -0.02031298    0.00455896   -0.03176008
     atom   17 type  2   force =     0.00220694    0.00240181    0.02215633
     atom   18 type  2   force =     0.00878661    0.00060235    0.02741126
     atom   19 type  2   force =     0.01972808    0.00044935    0.03504278
     atom   20 type  2   force =     0.00373385   -0.00020373    0.03878546
     atom   21 type  2   force =    -0.00399927    0.00238424    0.03366719
     atom   22 type  2   force =     0.01442014   -0.01213415    0.01502619
     atom   23 type  2   force =     0.01715453   -0.00991412    0.03830641
     atom   24 type  2   force =    -0.00314805    0.00167807    0.04113263

     Total force =     0.164606     Total SCF correction =     0.001777

     General routines

     Parallel routines

   This run was terminated on:  17:16:38   5Aug2021

   JOB DONE.