     Program PWSCF v.6.4 starts on 19Nov2021 at 20:59:16

     R & G space division:  proc/nbgrp/npool/nimage =      40
     Waiting for input...
     Reading input from standard input
Warning: card    &IONS ignored
Warning: card      ION_DYNAMICS = 'BFGS' ignored
Warning: card   / ignored
Warning: card    &CELL ignored
Warning: card      CELL_DYNAMICS = 'BFGS', ignored
Warning: card    / ignored

     Current dimensions of program PWSCF are:
     Max number of different atomic species (ntypx) = 10
     Max number of k-points (npk) =  40000
     Max angular momentum in pseudopotentials (lmaxx) =  3

     bravais-lattice index     =            0
     lattice parameter (alat)  =      11.7531  a.u.
     unit-cell volume          =    6172.1408 (a.u.)^3
     number of atoms/cell      =           36
     number of atomic types    =            2
     number of electrons       =       216.00
     number of Kohn-Sham states=          130
     kinetic-energy cutoff     =      45.0000  Ry
     charge density cutoff     =     360.0000  Ry
     convergence threshold     =      1.0E-06
     mixing beta               =       0.7000
     number of iterations used =            8  local-TF  mixing
     Exchange-correlation      = SLA PW GGX GGC ( 1  4  2  2 0 0)

     celldm(1)=  11.753124  celldm(2)=   0.000000  celldm(3)=   0.000000
     celldm(4)=   0.000000  celldm(5)=   0.000000  celldm(6)=   0.000000

     crystal axes: (cart. coord. in units of alat)
               a(1) = (   1.000000   0.000000   0.000000 )
               a(2) = (  -0.088953   1.791791   0.000000 )
               a(3) = (  -0.479622  -0.038127   2.121722 )

     reciprocal axes: (cart. coord. in units 2 pi/alat)
               b(1) = (  1.000000  0.049645  0.226945 )
               b(2) = (  0.000000  0.558101  0.010029 )
               b(3) = (  0.000000  0.000000  0.471315 )

     PseudoPot. # 1 for Mo read from file:
     ~/pseudo/Mo.pw91-n-van.UPF
     MD5 check sum: Not computed, couldn't open file
     Pseudo is Ultrasoft + core correction, Zval =  6.0
     Generated by new atomic code, or converted to UPF format
     Using radial grid of  965 points,  3 beta functions with:
                l(1) =   1
                l(2) =   2
                l(3) =   2
     Q(r) pseudized with  8 coefficients,  rinner =    1.000   1.000   1.000
                                                       1.200   1.200

     PseudoPot. # 2 for S  read from file:
     ~/pseudo/S.pw91-van_ak.UPF
     MD5 check sum: Not computed, couldn't open file
     Pseudo is Ultrasoft, Zval =  6.0
     Generated by new atomic code, or converted to UPF format
     Using radial grid of  811 points,  6 beta functions with:
                l(1) =   0
                l(2) =   0
                l(3) =   1
                l(4) =   1
                l(5) =   2
                l(6) =   2
     Q(r) pseudized with  8 coefficients,  rinner =    1.100   1.100   1.100
                                                       1.100   1.100

     atomic species   valence    mass     pseudopotential
        Mo             6.00    95.50000     Mo( 1.00)
        S              6.00    32.06500     S ( 1.00)

     No symmetry found

   Cartesian axes

     site n.     atom                  positions (alat units)
         1           Mo  tau(   1) = (  -0.1489822   0.4395422   0.7016191  )
         2           Mo  tau(   2) = (   0.0771826   0.8863930   0.7002661  )
         3           Mo  tau(   3) = (   0.3495660   0.4379636   0.7005803  )
         4           Mo  tau(   4) = (   0.5776365   0.8863282   0.7038035  )
         5           Mo  tau(   5) = (   0.3037192   1.3348874   0.7005999  )
         6           Mo  tau(   6) = (  -0.1943151   1.3353528   0.7016072  )
         7           Mo  tau(   7) = (   0.5316456   1.7853988   0.6983521  )
         8           Mo  tau(   8) = (   0.1231275  -0.0080407   0.6981461  )
         9           Mo  tau(   9) = (  -0.0563202   1.5973714   1.7383564  )
        10           Mo  tau(  10) = (   0.4946146   1.6324601   1.7344920  )
        11           Mo  tau(  11) = (  -0.2456523   0.8739386   1.7714717  )
        12           Mo  tau(  12) = (   0.3056615   0.9069008   1.7698548  )
        13           S   tau(  13) = (   0.0981493   0.5915516   0.4419710  )
        14           S   tau(  14) = (   0.8687780   0.1449781   0.4418986  )
        15           S   tau(  15) = (   0.5977289   0.5921246   0.4454019  )
        16           S   tau(  16) = (   0.3686195   0.1440997   0.4378379  )
        17           S   tau(  17) = (   0.5343632   0.8792949   1.4865148  )
        18           S   tau(  18) = (  -0.0013578   1.1544229   1.7789777  )
        19           S   tau(  19) = (   0.0970333   0.5932763   0.9592451  )
        20           S   tau(  20) = (  -0.1300122   0.1424577   0.9571154  )
        21           S   tau(  21) = (   0.5962168   0.5908584   0.9605856  )
        22           S   tau(  22) = (   0.3689052   0.1432389   0.9580959  )
        23           S   tau(  23) = (  -0.4648182   0.8761316   2.0542546  )
        24           S   tau(  24) = (   0.0422187   0.6409134   1.7669051  )
        25           S   tau(  25) = (   0.3257719   1.0369801   0.4436087  )
        26           S   tau(  26) = (   0.8215027   1.0397818   0.4429007  )
        27           S   tau(  27) = (   0.3232654   1.0389488   0.9603631  )
        28           S   tau(  28) = (  -0.1741397   1.0397211   0.9601969  )
        29           S   tau(  29) = (   0.5515524   1.4902416   0.9571223  )
        30           S   tau(  30) = (   0.0531515   1.4889915   0.9588962  )
        31           S   tau(  31) = (  -0.2815952   1.6049093   1.4530815  )
        32           S   tau(  32) = (   0.2944948   0.0694748   1.7056313  )
        33           S   tau(  33) = (   0.5515463   1.4877434   0.4440926  )
        34           S   tau(  34) = (   0.0496524   1.4871398   0.4414481  )
        35           S   tau(  35) = (  -0.2827863   1.6609648   2.0162690  )
        36           S   tau(  36) = (   0.2524654   1.3529089   1.7691118  )

     number of k points=     8  Marzari-Vanderbilt smearing, width (Ry)=  0.0200
                       cart. coord. in units 2pi/alat
        k(    1) = (   0.0000000   0.0000000   0.0000000), wk =   0.1666667
        k(    2) = (   0.0000000   0.0000000  -0.2356576), wk =   0.1666667
        k(    3) = (   0.0000000  -0.2790504  -0.0050145), wk =   0.1666667
        k(    4) = (   0.0000000  -0.2790504  -0.2406721), wk =   0.1666667
        k(    5) = (   0.3333333   0.0165482   0.0756485), wk =   0.3333333
        k(    6) = (   0.3333333   0.0165482  -0.1600092), wk =   0.3333333
        k(    7) = (   0.3333333  -0.2625021   0.0706340), wk =   0.3333333
        k(    8) = (   0.3333333  -0.2625021  -0.1650237), wk =   0.3333333

     Initial potential from superposition of free atoms

     starting charge  215.98107, renormalised to  216.00000
     Starting wfcs are  204 randomized atomic wfcs

     Self-consistent Calculation

     iteration #  1     ecut=    45.00 Ry     beta= 0.70
     Davidson diagonalization with overlap
     ethr =  1.00E-02,  avg # of iterations =  2.0

     total energy              =    -843.67661051 Ry
     Harris-Foulkes estimate   =    -846.06314417 Ry
     estimated scf accuracy    <       6.08153110 Ry

[...]

     iteration #  6     ecut=    45.00 Ry     beta= 0.70
     Davidson diagonalization with overlap
     c_bands:  1 eigenvalues not converged
     c_bands:  1 eigenvalues not converged
     ethr =  5.75E-06,  avg # of iterations = 10.0

[...]

     total energy              =    -844.83155401 Ry
     Harris-Foulkes estimate   =    -844.83155421 Ry
     estimated scf accuracy    <       0.00000177 Ry

     iteration # 17     ecut=    45.00 Ry     beta= 0.70
     Davidson diagonalization with overlap
     ethr =  7.10E-10,  avg # of iterations =  1.5

     End of self-consistent calculation

          k = 0.0000 0.0000 0.0000 ( 31499 PWs)   bands (ev):

   -11.7609 -10.0378  -9.2556  -9.2321  -8.9098  -8.5408  -8.5157  -8.4068
    -8.3342  -8.2031  -8.1810  -8.1262  -8.1127  -8.0624  -8.0247  -8.0103
    -7.9971  -7.9658  -7.8901  -7.8821  -7.8126  -7.7863  -7.7585  -7.3171
    -2.3035  -1.7327  -1.7231  -1.6055  -1.6030  -1.5313  -1.0713  -1.0629
    -0.8686  -0.8543  -0.8456  -0.8371  -0.8310  -0.7642  -0.7512  -0.5133
    -0.4135  -0.0265   0.0044   0.0438   0.1186   0.1745   0.2459   0.2671
     0.4004   0.4151   0.4743   0.4800   0.5008   0.5186   0.5437   0.6210
     0.6341   0.7535   0.7738   0.8161   0.8423   1.1680   1.2388   1.2572
     1.2988   1.3054   1.3283   1.3644   1.5145   1.5486   1.5494   1.5941
     1.9766   1.9933   1.9993   2.0035   2.0258   2.2278   2.2702   2.2964
     2.3804   2.4381   2.4739   2.5477   2.6427   2.6610   2.6728   2.7126
     2.7436   2.8404   2.9082   3.0322   3.1434   3.1905   3.2115   3.2368
     3.2834   3.4905   3.5216   3.5332   3.5546   3.5670   3.6202   3.8031
     4.0278   4.1228   4.1339   4.3805   4.4758   4.9776   5.3829   5.4212
     5.5741   5.9621   6.0069   6.0323   6.1576   6.1861   6.2038   6.2195
     6.3377   6.3783   6.3884   6.4745   6.5073   6.5122   6.5451   6.7111
     6.8290   6.8343

[...]

          k = 0.3333-0.2625-0.1650 ( 31451 PWs)   bands (ev):

   -11.7479  -9.5552  -9.4997  -8.8430  -8.7447  -8.6778  -8.6150  -8.4104
    -8.3321  -8.3204  -8.2666  -8.2179  -8.1797  -8.1210  -8.0957  -8.0484
    -8.0021  -7.9809  -7.9637  -7.9409  -7.9215  -7.8666  -7.7790  -7.3279
    -2.2488  -1.5644  -1.1648  -1.0777  -1.0529  -1.0202  -1.0116  -1.0014
    -0.9798  -0.9679  -0.9503  -0.8809  -0.5715  -0.4314  -0.3098  -0.0759
    -0.0015   0.0800   0.1182   0.1780   0.2459   0.2723   0.3038   0.3268
     0.3559   0.3861   0.5084   0.5324   0.5956   0.6248   0.6327   0.6939
     0.7946   0.8638   0.8779   0.8974   0.9336   0.9992   1.0219   1.0934
     1.1227   1.1954   1.2424   1.2684   1.3029   1.3505   1.3941   1.4296
     1.4769   1.5445   1.7248   1.7440   1.8169   1.9483   1.9654   1.9821
     2.0358   2.0898   2.1302   2.2107   2.3450   2.3585   2.3862   2.4823
     2.5010   2.5274   2.5730   2.8474   2.8788   2.9439   3.0587   3.0824
     3.2227   3.4206   3.4911   3.5771   3.6329   3.6736   3.7989   3.8708
     3.9499   4.0450   4.5053   4.6444   4.9495   5.2084   5.5993   5.7815
     5.9192   6.0055   6.0212   6.0408   6.0532   6.0811   6.1436   6.1677
     6.1996   6.2361   6.2512   6.3218   6.3539   6.4025   6.4261   6.4517
     6.5210   6.6024

     the Fermi energy is     4.6899 ev

!    total energy              =    -844.83155340 Ry
     Harris-Foulkes estimate   =    -844.83155407 Ry
     estimated scf accuracy    <       0.00000074 Ry

     The total energy is the sum of the following terms:

     one-electron contribution =    -519.47487519 Ry
     hartree contribution      =     365.46270868 Ry
     xc contribution           =    -334.26182009 Ry
     ewald contribution        =    -356.55862485 Ry
     smearing contrib. (-TS)   =       0.00105805 Ry

     convergence has been achieved in  17 iterations

     Forces acting on atoms (cartesian axes, Ry/au):

     atom    1 type  1   force =     0.00429074    0.00511845   -0.00175760
     atom    2 type  1   force =     0.00679131    0.00839249    0.00003657
     atom    3 type  1   force =     0.00861618    0.00914016    0.00189898
     atom    4 type  1   force =     0.00525767    0.00840909   -0.00202093
     atom    5 type  1   force =     0.01082490    0.00272387   -0.00235276
     atom    6 type  1   force =     0.00045889    0.00543091    0.00174426
     atom    7 type  1   force =     0.01164405   -0.00068098    0.00452818
     atom    8 type  1   force =     0.00188818   -0.00017510    0.00305775
     atom    9 type  1   force =     0.11376285   -0.02926671    0.00191284
     atom   10 type  1   force =    -0.11029005   -0.00741070    0.00173728
     atom   11 type  1   force =     0.12062580    0.00827975   -0.00661940
     atom   12 type  1   force =    -0.10870674    0.02728785    0.00324414
     atom   13 type  2   force =    -0.00678872   -0.00362238    0.00770482
     atom   14 type  2   force =    -0.00256520   -0.00089850    0.00398729
     atom   15 type  2   force =    -0.00409296   -0.00339139    0.00251496
     atom   16 type  2   force =    -0.00343813    0.00094793    0.01257735
     atom   17 type  2   force =    -0.01544434    0.00479432   -0.05290237
     atom   18 type  2   force =    -0.20022556   -0.11672392    0.00631112
     atom   19 type  2   force =    -0.00222695   -0.00734409   -0.00598672
     atom   20 type  2   force =    -0.00418387    0.00047177   -0.00622225
     atom   21 type  2   force =    -0.00167925   -0.00629118   -0.00817715
     atom   22 type  2   force =    -0.00362539   -0.00162355   -0.00621799
     atom   23 type  2   force =    -0.02238003    0.00086431    0.05412454
     atom   24 type  2   force =     0.01347537   -0.05156029    0.00001205
     atom   25 type  2   force =    -0.00535121    0.00227965    0.00680784
     atom   26 type  2   force =     0.00056016   -0.00316904    0.01236319
     atom   27 type  2   force =    -0.00324425    0.00049294   -0.01009293
     atom   28 type  2   force =    -0.00470587   -0.00201541   -0.00723929
     atom   29 type  2   force =    -0.00663234   -0.00665620   -0.01089522
     atom   30 type  2   force =    -0.00468732   -0.00222465   -0.00835605
     atom   31 type  2   force =     0.01290956   -0.01032641   -0.05197698
     atom   32 type  2   force =    -0.01174454    0.05618605   -0.00407196
     atom   33 type  2   force =    -0.00357076   -0.00399291    0.00234237
     atom   34 type  2   force =     0.00170623   -0.00411328    0.00733317
     atom   35 type  2   force =     0.01151697    0.00375726    0.05609701
     atom   36 type  2   force =     0.20125460    0.11690989   -0.00544610

     Total force =     0.427077     Total SCF correction =     0.002089

     General routines

     Parallel routines

   This run was terminated on:  21: 2: 4  19Nov2021

   JOB DONE.