     Program PWSCF v.6.4 starts on 12Aug2021 at 16:59:23

     R & G space division:  proc/nbgrp/npool/nimage =      40
     Waiting for input...
     Reading input from standard input
Warning: card    &IONS ignored
Warning: card      ION_DYNAMICS = 'BFGS' ignored
Warning: card   / ignored
Warning: card    &CELL ignored
Warning: card      CELL_DYNAMICS = 'BFGS', ignored
Warning: card    / ignored

     Current dimensions of program PWSCF are:
     Max number of different atomic species (ntypx) = 10
     Max number of k-points (npk) =  40000
     Max angular momentum in pseudopotentials (lmaxx) =  3

     bravais-lattice index     =            0
     lattice parameter (alat)  =      12.6620  a.u.
     unit-cell volume          =    6859.6290 (a.u.)^3
     number of atoms/cell      =           24
     number of atomic types    =            2
     number of electrons       =       144.00
     number of Kohn-Sham states=           86
     kinetic-energy cutoff     =      45.0000  Ry
     charge density cutoff     =     360.0000  Ry
     convergence threshold     =      1.0E-06
     mixing beta               =       0.7000
     number of iterations used =            8  local-TF  mixing
     Exchange-correlation      = SLA PW GGX GGC ( 1  4  2  2 0 0)

     celldm(1)=  12.662013  celldm(2)=   0.000000  celldm(3)=   0.000000
     celldm(4)=   0.000000  celldm(5)=   0.000000  celldm(6)=   0.000000

     crystal axes: (cart. coord. in units of alat)
               a(1) = (   0.999828  -0.004941   0.017882 )
               a(2) = (  -0.491029   0.861970   0.020085 )
               a(3) = (   0.087198  -0.045659   3.931910 )

     reciprocal axes: (cart. coord. in units 2 pi/alat)
               b(1) = (  1.003277  0.571890 -0.015609 )
               b(2) = (  0.005507  1.162958  0.013383 )
               b(3) = ( -0.004591 -0.008541  0.254332 )

     PseudoPot. # 1 for Mo read from file:
     ~/pseudo/Mo.pw91-n-van.UPF
     MD5 check sum: Not computed, couldn't open file
     Pseudo is Ultrasoft + core correction, Zval =  6.0
     Generated by new atomic code, or converted to UPF format
     Using radial grid of  965 points,  3 beta functions with:
                l(1) =   1
                l(2) =   2
                l(3) =   2
     Q(r) pseudized with  8 coefficients,  rinner =    1.000   1.000   1.000
                                                       1.200   1.200

     PseudoPot. # 2 for S  read from file:
     ~/pseudo/S.pw91-van_ak.UPF
     MD5 check sum: Not computed, couldn't open file
     Pseudo is Ultrasoft, Zval =  6.0
     Generated by new atomic code, or converted to UPF format
     Using radial grid of  811 points,  6 beta functions with:
                l(1) =   0
                l(2) =   0
                l(3) =   1
                l(4) =   1
                l(5) =   2
                l(6) =   2
     Q(r) pseudized with  8 coefficients,  rinner =    1.100   1.100   1.100
                                                       1.100   1.100

     atomic species   valence    mass     pseudopotential
        Mo             6.00    95.50000     Mo( 1.00)
        S              6.00    32.06500     S ( 1.00)

     No symmetry found

   Cartesian axes

     site n.     atom                  positions (alat units)
         1           Mo  tau(   1) = (   0.3010895   0.1373086   0.6243219  )
         2           Mo  tau(   2) = (   0.0454986   0.5658086   0.5793861  )
         3           Mo  tau(   3) = (   0.7800609   0.1320053   0.5972546  )
         4           Mo  tau(   4) = (   0.5707964   0.5529428   0.6983712  )
         5           Mo  tau(   5) = (   0.0475385   0.2517836   3.3528259  )
         6           Mo  tau(   6) = (  -0.2042235   0.6790435   3.3528311  )
         7           Mo  tau(   7) = (   0.5511179   0.2466153   3.3365862  )
         8           Mo  tau(   8) = (   0.3028206   0.6810045   3.3443261  )
         9           S   tau(   9) = (   0.0215093   0.2179055   0.8425332  )
        10           S   tau(  10) = (  -0.1502890   0.6935152   0.8666740  )
        11           S   tau(  11) = (   0.5690802   0.2380956   0.8799074  )
        12           S   tau(  12) = (   0.2704367   0.6703266   0.8522944  )
        13           S   tau(  13) = (   0.2926203   0.0950993   3.5906311  )
        14           S   tau(  14) = (   0.0408993   0.5408882   3.5964932  )
        15           S   tau(  15) = (   0.7825825   0.0925983   3.5745242  )
        16           S   tau(  16) = (   0.5370855   0.5279081   3.5761526  )
        17           S   tau(  17) = (   0.0510693   0.2766782   0.3550849  )
        18           S   tau(  18) = (  -0.2323497   0.7319599   0.4050465  )
        19           S   tau(  19) = (   0.5264882   0.3342258   0.4183641  )
        20           S   tau(  20) = (   0.2751700   0.7359868   0.3542153  )
        21           S   tau(  21) = (   0.2893574   0.1088467   3.1130404  )
        22           S   tau(  22) = (   0.0471152   0.5305225   3.1191157  )
        23           S   tau(  23) = (   0.8243863   0.1173263   3.1035667  )
        24           S   tau(  24) = (   0.5655256   0.5397282   3.1008870  )

     number of k points=     5  Marzari-Vanderbilt smearing, width (Ry)=  0.0200
                       cart. coord. in units 2pi/alat
        k(    1) = (   0.0000000   0.0000000   0.0000000), wk =   0.2222222
        k(    2) = (   0.0018358   0.3876528   0.0044608), wk =   0.4444444
        k(    3) = (   0.3344258   0.1906300  -0.0052029), wk =   0.4444444
        k(    4) = (   0.3362615   0.5782828  -0.0007421), wk =   0.4444444
        k(    5) = (   0.3325900  -0.1970228  -0.0096638), wk =   0.4444444

     Initial potential from superposition of free atoms

     starting charge  143.98738, renormalised to  144.00000

     negative rho (up, down):  8.530E-04 0.000E+00
     Starting wfcs are  136 randomized atomic wfcs

     Self-consistent Calculation

     iteration #  1     ecut=    45.00 Ry     beta= 0.70
     Davidson diagonalization with overlap
     ethr =  1.00E-02,  avg # of iterations =  2.0

     negative rho (up, down):  2.278E-04 0.000E+00

     total energy              =    -562.17591653 Ry
     Harris-Foulkes estimate   =    -564.38969207 Ry
     estimated scf accuracy    <       5.84047478 Ry

[...]

     iteration # 10     ecut=    45.00 Ry     beta= 0.70
     Davidson diagonalization with overlap
     c_bands:  1 eigenvalues not converged
     ethr =  2.99E-06,  avg # of iterations =  5.4

[...]

     total energy              =    -563.33978395 Ry
     Harris-Foulkes estimate   =    -563.33978436 Ry
     estimated scf accuracy    <       0.00000132 Ry

     iteration # 18     ecut=    45.00 Ry     beta= 0.70
     Davidson diagonalization with overlap
     ethr =  9.20E-10,  avg # of iterations =  3.0

[...]

     End of self-consistent calculation

          k = 0.0000 0.0000 0.0000 ( 35099 PWs)   bands (ev):

   -13.7292 -13.4176 -12.7717 -12.4083 -12.3832 -12.1624 -12.1152 -12.0693
   -11.9762 -11.9739 -11.9667 -11.8301 -11.7068 -11.6385 -11.6141 -11.5473
    -5.3670  -5.3229  -5.1685  -5.0832  -5.0310  -5.0157  -4.9839  -4.8790
    -4.5025  -4.4255  -4.3633  -4.1590  -4.1471  -4.0947  -3.7962  -3.7466
    -3.5995  -3.5737  -3.5177  -3.4374  -3.3091  -3.0748  -2.8979  -2.8639
    -2.8332  -2.7326  -2.7194  -2.4558  -2.3811  -2.2336  -2.1888  -2.0347
    -1.9423  -1.7561  -1.5747  -1.5621  -1.5359  -1.5297  -1.4614  -1.4235
    -1.3735  -1.2743  -1.1696  -1.0458  -0.9474  -0.9317  -0.8385  -0.8312
    -0.5952  -0.4288  -0.3887  -0.3764  -0.3322  -0.1550   0.1730   0.2997
     0.7419   1.1762   1.4894   1.6801   1.7943   1.8145   1.8374   1.8554
     1.9495   2.0719   2.1465   2.2604   2.2704   2.2759

[...]

          k = 0.3326-0.1970-0.0097 ( 34964 PWs)   bands (ev):

   -13.4663 -13.1179 -12.8341 -12.4624 -12.4426 -12.3083 -12.2596 -12.1566
   -12.0625 -12.0586 -11.9443 -11.8899 -11.7449 -11.6876 -11.6297 -11.5745
    -5.0956  -5.0190  -4.7846  -4.6697  -4.6619  -4.6294  -4.5431  -4.5173
    -4.4965  -4.2732  -4.2307  -4.1871  -4.0515  -3.9142  -3.8309  -3.6394
    -3.5004  -3.4567  -3.4335  -3.3463  -3.3236  -3.0919  -3.0560  -2.8723
    -2.8043  -2.7793  -2.6638  -2.5956  -2.5362  -2.4492  -2.4281  -2.3367
    -2.0835  -2.0790  -2.0400  -1.9809  -1.9574  -1.7524  -1.7212  -1.6271
    -1.5741  -1.4924  -1.4298  -1.2836  -1.2651  -1.2565  -1.0904  -0.8639
    -0.6510  -0.6108  -0.3588  -0.3475  -0.3183  -0.0331  -0.0216   0.0242
     0.8472   1.2478   1.4513   1.6191   1.7383   1.8328   1.8588   1.9044
     1.9250   2.0420   2.1191   2.1426   2.2214   2.2836

     the Fermi energy is     0.3151 ev

!    total energy              =    -563.33978304 Ry
     Harris-Foulkes estimate   =    -563.33978422 Ry
     estimated scf accuracy    <       0.00000039 Ry

     The total energy is the sum of the following terms:

     one-electron contribution =   -3184.65417407 Ry
     hartree contribution      =    1641.43456409 Ry
     xc contribution           =    -221.34217742 Ry
     ewald contribution        =    1201.20812408 Ry
     smearing contrib. (-TS)   =       0.01388028 Ry

     convergence has been achieved in  18 iterations

     negative rho (up, down):  1.192E-03 0.000E+00

     Forces acting on atoms (cartesian axes, Ry/au):

     atom    1 type  1   force =    -0.01845034   -0.01616496    0.00002118
     atom    2 type  1   force =    -0.00027063   -0.02843181    0.04881910
     atom    3 type  1   force =     0.01708569   -0.03437514    0.02042292
     atom    4 type  1   force =    -0.03725745    0.03719205   -0.08499913
     atom    5 type  1   force =     0.00304172   -0.00774131    0.00134806
     atom    6 type  1   force =     0.01790580    0.00474501   -0.00808191
     atom    7 type  1   force =    -0.01512405    0.00004186    0.00580406
     atom    8 type  1   force =    -0.00883584   -0.01094556    0.00514099
     atom    9 type  2   force =     0.01810876    0.05771959   -0.03955567
     atom   10 type  2   force =    -0.03874738    0.00063829   -0.02365428
     atom   11 type  2   force =    -0.02522716    0.02835519   -0.02623350
     atom   12 type  2   force =     0.03017551    0.03083086   -0.02487015
     atom   13 type  2   force =     0.00513285    0.00783015   -0.06286583
     atom   14 type  2   force =     0.01323764   -0.01191349   -0.05587060
     atom   15 type  2   force =     0.01172048    0.00101948   -0.01818600
     atom   16 type  2   force =     0.00179959   -0.01302998   -0.00584782
     atom   17 type  2   force =    -0.00776198    0.00591444    0.04716549
     atom   18 type  2   force =     0.02798313   -0.02726878    0.02743591
     atom   19 type  2   force =     0.03281008   -0.04577765    0.00206068
     atom   20 type  2   force =     0.00125628   -0.00847161    0.05319087
     atom   21 type  2   force =     0.01793803    0.00857300    0.01702277
     atom   22 type  2   force =     0.00814379    0.02890771    0.02265098
     atom   23 type  2   force =    -0.03583654   -0.00814943    0.04036188
     atom   24 type  2   force =    -0.01882801    0.00050211    0.05871999

     Total force =     0.237183     Total SCF correction =     0.001357

     General routines

     Parallel routines

   This run was terminated on:  17: 0:54  12Aug2021

   JOB DONE.