     Program PWSCF v.6.4 starts on 12Aug2021 at 12:59:44

     R & G space division:  proc/nbgrp/npool/nimage =      40
     Waiting for input...
     Reading input from standard input
Warning: card    &IONS ignored
Warning: card      ION_DYNAMICS = 'BFGS' ignored
Warning: card   / ignored
Warning: card    &CELL ignored
Warning: card      CELL_DYNAMICS = 'BFGS', ignored
Warning: card    / ignored

     Current dimensions of program PWSCF are:
     Max number of different atomic species (ntypx) = 10
     Max number of k-points (npk) =  40000
     Max angular momentum in pseudopotentials (lmaxx) =  3

     bravais-lattice index     =            0
     lattice parameter (alat)  =      12.4974  a.u.
     unit-cell volume          =    3236.6134 (a.u.)^3
     number of atoms/cell      =           24
     number of atomic types    =            2
     number of electrons       =       144.00
     number of Kohn-Sham states=           86
     kinetic-energy cutoff     =      45.0000  Ry
     charge density cutoff     =     360.0000  Ry
     convergence threshold     =      1.0E-06
     mixing beta               =       0.7000
     number of iterations used =            8  local-TF  mixing
     Exchange-correlation      = SLA PW GGX GGC ( 1  4  2  2 0 0)

     celldm(1)=  12.497435  celldm(2)=   0.000000  celldm(3)=   0.000000
     celldm(4)=   0.000000  celldm(5)=   0.000000  celldm(6)=   0.000000

     crystal axes: (cart. coord. in units of alat)
               a(1) = (   0.998973  -0.010248   0.044144 )
               a(2) = (  -0.469787   0.841509   0.026150 )
               a(3) = (   0.062368   0.020360   1.987790 )

     reciprocal axes: (cart. coord. in units 2 pi/alat)
               b(1) = (  1.008469  0.564158 -0.037419 )
               b(2) = (  0.012827  1.195896 -0.012651 )
               b(3) = ( -0.022564 -0.028261  0.504069 )

     PseudoPot. # 1 for Mo read from file:
     ~/pseudo/Mo.pw91-n-van.UPF
     MD5 check sum: Not computed, couldn't open file
     Pseudo is Ultrasoft + core correction, Zval =  6.0
     Generated by new atomic code, or converted to UPF format
     Using radial grid of  965 points,  3 beta functions with:
                l(1) =   1
                l(2) =   2
                l(3) =   2
     Q(r) pseudized with  8 coefficients,  rinner =    1.000   1.000   1.000
                                                       1.200   1.200

     PseudoPot. # 2 for S  read from file:
     ~/pseudo/S.pw91-van_ak.UPF
     MD5 check sum: Not computed, couldn't open file
     Pseudo is Ultrasoft, Zval =  6.0
     Generated by new atomic code, or converted to UPF format
     Using radial grid of  811 points,  6 beta functions with:
                l(1) =   0
                l(2) =   0
                l(3) =   1
                l(4) =   1
                l(5) =   2
                l(6) =   2
     Q(r) pseudized with  8 coefficients,  rinner =    1.100   1.100   1.100
                                                       1.100   1.100

     atomic species   valence    mass     pseudopotential
        Mo             6.00    95.50000     Mo( 1.00)
        S              6.00    32.06500     S ( 1.00)

     No symmetry found

   Cartesian axes

     site n.     atom                  positions (alat units)
         1           Mo  tau(   1) = (   0.0813109   0.2874229   0.5054671  )
         2           Mo  tau(   2) = (  -0.1696645   0.6852232   0.5285255  )
         3           Mo  tau(   3) = (   0.5497510   0.2623107   0.5403602  )
         4           Mo  tau(   4) = (   0.3248052   0.6678415   0.6328165  )
         5           Mo  tau(   5) = (   0.2601142   0.1473301   1.5118443  )
         6           Mo  tau(   6) = (   0.0259152   0.5711695   1.5148554  )
         7           Mo  tau(   7) = (   0.7773869   0.1531077   1.5005192  )
         8           Mo  tau(   8) = (   0.5372261   0.5762588   1.5117625  )
         9           S   tau(   9) = (   0.3122815   0.1095189   0.7572750  )
        10           S   tau(  10) = (   0.0347194   0.5382019   0.8012222  )
        11           S   tau(  11) = (   0.7998568   0.1336804   0.7818208  )
        12           S   tau(  12) = (   0.5799087   0.5036168   0.8386812  )
        13           S   tau(  13) = (  -0.0059183   0.2898561   1.7535702  )
        14           S   tau(  14) = (  -0.2350272   0.6981033   1.7690253  )
        15           S   tau(  15) = (   0.5337452   0.3023926   1.7354969  )
        16           S   tau(  16) = (   0.2934747   0.7240327   1.7502419  )
        17           S   tau(  17) = (   0.2954885   0.1498492   0.2562588  )
        18           S   tau(  18) = (   0.1279294   0.5951016   0.3200753  )
        19           S   tau(  19) = (   0.8230966   0.2329122   0.2799393  )
        20           S   tau(  20) = (   0.5339575   0.5784991   0.3562482  )
        21           S   tau(  21) = (   0.0383181   0.2909080   1.2606317  )
        22           S   tau(  22) = (  -0.2080349   0.7308475   1.2746624  )
        23           S   tau(  23) = (   0.5495461   0.3102683   1.2363217  )
        24           S   tau(  24) = (   0.2987460   0.7212413   1.2614294  )

     number of k points=    10  Marzari-Vanderbilt smearing, width (Ry)=  0.0200
                       cart. coord. in units 2pi/alat
        k(    1) = (   0.0000000   0.0000000   0.0000000), wk =   0.1111111
        k(    2) = (   0.0112821   0.0141306  -0.2520343), wk =   0.1111111
        k(    3) = (   0.0042757   0.3986320  -0.0042171), wk =   0.2222222
        k(    4) = (   0.0155578   0.4127626  -0.2562514), wk =   0.2222222
        k(    5) = (   0.3361564   0.1880528  -0.0124731), wk =   0.2222222
        k(    6) = (   0.3474386   0.2021834  -0.2645075), wk =   0.2222222
        k(    7) = (   0.3404321   0.5866848  -0.0166902), wk =   0.2222222
        k(    8) = (   0.3517142   0.6008153  -0.2687246), wk =   0.2222222
        k(    9) = (   0.3318808  -0.2105792  -0.0082560), wk =   0.2222222
        k(   10) = (   0.3431629  -0.1964486  -0.2602904), wk =   0.2222222

     Initial potential from superposition of free atoms

     starting charge  143.98738, renormalised to  144.00000
     Starting wfcs are  136 randomized atomic wfcs

     Self-consistent Calculation

     iteration #  1     ecut=    45.00 Ry     beta= 0.70
     Davidson diagonalization with overlap
     ethr =  1.00E-02,  avg # of iterations =  2.0

     total energy              =    -562.22562334 Ry
     Harris-Foulkes estimate   =    -564.21477627 Ry
     estimated scf accuracy    <       5.24592613 Ry

[...]

     total energy              =    -563.25820449 Ry
     Harris-Foulkes estimate   =    -563.25820479 Ry
     estimated scf accuracy    <       0.00000182 Ry

     iteration # 15     ecut=    45.00 Ry     beta= 0.70
     Davidson diagonalization with overlap
     ethr =  1.26E-09,  avg # of iterations =  2.0

     End of self-consistent calculation

          k = 0.0000 0.0000 0.0000 ( 16499 PWs)   bands (ev):

    -7.2624  -6.9728  -6.3692  -5.9879  -5.6428  -5.5217  -5.4671  -5.3954
    -5.3869  -5.3001  -5.2572  -5.2196  -5.1136  -5.0176  -4.8060  -4.7616
     0.9299   1.1196   1.1874   1.2678   1.3987   1.4720   1.5039   1.7408
     1.9710   2.0735   2.1289   2.2313   2.3204   2.4130   2.5328   2.7165
     2.7689   3.0326   3.1733   3.2823   3.5147   3.6063   3.6581   3.8639
     3.8840   3.9094   3.9972   4.2465   4.3156   4.3814   4.4991   4.6693
     4.7274   4.7877   4.8630   4.9336   5.0425   5.2289   5.3185   5.3785
     5.4971   5.6313   5.6827   5.7244   5.8992   5.9519   6.0591   6.1234
     6.1791   6.2513   6.3732   6.3900   6.4550   6.5324   7.0093   7.1303
     7.4491   8.2361   8.5554   8.5965   8.6648   8.7066   8.7322   8.8244
     8.8811   8.9105   9.0152   9.0808   9.1050   9.1326

[...]

          k = 0.3432-0.1964-0.2603 ( 16476 PWs)   bands (ev):

    -6.9212  -6.6852  -6.3392  -5.9643  -5.8069  -5.7508  -5.6645  -5.5179
    -5.5060  -5.3932  -5.3436  -5.2410  -5.1069  -5.0540  -4.8998  -4.7399
     1.4073   1.5319   1.6292   1.7026   1.7639   1.8713   1.9464   1.9742
     2.0191   2.1899   2.2349   2.3058   2.5840   2.6647   2.7574   2.8919
     2.9931   3.0392   3.2452   3.3248   3.3991   3.4814   3.6825   3.7141
     3.7751   3.8403   3.9718   4.0583   4.1186   4.1797   4.2224   4.3995
     4.4522   4.6025   4.6851   4.7508   4.8527   4.8954   5.0008   5.0761
     5.1328   5.2267   5.3012   5.4924   5.5524   5.6366   5.7937   5.8519
     6.0688   6.1606   6.3783   6.4105   6.4713   6.5420   6.6094   6.8191
     7.5593   8.1769   8.3737   8.5151   8.5738   8.6495   8.6929   8.7237
     8.7968   8.8535   8.8793   8.9258   8.9976   9.0630

     the Fermi energy is     7.1402 ev

!    total energy              =    -563.25820431 Ry
     Harris-Foulkes estimate   =    -563.25820464 Ry
     estimated scf accuracy    <       0.00000038 Ry

     The total energy is the sum of the following terms:

     one-electron contribution =       6.63412411 Ry
     hartree contribution      =      81.36745537 Ry
     xc contribution           =    -222.08671223 Ry
     ewald contribution        =    -429.18428931 Ry
     smearing contrib. (-TS)   =       0.01121773 Ry

     convergence has been achieved in  15 iterations

     Forces acting on atoms (cartesian axes, Ry/au):

     atom    1 type  1   force =    -0.06967595   -0.00932171    0.06626264
     atom    2 type  1   force =    -0.02603293    0.02469716    0.01006495
     atom    3 type  1   force =     0.04118847    0.04895561   -0.01254234
     atom    4 type  1   force =    -0.00224877    0.06433000   -0.07245258
     atom    5 type  1   force =     0.04514014    0.03851534   -0.00942319
     atom    6 type  1   force =     0.02885643    0.02150110   -0.00805155
     atom    7 type  1   force =    -0.05525070    0.01682805   -0.00081024
     atom    8 type  1   force =    -0.03421777   -0.00268513    0.01527878
     atom    9 type  2   force =    -0.05272291   -0.00232999   -0.02256784
     atom   10 type  2   force =     0.03247218   -0.02984374   -0.02403540
     atom   11 type  2   force =     0.02684973   -0.01369174   -0.00593811
     atom   12 type  2   force =    -0.02271294    0.02970114   -0.07306355
     atom   13 type  2   force =     0.03532232   -0.01448593   -0.07065229
     atom   14 type  2   force =     0.01605091    0.00906880   -0.06968707
     atom   15 type  2   force =    -0.04257653   -0.06042349   -0.00055520
     atom   16 type  2   force =    -0.03254866   -0.06753269    0.00210080
     atom   17 type  2   force =     0.05511189   -0.03471423    0.04771094
     atom   18 type  2   force =    -0.04162664    0.00432182    0.02762933
     atom   19 type  2   force =    -0.00460573   -0.06042646    0.04695376
     atom   20 type  2   force =     0.06363367   -0.00941741   -0.00083741
     atom   21 type  2   force =     0.03482867    0.05419464   -0.00425734
     atom   22 type  2   force =     0.05298000    0.01625188   -0.00568542
     atom   23 type  2   force =    -0.02935499   -0.02159209    0.09833596
     atom   24 type  2   force =    -0.01885987   -0.00190092    0.06622236

     Total force =     0.335227     Total SCF correction =     0.001539

     General routines

     Parallel routines

   This run was terminated on:  13: 1: 0  12Aug2021

   JOB DONE.