     Program PWSCF v.6.4 starts on 24Dec2021 at  0: 5: 3

     R & G space division:  proc/nbgrp/npool/nimage =      40
     Waiting for input...
     Reading input from standard input
Warning: card    &IONS ignored
Warning: card      ION_DYNAMICS = 'BFGS' ignored
Warning: card   / ignored
Warning: card    &CELL ignored
Warning: card      CELL_DYNAMICS = 'BFGS', ignored
Warning: card    / ignored

     Current dimensions of program PWSCF are:
     Max number of different atomic species (ntypx) = 10
     Max number of k-points (npk) =  40000
     Max angular momentum in pseudopotentials (lmaxx) =  3

     bravais-lattice index     =            0
     lattice parameter (alat)  =      12.7197  a.u.
     unit-cell volume          =    4713.1599 (a.u.)^3
     number of atoms/cell      =           21
     number of atomic types    =            2
     number of electrons       =       126.00
     number of Kohn-Sham states=           76
     kinetic-energy cutoff     =      45.0000  Ry
     charge density cutoff     =     360.0000  Ry
     convergence threshold     =      1.0E-06
     mixing beta               =       0.7000
     number of iterations used =            8  local-TF  mixing
     Exchange-correlation      = SLA PW GGX GGC ( 1  4  2  2 0 0)

     celldm(1)=  12.719710  celldm(2)=   0.000000  celldm(3)=   0.000000
     celldm(4)=   0.000000  celldm(5)=   0.000000  celldm(6)=   0.000000

     crystal axes: (cart. coord. in units of alat)
               a(1) = (   1.000000   0.000000   0.000000 )
               a(2) = (  -0.116359   1.502657   0.000000 )
               a(3) = (  -0.170544  -0.339292   1.524125 )

     reciprocal axes: (cart. coord. in units 2 pi/alat)
               b(1) = (  1.000000  0.077436  0.129134 )
               b(2) = (  0.000000  0.665488  0.148147 )
               b(3) = (  0.000000  0.000000  0.656114 )

     PseudoPot. # 1 for Mo read from file:
     ~/pseudo/Mo.pw91-n-van.UPF
     MD5 check sum: Not computed, couldn't open file
     Pseudo is Ultrasoft + core correction, Zval =  6.0
     Generated by new atomic code, or converted to UPF format
     Using radial grid of  965 points,  3 beta functions with:
                l(1) =   1
                l(2) =   2
                l(3) =   2
     Q(r) pseudized with  8 coefficients,  rinner =    1.000   1.000   1.000
                                                       1.200   1.200

     PseudoPot. # 2 for S  read from file:
     ~/pseudo/S.pw91-van_ak.UPF
     MD5 check sum: Not computed, couldn't open file
     Pseudo is Ultrasoft, Zval =  6.0
     Generated by new atomic code, or converted to UPF format
     Using radial grid of  811 points,  6 beta functions with:
                l(1) =   0
                l(2) =   0
                l(3) =   1
                l(4) =   1
                l(5) =   2
                l(6) =   2
     Q(r) pseudized with  8 coefficients,  rinner =    1.100   1.100   1.100
                                                       1.100   1.100

     atomic species   valence    mass     pseudopotential
        Mo             6.00    95.50000     Mo( 1.00)
        S              6.00    32.06500     S ( 1.00)

     No symmetry found

   Cartesian axes

     site n.     atom                  positions (alat units)
         1           Mo  tau(   1) = (  -0.1300235   1.3080416   0.6918034  )
         2           Mo  tau(   2) = (   0.7473961   0.0757327   0.9294112  )
         3           Mo  tau(   3) = (  -0.1324367   0.9103640   1.3446942  )
         4           Mo  tau(   4) = (   0.6384869   1.1057296   1.0167111  )
         5           Mo  tau(   5) = (   0.4098623   1.3025647   0.6884085  )
         6           Mo  tau(   6) = (   0.6441790   0.6303934   1.1096344  )
         7           Mo  tau(   7) = (   0.4058063   0.9050966   1.3417664  )
         8           S   tau(   8) = (   0.1355610   0.6934600   1.4708454  )
         9           S   tau(   9) = (   0.3801123   0.8367765   1.0064854  )
        10           S   tau(  10) = (   0.6340315   1.1694813   1.3963524  )
        11           S   tau(  11) = (   0.5079611   0.3638153   0.9067887  )
        12           S   tau(  12) = (   0.7567183   0.0486941   0.5779766  )
        13           S   tau(  13) = (   0.2573730   0.0166975   0.5633417  )
        14           S   tau(  14) = (   0.0140510  -0.1292299   1.0271539  )
        15           S   tau(  15) = (   0.1382053   1.0696097   0.6167194  )
        16           S   tau(  16) = (   0.6361273   0.6643768   1.4603464  )
        17           S   tau(  17) = (  -0.1006459   0.8367366   1.0080496  )
        18           S   tau(  18) = (   0.6427162   1.0431205   0.6369645  )
        19           S   tau(  19) = (   0.4915210  -0.1317512   1.0254278  )
        20           S   tau(  20) = (   0.1383586   1.1434933   1.4165965  )
        21           S   tau(  21) = (  -0.1225532   0.3387813   1.1407638  )

     number of k points=     8  Marzari-Vanderbilt smearing, width (Ry)=  0.0200
                       cart. coord. in units 2pi/alat
        k(    1) = (   0.0000000   0.0000000   0.0000000), wk =   0.1666667
        k(    2) = (   0.0000000   0.0000000  -0.3280570), wk =   0.1666667
        k(    3) = (   0.0000000  -0.3327440  -0.0740736), wk =   0.1666667
        k(    4) = (   0.0000000  -0.3327440  -0.4021306), wk =   0.1666667
        k(    5) = (   0.3333333   0.0258119   0.0430448), wk =   0.3333333
        k(    6) = (   0.3333333   0.0258119  -0.2850122), wk =   0.3333333
        k(    7) = (   0.3333333  -0.3069320  -0.0310288), wk =   0.3333333
        k(    8) = (   0.3333333  -0.3069320  -0.3590858), wk =   0.3333333

     Initial potential from superposition of free atoms

     starting charge  125.98896, renormalised to  126.00000
     Starting wfcs are  119 randomized atomic wfcs

     Self-consistent Calculation

     iteration #  1     ecut=    45.00 Ry     beta= 0.70
     Davidson diagonalization with overlap
     ethr =  1.00E-02,  avg # of iterations =  2.0

     negative rho (up, down):  1.574E-07 0.000E+00

     total energy              =    -491.52785212 Ry
     Harris-Foulkes estimate   =    -493.47657724 Ry
     estimated scf accuracy    <       5.26747728 Ry

[...]

     total energy              =    -492.53750093 Ry
     Harris-Foulkes estimate   =    -492.53750086 Ry
     estimated scf accuracy    <       0.00000332 Ry

     iteration # 13     ecut=    45.00 Ry     beta= 0.70
     Davidson diagonalization with overlap
     ethr =  2.64E-09,  avg # of iterations =  3.5

[...]

     End of self-consistent calculation

          k = 0.0000 0.0000 0.0000 ( 24039 PWs)   bands (ev):

   -11.9287 -11.4175 -11.2499 -11.1559 -11.0620 -11.0121 -10.9145 -10.8100
   -10.0457  -9.9436  -9.9305  -9.4903  -9.4675  -9.2494  -3.9797  -3.4886
    -3.3490  -3.2907  -3.1283  -2.9965  -2.9576  -2.6815  -2.5553  -2.5095
    -2.4043  -2.3029  -2.2707  -2.1115  -2.1055  -1.8237  -1.8123  -1.7684
    -1.6687  -1.5606  -1.4205  -1.2865  -1.2335  -1.1928  -1.1589  -1.0870
    -0.9963  -0.9789  -0.8413  -0.7331  -0.3797  -0.2647  -0.1227   0.2421
     0.3456   0.4574   0.5086   0.5318   0.6194   0.6410   0.7111   0.8074
     1.1022   1.3467   1.3700   1.5983   1.6264   1.6516   1.8867   1.9832
     2.1007   2.5107   2.8209   2.9177   2.9227   3.0518   3.1516   3.1590
     3.4193   3.5370   3.6930   3.8033

[...]

          k = 0.3333-0.3069-0.3591 ( 24021 PWs)   bands (ev):

   -11.7448 -11.3993 -11.2430 -11.2031 -11.1239 -11.0501 -10.8797 -10.7782
   -10.1114 -10.0766  -9.9749  -9.4862  -9.4637  -9.2599  -3.5808  -3.4315
    -3.1939  -3.1300  -2.9700  -2.8271  -2.7452  -2.6121  -2.5796  -2.5596
    -2.4505  -2.3807  -2.3527  -2.1472  -2.1007  -2.0337  -1.8814  -1.8407
    -1.7954  -1.6539  -1.4846  -1.4242  -1.2945  -1.2333  -1.1250  -1.0066
    -0.8620  -0.7671  -0.7030  -0.5885  -0.4437  -0.3651  -0.2820  -0.2419
    -0.0850   0.0849   0.2672   0.5689   0.7137   0.7791   0.8252   0.9039
     1.0636   1.2455   1.4083   1.5192   1.5672   1.7285   1.8918   1.9983
     2.0749   2.4678   2.7524   2.8432   3.0478   3.1776   3.2688   3.4200
     3.6336   3.6898   3.8394   3.8599

     the Fermi energy is     1.9300 ev

!    total energy              =    -492.53750109 Ry
     Harris-Foulkes estimate   =    -492.53750186 Ry
     estimated scf accuracy    <       0.00000100 Ry

     The total energy is the sum of the following terms:

     one-electron contribution =    -442.79646646 Ry
     hartree contribution      =     272.06115295 Ry
     xc contribution           =    -193.99710108 Ry
     ewald contribution        =    -127.80557765 Ry
     smearing contrib. (-TS)   =       0.00049115 Ry

     convergence has been achieved in  13 iterations

     negative rho (up, down):  2.239E-07 0.000E+00

     Forces acting on atoms (cartesian axes, Ry/au):

     atom    1 type  1   force =     0.04556886    0.02017103    0.00499105
     atom    2 type  1   force =    -0.01282849    0.05599984    0.00499337
     atom    3 type  1   force =     0.05292640   -0.01005391    0.00686623
     atom    4 type  1   force =    -0.00034691    0.00119208   -0.00047197
     atom    5 type  1   force =    -0.05451417    0.00799826   -0.00673169
     atom    6 type  1   force =     0.01467000   -0.05662872   -0.00546405
     atom    7 type  1   force =    -0.04398278   -0.02055086   -0.00314623
     atom    8 type  2   force =     0.00196276    0.02050115   -0.00099263
     atom    9 type  2   force =    -0.02430497    0.01667691   -0.01468871
     atom   10 type  2   force =     0.00072394    0.02200629   -0.01892408
     atom   11 type  2   force =     0.01911225    0.00661249    0.00463701
     atom   12 type  2   force =    -0.00288502    0.02103202   -0.01772081
     atom   13 type  2   force =    -0.00216423   -0.02140165    0.00080576
     atom   14 type  2   force =     0.02448942   -0.01794028    0.01452883
     atom   15 type  2   force =     0.00362749    0.01392155    0.00493011
     atom   16 type  2   force =     0.00276967   -0.01911824    0.01819802
     atom   17 type  2   force =     0.01325772    0.02290485   -0.01264932
     atom   18 type  2   force =    -0.00079877   -0.02213102    0.01897189
     atom   19 type  2   force =    -0.01443788   -0.02341860    0.01162912
     atom   20 type  2   force =    -0.00334618   -0.01297760   -0.00413486
     atom   21 type  2   force =    -0.01949911   -0.00479559   -0.00562706

     Total force =     0.164313     Total SCF correction =     0.001846

     General routines

     Parallel routines

   This run was terminated on:   0: 6: 3  24Dec2021

   JOB DONE.