     Program PWSCF v.6.4 starts on 14Oct2021 at 11: 9:51

     R & G space division:  proc/nbgrp/npool/nimage =      40
     Waiting for input...
     Reading input from standard input
Warning: card    &IONS ignored
Warning: card      ION_DYNAMICS = 'BFGS' ignored
Warning: card   / ignored
Warning: card    &CELL ignored
Warning: card      CELL_DYNAMICS = 'BFGS', ignored
Warning: card    / ignored

     Current dimensions of program PWSCF are:
     Max number of different atomic species (ntypx) = 10
     Max number of k-points (npk) =  40000
     Max angular momentum in pseudopotentials (lmaxx) =  3

     bravais-lattice index     =            0
     lattice parameter (alat)  =       6.0809  a.u.
     unit-cell volume          =    1716.6670 (a.u.)^3
     number of atoms/cell      =           12
     number of atomic types    =            2
     number of electrons       =        72.00
     number of Kohn-Sham states=           43
     kinetic-energy cutoff     =      45.0000  Ry
     charge density cutoff     =     360.0000  Ry
     convergence threshold     =      1.0E-06
     mixing beta               =       0.7000
     number of iterations used =            8  local-TF  mixing
     Exchange-correlation      = SLA PW GGX GGC ( 1  4  2  2 0 0)

     celldm(1)=   6.080855  celldm(2)=   0.000000  celldm(3)=   0.000000
     celldm(4)=   0.000000  celldm(5)=   0.000000  celldm(6)=   0.000000

     crystal axes: (cart. coord. in units of alat)
               a(1) = (   1.000000   0.000000   0.000000 )
               a(2) = (  -0.003555   1.838438   0.000000 )
               a(3) = (  -0.232050  -0.036183   4.152822 )

     reciprocal axes: (cart. coord. in units 2 pi/alat)
               b(1) = (  1.000000  0.001934  0.055894 )
               b(2) = (  0.000000  0.543940  0.004739 )
               b(3) = (  0.000000  0.000000  0.240800 )

     PseudoPot. # 1 for Mo read from file:
     ~/pseudo/Mo.pw91-n-van.UPF
     MD5 check sum: Not computed, couldn't open file
     Pseudo is Ultrasoft + core correction, Zval =  6.0
     Generated by new atomic code, or converted to UPF format
     Using radial grid of  965 points,  3 beta functions with:
                l(1) =   1
                l(2) =   2
                l(3) =   2
     Q(r) pseudized with  8 coefficients,  rinner =    1.000   1.000   1.000
                                                       1.200   1.200

     PseudoPot. # 2 for S  read from file:
     ~/pseudo/S.pw91-van_ak.UPF
     MD5 check sum: Not computed, couldn't open file
     Pseudo is Ultrasoft, Zval =  6.0
     Generated by new atomic code, or converted to UPF format
     Using radial grid of  811 points,  6 beta functions with:
                l(1) =   0
                l(2) =   0
                l(3) =   1
                l(4) =   1
                l(5) =   2
                l(6) =   2
     Q(r) pseudized with  8 coefficients,  rinner =    1.100   1.100   1.100
                                                       1.100   1.100

     atomic species   valence    mass     pseudopotential
        Mo             6.00    95.50000     Mo( 1.00)
        S              6.00    32.06500     S ( 1.00)

     No symmetry found

   Cartesian axes

     site n.     atom                  positions (alat units)
         1           Mo  tau(   1) = (   0.4342919   1.1282093   2.5725582  )
         2           Mo  tau(   2) = (  -0.0678768   0.4315600   2.5997965  )
         3           Mo  tau(   3) = (   0.1515390   1.3940504   0.3825215  )
         4           Mo  tau(   4) = (   0.6580694   0.2520514   0.3528233  )
         5           S   tau(   5) = (   0.6513751   1.5889414   0.8954240  )
         6           S   tau(   6) = (  -0.0662641   0.9353869   2.0595076  )
         7           S   tau(   7) = (   0.4312794  -0.0061779   2.1917658  )
         8           S   tau(   8) = (   0.4327393   0.6165848   3.1145076  )
         9           S   tau(   9) = (   0.4188081   0.9221684   4.1180980  )
        10           S   tau(  10) = (  -0.0654711   1.5638932   2.9895138  )
        11           S   tau(  11) = (  -0.0738284   0.0287209   3.9911704  )
        12           S   tau(  12) = (   0.1592410   0.6896494   0.7604253  )

     number of k points=    16  Marzari-Vanderbilt smearing, width (Ry)=  0.0200
                       cart. coord. in units 2pi/alat
        k(    1) = (   0.0000000   0.0000000   0.0000000), wk =   0.0666667
        k(    2) = (   0.0000000   0.0000000  -0.1204001), wk =   0.0666667
        k(    3) = (   0.0000000   0.1813134   0.0015798), wk =   0.1333333
        k(    4) = (   0.0000000   0.1813134  -0.1188203), wk =   0.1333333
        k(    5) = (   0.2000000   0.0003868   0.0111789), wk =   0.1333333
        k(    6) = (   0.2000000   0.0003868  -0.1092212), wk =   0.1333333
        k(    7) = (   0.2000000   0.1817001   0.0127587), wk =   0.1333333
        k(    8) = (   0.2000000   0.1817001  -0.1076414), wk =   0.1333333
        k(    9) = (   0.2000000  -0.1809266   0.0095991), wk =   0.1333333
        k(   10) = (   0.2000000  -0.1809266  -0.1108009), wk =   0.1333333
        k(   11) = (   0.4000000   0.0007735   0.0223578), wk =   0.1333333
        k(   12) = (   0.4000000   0.0007735  -0.0980423), wk =   0.1333333
        k(   13) = (   0.4000000   0.1820869   0.0239375), wk =   0.1333333
        k(   14) = (   0.4000000   0.1820869  -0.0964625), wk =   0.1333333
        k(   15) = (   0.4000000  -0.1805399   0.0207780), wk =   0.1333333
        k(   16) = (   0.4000000  -0.1805399  -0.0996220), wk =   0.1333333

     Initial potential from superposition of free atoms

     starting charge   71.99369, renormalised to   72.00000
     Starting wfcs are   68 randomized atomic wfcs

     Self-consistent Calculation

     iteration #  1     ecut=    45.00 Ry     beta= 0.70
     Davidson diagonalization with overlap
     ethr =  1.00E-02,  avg # of iterations =  2.1

     total energy              =    -281.17507141 Ry
     Harris-Foulkes estimate   =    -282.09479072 Ry
     estimated scf accuracy    <       2.40317195 Ry

[...]

     total energy              =    -281.65924259 Ry
     Harris-Foulkes estimate   =    -281.65924286 Ry
     estimated scf accuracy    <       0.00000183 Ry

     iteration # 13     ecut=    45.00 Ry     beta= 0.70
     Davidson diagonalization with overlap
     ethr =  2.55E-09,  avg # of iterations =  1.1

     End of self-consistent calculation

          k = 0.0000 0.0000 0.0000 (  8787 PWs)   bands (ev):

    -7.9158  -7.7904  -7.0088  -6.9001  -6.2464  -6.1844  -5.9852  -5.9564
     0.2442   0.2954   0.5922   1.1525   1.4973   1.7113   1.7527   1.8552
     2.6838   2.7120   2.7337   2.7392   3.1063   3.2895   3.5862   3.9278
     4.0771   4.4063   4.6475   4.8816   4.9956   5.0595   5.5391   5.9394
     5.9642   6.0627   6.0854   6.2398   6.4096   6.4344   6.7677   6.8385
     7.9367   7.9713   8.3608

[...]

          k = 0.4000-0.1805-0.0996 (  8744 PWs)   bands (ev):

    -6.6401  -6.5577  -6.5069  -6.4933  -6.0050  -5.9607  -5.5976  -5.5451
     0.3786   0.4601   0.7946   0.8785   1.1983   1.3814   1.8735   2.0060
     2.0460   2.2996   2.3499   2.4930   2.7006   2.7092   3.0976   3.1621
     3.4480   3.5108   3.7581   3.8432   4.0318   4.1400   4.5917   4.6626
     4.9121   5.0336   5.2605   5.3309   7.4170   7.4965   7.7824   7.8007
     8.5139   8.6520   8.7406

     the Fermi energy is     6.2080 ev

!    total energy              =    -281.65924232 Ry
     Harris-Foulkes estimate   =    -281.65924270 Ry
     estimated scf accuracy    <       0.00000041 Ry

     The total energy is the sum of the following terms:

     one-electron contribution =     -46.12944748 Ry
     hartree contribution      =      63.26754828 Ry
     xc contribution           =    -111.35993072 Ry
     ewald contribution        =    -187.43950528 Ry
     smearing contrib. (-TS)   =       0.00209288 Ry

     convergence has been achieved in  13 iterations

     Forces acting on atoms (cartesian axes, Ry/au):

     atom    1 type  1   force =    -0.00200648    0.06020373   -0.00455990
     atom    2 type  1   force =     0.00136642   -0.06247953    0.02551378
     atom    3 type  1   force =     0.00191289   -0.05974115    0.00416713
     atom    4 type  1   force =    -0.00140942    0.06257056   -0.02555031
     atom    5 type  2   force =     0.00066476   -0.01053392    0.04253508
     atom    6 type  2   force =     0.00011205    0.01002900   -0.04400821
     atom    7 type  2   force =     0.00230652    0.00199840   -0.01532009
     atom    8 type  2   force =     0.00013749   -0.00500066    0.03154173
     atom    9 type  2   force =     0.00237284    0.00734513    0.00126340
     atom   10 type  2   force =    -0.00189682   -0.00741879   -0.00171543
     atom   11 type  2   force =    -0.00075464    0.00510947   -0.03012240
     atom   12 type  2   force =    -0.00280562   -0.00208223    0.01625522

     Total force =     0.151396     Total SCF correction =     0.001351

     General routines

     Parallel routines

   This run was terminated on:  11:10:22  14Oct2021

   JOB DONE.