     Program PWSCF v.6.4.1 starts on  2Aug2021 at 12:15:10

     R & G space division:  proc/nbgrp/npool/nimage =      20
     Waiting for input...
     Reading input from standard input
Warning: card    &IONS ignored
Warning: card      ION_DYNAMICS = 'BFGS' ignored
Warning: card   / ignored
Warning: card    &CELL ignored
Warning: card      CELL_DYNAMICS = 'BFGS', ignored
Warning: card    / ignored

     Current dimensions of program PWSCF are:
     Max number of different atomic species (ntypx) = 10
     Max number of k-points (npk) =  40000
     Max angular momentum in pseudopotentials (lmaxx) =  3

     Subspace diagonalization in iterative solution of the eigenvalue problem:
     a serial algorithm will be used

     bravais-lattice index     =            0
     lattice parameter (alat)  =      12.3692  a.u.
     unit-cell volume          =    3588.6202 (a.u.)^3
     number of atoms/cell      =           24
     number of atomic types    =            2
     number of electrons       =       144.00
     number of Kohn-Sham states=           86
     kinetic-energy cutoff     =      45.0000  Ry
     charge density cutoff     =     360.0000  Ry
     convergence threshold     =      1.0E-06
     mixing beta               =       0.7000
     number of iterations used =            8  local-TF  mixing
     Exchange-correlation      = SLA PW GGX GGC ( 1  4  2  2 0 0)

     celldm(1)=  12.369168  celldm(2)=   0.000000  celldm(3)=   0.000000
     celldm(4)=   0.000000  celldm(5)=   0.000000  celldm(6)=   0.000000

     crystal axes: (cart. coord. in units of alat)
               a(1) = (   1.000000   0.000000   0.000000 )
               a(2) = (  -0.250000   0.433013   0.000000 )
               a(3) = (   0.000000   0.000000   4.379307 )

     reciprocal axes: (cart. coord. in units 2 pi/alat)
               b(1) = (  1.000000  0.577350 -0.000000 )
               b(2) = (  0.000000  2.309401  0.000000 )
               b(3) = (  0.000000 -0.000000  0.228347 )

     PseudoPot. # 1 for Mo read from file:
     /home/kkety/pseudo/Mo.pw91-n-van.UPF
     MD5 check sum: 875977911cf57e7168990cb144db214a
     Pseudo is Ultrasoft + core correction, Zval =  6.0
     Generated by new atomic code, or converted to UPF format
     Using radial grid of  965 points,  3 beta functions with:
                l(1) =   1
                l(2) =   2
                l(3) =   2
     Q(r) pseudized with  8 coefficients,  rinner =    1.000   1.000   1.000
                                                       1.200   1.200

     PseudoPot. # 2 for S  read from file:
     /home/kkety/pseudo/S.pw91-van_ak.UPF
     MD5 check sum: 708c80e9edb6b1bde406d41998b2c042
     Pseudo is Ultrasoft, Zval =  6.0
     Generated by new atomic code, or converted to UPF format
     Using radial grid of  811 points,  6 beta functions with:
                l(1) =   0
                l(2) =   0
                l(3) =   1
                l(4) =   1
                l(5) =   2
                l(6) =   2
     Q(r) pseudized with  8 coefficients,  rinner =    1.100   1.100   1.100
                                                       1.100   1.100

     atomic species   valence    mass     pseudopotential
        Mo             6.00    95.50000     Mo( 1.00)
        S              6.00    32.06500     S ( 1.00)

     No symmetry found

   Cartesian axes

     site n.     atom                  positions (alat units)
         1           Mo  tau(   1) = (   0.0006880  -0.0039222   1.6725349  )
         2           Mo  tau(   2) = (   0.0005645   0.0256692   3.8153283  )
         3           Mo  tau(   3) = (   0.5122513  -0.0011330   1.6702089  )
         4           Mo  tau(   4) = (   0.4916762   0.0286192   3.8251639  )
         5           Mo  tau(   5) = (  -0.0089243  -0.0094147   0.5750784  )
         6           Mo  tau(   6) = (  -0.0207414  -0.0155656   2.7532266  )
         7           Mo  tau(   7) = (   0.5271636  -0.0035565   0.5338810  )
         8           Mo  tau(   8) = (   0.5127251  -0.0174188   2.7587069  )
         9           S   tau(   9) = (   0.2307243   0.1633377   1.9016805  )
        10           S   tau(  10) = (   0.2274597   0.1528396   4.0583590  )
        11           S   tau(  11) = (   0.7491468   0.1170814   1.9012856  )
        12           S   tau(  12) = (   0.7656673   0.1506026   4.0516805  )
        13           S   tau(  13) = (  -0.0146635   0.2714430   0.2816178  )
        14           S   tau(  14) = (   0.0055059   0.2714861   2.5164605  )
        15           S   tau(  15) = (   0.4811310   0.2878626   0.3261721  )
        16           S   tau(  16) = (   0.4936794   0.3152656   2.4781442  )
        17           S   tau(  17) = (  -0.0030463   0.2583125   0.7942414  )
        18           S   tau(  18) = (  -0.0249714   0.2779892   2.9683319  )
        19           S   tau(  19) = (   0.5070679   0.3183434   0.7908094  )
        20           S   tau(  20) = (   0.4976101   0.3006637   3.0103314  )
        21           S   tau(  21) = (   0.2739444   0.1503492   1.4149839  )
        22           S   tau(  22) = (   0.2316517   0.1662802   3.5758867  )
        23           S   tau(  23) = (   0.7475959   0.1147154   1.4040779  )
        24           S   tau(  24) = (   0.7511757   0.1448130   3.6171618  )

     number of k points=    10  Marzari-Vanderbilt smearing, width (Ry)=  0.0200
                       cart. coord. in units 2pi/alat
        k(    1) = (   0.0000000   0.0000000   0.0000000), wk =   0.1111111
        k(    2) = (   0.0000000   0.3849002   0.0000000), wk =   0.2222222
        k(    3) = (   0.0000000   0.7698004   0.0000000), wk =   0.2222222
        k(    4) = (   0.0000000  -1.1547006   0.0000000), wk =   0.1111111
        k(    5) = (   0.3333333   0.1924501   0.0000000), wk =   0.2222222
        k(    6) = (   0.3333333   0.5773503   0.0000000), wk =   0.2222222
        k(    7) = (   0.3333333  -0.9622505   0.0000000), wk =   0.2222222
        k(    8) = (   0.3333333  -0.5773503   0.0000000), wk =   0.2222222
        k(    9) = (   0.3333333  -0.1924501   0.0000000), wk =   0.2222222
        k(   10) = (   0.6666667  -0.3849002   0.0000000), wk =   0.2222222

     Initial potential from superposition of free atoms

     starting charge  143.98738, renormalised to  144.00000
     Starting wfcs are  136 randomized atomic wfcs

     Self-consistent Calculation

     iteration #  1     ecut=    45.00 Ry     beta= 0.70
     Davidson diagonalization with overlap
     ethr =  1.00E-02,  avg # of iterations =  2.0

     total energy              =    -562.27791271 Ry
     Harris-Foulkes estimate   =    -564.16226273 Ry
     estimated scf accuracy    <       4.91168002 Ry

[...]

     iteration #  7     ecut=    45.00 Ry     beta= 0.70
     Davidson diagonalization with overlap
     c_bands:  1 eigenvalues not converged
     ethr =  3.28E-06,  avg # of iterations =  4.2

[...]

     iteration # 15     ecut=    45.00 Ry     beta= 0.70
     Davidson diagonalization with overlap
     c_bands:  1 eigenvalues not converged
     ethr =  2.75E-08,  avg # of iterations =  7.4

[...]

     total energy              =    -563.24378791 Ry
     Harris-Foulkes estimate   =    -563.24378802 Ry
     estimated scf accuracy    <       0.00000129 Ry

     iteration # 17     ecut=    45.00 Ry     beta= 0.70
     Davidson diagonalization with overlap
     ethr =  8.97E-10,  avg # of iterations =  1.9

     End of self-consistent calculation

          k = 0.0000 0.0000 0.0000 ( 18357 PWs)   bands (ev):

    -8.9117  -8.5777  -8.2635  -8.1442  -7.5024  -7.3900  -7.1491  -7.1139
    -7.0766  -6.8037  -6.7909  -6.6343  -6.5863  -6.2466  -6.2221  -6.1002
    -0.5237  -0.2997  -0.2244   0.0282   0.1182   0.1910   0.3610   0.4804
     0.7248   0.8206   1.1566   1.2377   1.2734   1.3669   1.6404   1.6890
     1.7038   1.8542   2.2080   2.3994   2.4219   2.5048   2.6512   2.7793
     2.8806   2.9567   3.0173   3.0449   3.0511   3.0901   3.1460   3.4025
     3.4929   3.6408   3.8858   3.9002   3.9244   3.9539   4.0075   4.1415
     4.2253   4.2744   4.3110   4.4664   4.5653   4.7124   4.9058   4.9471
     5.0508   5.2000   5.3934   5.4046   5.5535   5.8078   5.8300   5.9462
     6.6665   6.9080   7.1206   7.2139   7.2771   7.3329   7.3648   7.5332
     7.6478   7.6884   7.7956   7.9180   7.9369   7.9607

[...]

          k = 0.6667-0.3849 0.0000 ( 18277 PWs)   bands (ev):

    -7.8690  -7.6392  -7.2383  -7.2305  -7.1870  -7.0973  -6.9296  -6.7151
    -6.6885  -6.6622  -6.6317  -6.5309  -6.4465  -6.1507  -6.0702  -6.0003
    -0.1617  -0.0192   0.1095   0.3922   0.5115   0.5189   0.5606   0.6206
     0.6436   0.7917   0.9866   1.0064   1.1042   1.1425   1.3072   1.4342
     1.6511   1.6699   1.7119   1.7577   1.8204   2.0197   2.0435   2.0565
     2.1033   2.2181   2.3755   2.3821   2.4342   2.7708   2.9450   2.9601
     2.9942   3.1935   3.3497   3.4849   3.5767   3.5964   3.6308   3.7798
     3.8553   3.9253   3.9867   4.0758   4.0988   4.1260   4.3178   4.3924
     4.5071   4.5306   4.6281   4.7980   4.9677   5.2226   5.2961   5.3379
     6.9363   6.9800   7.0951   7.1375   7.2537   7.3540   7.4134   7.4345
     7.4960   7.5398   7.6758   7.7746   7.8723   7.9241

     the Fermi energy is     5.8865 ev

!    total energy              =    -563.24378773 Ry
     Harris-Foulkes estimate   =    -563.24378800 Ry
     estimated scf accuracy    <       0.00000040 Ry

     The total energy is the sum of the following terms:

     one-electron contribution =    -110.56685285 Ry
     hartree contribution      =     133.08144090 Ry
     xc contribution           =    -222.50551095 Ry
     ewald contribution        =    -363.26415621 Ry
     smearing contrib. (-TS)   =       0.01129139 Ry

     convergence has been achieved in  17 iterations

     Forces acting on atoms (cartesian axes, Ry/au):

     atom    1 type  1   force =     0.01864863   -0.05251935   -0.11295958
     atom    2 type  1   force =     0.05216989   -0.13057052    0.06642095
     atom    3 type  1   force =    -0.09052166    0.01847842   -0.10240798
     atom    4 type  1   force =    -0.04460985   -0.07333439    0.02918353
     atom    5 type  1   force =     0.12159534   -0.00872077   -0.23442088
     atom    6 type  1   force =     0.03605283    0.01973307   -0.09634919
     atom    7 type  1   force =    -0.25961669    0.04925104    0.17885411
     atom    8 type  1   force =    -0.06594632    0.08496126   -0.05832074
     atom    9 type  2   force =     0.04365749   -0.05804861    0.03186453
     atom   10 type  2   force =     0.05383445    0.05810598    0.02336648
     atom   11 type  2   force =     0.03035493    0.06728458    0.04675697
     atom   12 type  2   force =    -0.05698614    0.04217257    0.05259510
     atom   13 type  2   force =     0.02165530    0.01205348    0.10369766
     atom   14 type  2   force =    -0.01515478    0.01835418    0.01482042
     atom   15 type  2   force =     0.16139886   -0.05175465   -0.15796903
     atom   16 type  2   force =    -0.00341191   -0.05814659    0.08129577
     atom   17 type  2   force =     0.03543408    0.10138302    0.02190556
     atom   18 type  2   force =     0.05639997   -0.00135765    0.07362061
     atom   19 type  2   force =    -0.08029453   -0.10214353    0.08749303
     atom   20 type  2   force =    -0.00899608   -0.06409057   -0.01442312
     atom   21 type  2   force =    -0.03673441   -0.02279415    0.06193945
     atom   22 type  2   force =     0.04254536    0.02964556    0.00012029
     atom   23 type  2   force =     0.03503971    0.04691942    0.07490479
     atom   24 type  2   force =    -0.04651448    0.07513818   -0.17198873

     Total force =     0.688194     Total SCF correction =     0.001527

     General routines

     Parallel routines

   This run was terminated on:  12:30:29   2Aug2021

   JOB DONE.