     Program PWSCF v.6.4 starts on 24Dec2021 at 20: 9: 5

     R & G space division:  proc/nbgrp/npool/nimage =      40
     Waiting for input...
     Reading input from standard input
Warning: card    &IONS ignored
Warning: card      ION_DYNAMICS = 'BFGS' ignored
Warning: card   / ignored
Warning: card    &CELL ignored
Warning: card      CELL_DYNAMICS = 'BFGS', ignored
Warning: card    / ignored

     Current dimensions of program PWSCF are:
     Max number of different atomic species (ntypx) = 10
     Max number of k-points (npk) =  40000
     Max angular momentum in pseudopotentials (lmaxx) =  3

     bravais-lattice index     =            0
     lattice parameter (alat)  =      18.4781  a.u.
     unit-cell volume          =    8868.0344 (a.u.)^3
     number of atoms/cell      =           42
     number of atomic types    =            2
     number of electrons       =       252.00
     number of Kohn-Sham states=          151
     kinetic-energy cutoff     =      45.0000  Ry
     charge density cutoff     =     360.0000  Ry
     convergence threshold     =      1.0E-06
     mixing beta               =       0.7000
     number of iterations used =            8  local-TF  mixing
     Exchange-correlation      = SLA PW GGX GGC ( 1  4  2  2 0 0)

     celldm(1)=  18.478124  celldm(2)=   0.000000  celldm(3)=   0.000000
     celldm(4)=   0.000000  celldm(5)=   0.000000  celldm(6)=   0.000000

     crystal axes: (cart. coord. in units of alat)
               a(1) = (   1.000000   0.000000   0.000000 )
               a(2) = (  -0.014987   1.001052   0.000000 )
               a(3) = (  -0.158827  -0.334404   1.404098 )

     reciprocal axes: (cart. coord. in units 2 pi/alat)
               b(1) = (  1.000000  0.014971  0.116682 )
               b(2) = (  0.000000  0.998950  0.237913 )
               b(3) = (  0.000000  0.000000  0.712201 )

     PseudoPot. # 1 for Mo read from file:
     ~/pseudo/Mo.pw91-n-van.UPF
     MD5 check sum: Not computed, couldn't open file
     Pseudo is Ultrasoft + core correction, Zval =  6.0
     Generated by new atomic code, or converted to UPF format
     Using radial grid of  965 points,  3 beta functions with:
                l(1) =   1
                l(2) =   2
                l(3) =   2
     Q(r) pseudized with  8 coefficients,  rinner =    1.000   1.000   1.000
                                                       1.200   1.200

     PseudoPot. # 2 for S  read from file:
     ~/pseudo/S.pw91-van_ak.UPF
     MD5 check sum: Not computed, couldn't open file
     Pseudo is Ultrasoft, Zval =  6.0
     Generated by new atomic code, or converted to UPF format
     Using radial grid of  811 points,  6 beta functions with:
                l(1) =   0
                l(2) =   0
                l(3) =   1
                l(4) =   1
                l(5) =   2
                l(6) =   2
     Q(r) pseudized with  8 coefficients,  rinner =    1.100   1.100   1.100
                                                       1.100   1.100

     atomic species   valence    mass     pseudopotential
        Mo             6.00    95.50000     Mo( 1.00)
        S              6.00    32.06500     S ( 1.00)

     No symmetry found

   Cartesian axes

     site n.     atom                  positions (alat units)
         1           Mo  tau(   1) = (   0.8278240   0.5305433   0.5161741  )
         2           Mo  tau(   2) = (   0.5561360   0.5097248   0.2116327  )
         3           Mo  tau(   3) = (   0.7905582   0.7580239   0.3184754  )
         4           Mo  tau(   4) = (   0.5414379   0.7861171   0.5120813  )
         5           Mo  tau(   5) = (   0.3113576   0.0359114   0.4905308  )
         6           Mo  tau(   6) = (   0.0916171   0.0398397   0.2985867  )
         7           Mo  tau(   7) = (   0.3046132   0.2562187   0.2741522  )
         8           Mo  tau(   8) = (   0.1054965   0.2620293   0.4839285  )
         9           Mo  tau(   9) = (   0.5251888   0.0046058   0.6864248  )
        10           Mo  tau(  10) = (   0.8622076   0.3002425   0.7165702  )
        11           Mo  tau(  11) = (   0.5091389   0.2751360   0.0456699  )
        12           Mo  tau(  12) = (   0.3285853   0.4753391   0.0427778  )
        13           Mo  tau(  13) = (   0.0499738   0.5283723   0.6983831  )
        14           Mo  tau(  14) = (   0.3097901   0.7989696   0.6963345  )
        15           S   tau(  15) = (   0.8082290   0.5273929   0.2543925  )
        16           S   tau(  16) = (   0.5742257   0.5341452   0.4921530  )
        17           S   tau(  17) = (   0.5622410   0.0209269   0.4575042  )
        18           S   tau(  18) = (   0.8438982  -0.0039001   0.2460815  )
        19           S   tau(  19) = (   0.5623542   0.2722387   0.2719230  )
        20           S   tau(  20) = (   0.8403132   0.2759624   0.4846224  )
        21           S   tau(  21) = (  -0.1023726   0.1274874   0.8999057  )
        22           S   tau(  22) = (   0.3223666   0.0122659   0.2412513  )
        23           S   tau(  23) = (   0.0657937   0.0261631   0.5316913  )
        24           S   tau(  24) = (   0.0671399   0.5148580   0.4659550  )
        25           S   tau(  25) = (   0.3184005   0.5114223   0.2721230  )
        26           S   tau(  26) = (   0.2733301   0.5754435   0.8031014  )
        27           S   tau(  27) = (   0.2978111   0.7849875   0.4641976  )
        28           S   tau(  28) = (   0.4642663  -0.2178639   1.3166941  )
        29           S   tau(  29) = (   0.7965168   0.7776180   0.5483363  )
        30           S   tau(  30) = (   0.6333182   0.2047113   0.7666666  )
        31           S   tau(  31) = (   0.3925676   0.1595052   1.3782923  )
        32           S   tau(  32) = (   0.8188656   0.5252164   0.7629578  )
        33           S   tau(  33) = (   0.5441777   0.7811282   0.7573448  )
        34           S   tau(  34) = (   0.5611301   0.7624264   0.2492413  )
        35           S   tau(  35) = (   0.0368530   0.2847449   1.3135963  )
        36           S   tau(  36) = (   0.3474871   0.2802234   0.5192919  )
        37           S   tau(  37) = (   0.0634814   0.7725912   0.7528022  )
        38           S   tau(  38) = (   0.0272720   0.7975862   0.2407357  )
        39           S   tau(  39) = (   0.3004345   0.0310559   0.7449336  )
        40           S   tau(  40) = (   0.1029484   0.2945798   0.7350699  )
        41           S   tau(  41) = (   0.2790148   0.2481582   0.0142390  )
        42           S   tau(  42) = (   0.0580256   0.2711747   0.2428669  )

     number of k points=     8  Marzari-Vanderbilt smearing, width (Ry)=  0.0200
                       cart. coord. in units 2pi/alat
        k(    1) = (   0.0000000   0.0000000   0.0000000), wk =   0.2500000
        k(    2) = (   0.0000000   0.0000000  -0.3561006), wk =   0.2500000
        k(    3) = (   0.0000000  -0.4994748  -0.1189565), wk =   0.2500000
        k(    4) = (   0.0000000  -0.4994748  -0.4750571), wk =   0.2500000
        k(    5) = (  -0.5000000  -0.0074857  -0.0583410), wk =   0.2500000
        k(    6) = (  -0.5000000  -0.0074857  -0.4144416), wk =   0.2500000
        k(    7) = (  -0.5000000  -0.5069605  -0.1772975), wk =   0.2500000
        k(    8) = (  -0.5000000  -0.5069605  -0.5333981), wk =   0.2500000

     Initial potential from superposition of free atoms

     starting charge  251.97792, renormalised to  252.00000
     Starting wfcs are  238 randomized atomic wfcs

     Self-consistent Calculation

     iteration #  1     ecut=    45.00 Ry     beta= 0.70
     Davidson diagonalization with overlap
     ethr =  1.00E-02,  avg # of iterations =  2.0

     total energy              =    -983.24226754 Ry
     Harris-Foulkes estimate   =    -986.75530996 Ry
     estimated scf accuracy    <       9.74210357 Ry

[...]

     negative rho (up, down):  1.734E-08 0.000E+00

[...]

     total energy              =    -985.08020695 Ry
     Harris-Foulkes estimate   =    -985.08020694 Ry
     estimated scf accuracy    <       0.00000108 Ry

     iteration # 15     ecut=    45.00 Ry     beta= 0.70
     Davidson diagonalization with overlap
     ethr =  4.29E-10,  avg # of iterations =  2.0

[...]

     End of self-consistent calculation

          k = 0.0000 0.0000 0.0000 ( 45237 PWs)   bands (ev):

   -11.8725 -11.2841 -11.2758 -11.1843 -10.9284 -10.9185 -10.8768 -10.7838
   -10.6886 -10.6815 -10.6218 -10.5833 -10.5662 -10.5390 -10.4742 -10.4156
   -10.3860 -10.3557 -10.0554 -10.0089  -9.8861  -9.6530  -9.4625  -9.0041
    -8.9443  -8.5492  -8.5060  -8.4335  -3.7723  -3.6298  -3.5818  -3.4483
    -3.1002  -3.0032  -2.9350  -2.9035  -2.8488  -2.8252  -2.6936  -2.6830
    -2.6276  -2.5154  -2.4691  -2.4435  -2.3867  -2.3389  -2.2387  -2.2297
    -2.1771  -2.1016  -2.0634  -1.9959  -1.9527  -1.9144  -1.8268  -1.8085
    -1.7342  -1.6857  -1.6735  -1.6331  -1.5393  -1.5046  -1.4353  -1.3745
    -1.2973  -1.2945  -1.2355  -1.1897  -1.1089  -1.1016  -1.0934  -1.0393
    -0.9852  -0.9314  -0.8765  -0.8532  -0.8363  -0.7974  -0.7528  -0.7371
    -0.6470  -0.6074  -0.5589  -0.4999  -0.3714  -0.3337  -0.2364  -0.1953
    -0.1700  -0.1015  -0.0182   0.0191   0.0887   0.1257   0.2420   0.2603
     0.3932   0.4421   0.4613   0.5711   0.6463   0.7663   0.8822   0.9021
     0.9691   1.0017   1.0371   1.1517   1.2212   1.2782   1.3643   1.4157
     1.4778   1.4801   1.5447   1.6135   1.6503   1.7202   1.8122   1.9136
     2.0934   2.1364   2.2090   2.2538   2.2879   2.3854   2.4702   2.5051
     2.7936   2.8447   3.0443   3.1003   3.2409   3.2703   3.4061   3.5745
     3.6201   3.6763   3.7274   3.7665   3.8393   3.9315   3.9876   4.0266
     4.0367   4.1108   4.1666   4.1804   4.2947   4.3343   4.4302

[...]

          k = 0.0000-0.4995-0.4751 ( 45258 PWs)   bands (ev):

[...]

          k =-0.5000-0.0075-0.0583 ( 45222 PWs)   bands (ev):

[...]

          k =-0.5000-0.5070-0.5334 ( 45166 PWs)   bands (ev):

   -11.7188 -11.4169 -11.3471 -11.2115 -10.9971 -10.9001 -10.8368 -10.7583
   -10.7369 -10.6999 -10.6187 -10.5961 -10.5641 -10.5399 -10.4981 -10.4017
   -10.3419 -10.3277 -10.0580  -9.9623  -9.8619  -9.6359  -9.4481  -9.0077
    -8.9480  -8.5485  -8.5059  -8.4336  -3.5237  -3.4888  -3.3633  -3.2760
    -3.1589  -3.1185  -3.0101  -2.9128  -2.8680  -2.8117  -2.7234  -2.6579
    -2.6250  -2.5885  -2.5416  -2.4831  -2.4326  -2.3991  -2.3800  -2.3375
    -2.2328  -2.2137  -2.1090  -2.0731  -2.0437  -2.0046  -1.9121  -1.8383
    -1.7808  -1.7417  -1.7103  -1.6837  -1.5905  -1.5226  -1.4793  -1.4024
    -1.3487  -1.3232  -1.2437  -1.1852  -1.1700  -1.0932  -1.0671  -1.0232
    -0.9632  -0.9473  -0.8869  -0.8640  -0.8012  -0.7835  -0.7060  -0.6832
    -0.6496  -0.5715  -0.5095  -0.4544  -0.3876  -0.3356  -0.2827  -0.1624
    -0.0748  -0.0359   0.0090   0.0466   0.1794   0.2282   0.2994   0.3234
     0.3786   0.4593   0.5521   0.6904   0.7879   0.8456   0.8691   0.9213
     0.9835   1.0865   1.1298   1.1663   1.2016   1.3064   1.3864   1.4208
     1.4666   1.5228   1.5874   1.6138   1.6755   1.7865   1.9637   2.0456
     2.0766   2.1546   2.1925   2.2436   2.3543   2.3946   2.5040   2.5419
     2.8110   2.8359   2.9094   2.9753   3.0468   3.1905   3.2990   3.4052
     3.4791   3.5214   3.6412   3.7579   3.8503   3.9030   3.9512   3.9600
     4.0252   4.0500   4.1002   4.1151   4.2994   4.3869   4.4722

     the Fermi energy is     2.4488 ev

!    total energy              =    -985.08020696 Ry
     Harris-Foulkes estimate   =    -985.08020706 Ry
     estimated scf accuracy    <       0.00000016 Ry

     The total energy is the sum of the following terms:

     one-electron contribution =   -1358.81768949 Ry
     hartree contribution      =     784.42854619 Ry
     xc contribution           =    -389.14296607 Ry
     ewald contribution        =     -21.55225842 Ry
     smearing contrib. (-TS)   =       0.00416084 Ry

     convergence has been achieved in  15 iterations

     negative rho (up, down):  1.218E-06 0.000E+00

     Forces acting on atoms (cartesian axes, Ry/au):

     atom    1 type  1   force =    -0.04985328   -0.02484535   -0.03432489
     atom    2 type  1   force =     0.00090041   -0.00180078    0.09274909
     atom    3 type  1   force =     0.02250942    0.02344087   -0.04023694
     atom    4 type  1   force =     0.00645120   -0.02407890   -0.01753592
     atom    5 type  1   force =    -0.01318932    0.04205970   -0.01430758
     atom    6 type  1   force =    -0.06400215   -0.03313100   -0.01870038
     atom    7 type  1   force =    -0.01820012   -0.02860427    0.00802386
     atom    8 type  1   force =    -0.01225615    0.00307866    0.02568995
     atom    9 type  1   force =     0.06697661    0.06061343    0.04194560
     atom   10 type  1   force =     0.02712035   -0.06957859    0.03082744
     atom   11 type  1   force =     0.12756645   -0.14158838   -0.08271140
     atom   12 type  1   force =    -0.12835224    0.13802744   -0.08313776
     atom   13 type  1   force =     0.04342704    0.02122656    0.01326829
     atom   14 type  1   force =    -0.02914846   -0.07829630    0.01971829
     atom   15 type  2   force =     0.02467226   -0.00872578    0.00014473
     atom   16 type  2   force =    -0.00422054   -0.01204285   -0.00794944
     atom   17 type  2   force =     0.02245558    0.01885541   -0.02054221
     atom   18 type  2   force =     0.01355453   -0.00517600   -0.00036274
     atom   19 type  2   force =     0.01512064   -0.01171444    0.02582719
     atom   20 type  2   force =    -0.01708058    0.00069350   -0.00816553
     atom   21 type  2   force =    -0.02066652    0.04978353   -0.05598447
     atom   22 type  2   force =     0.00791904   -0.01266162   -0.00533362
     atom   23 type  2   force =    -0.00974176   -0.01686255   -0.00167107
     atom   24 type  2   force =     0.00960917    0.03323829   -0.01883071
     atom   25 type  2   force =    -0.00808756    0.02582968    0.02617297
     atom   26 type  2   force =     0.00735183    0.01367026   -0.00958866
     atom   27 type  2   force =    -0.00703008   -0.03241789   -0.01007708
     atom   28 type  2   force =    -0.03984557    0.06428305    0.04844027
     atom   29 type  2   force =     0.01670850    0.01440804    0.01979004
     atom   30 type  2   force =    -0.00222382   -0.02888126    0.00865391
     atom   31 type  2   force =     0.05917166    0.05823632   -0.06487158
     atom   32 type  2   force =    -0.03471351    0.04412307    0.02895488
     atom   33 type  2   force =     0.00990777   -0.02865055    0.02389439
     atom   34 type  2   force =    -0.00841956    0.02188710   -0.00381552
     atom   35 type  2   force =     0.05489738   -0.05649390    0.05145643
     atom   36 type  2   force =    -0.00707532    0.01094513   -0.01917856
     atom   37 type  2   force =     0.00245182   -0.01488822    0.00278632
     atom   38 type  2   force =    -0.00753462    0.00525919    0.00229185
     atom   39 type  2   force =    -0.02932557    0.01962379    0.01437783
     atom   40 type  2   force =     0.01516732   -0.00775449    0.04059496
     atom   41 type  2   force =    -0.04159849   -0.04156081   -0.00732358
     atom   42 type  2   force =    -0.00137375    0.01047089   -0.00095869

     Total force =     0.443678     Total SCF correction =     0.000773

     General routines

     Parallel routines

   This run was terminated on:  20:13:24  24Dec2021

   JOB DONE.