     Program PWSCF v.6.4 starts on  6Oct2021 at 12:23:57

     R & G space division:  proc/nbgrp/npool/nimage =      40
     Waiting for input...
     Reading input from standard input
Warning: card    &IONS ignored
Warning: card      ION_DYNAMICS = 'BFGS' ignored
Warning: card   / ignored
Warning: card    &CELL ignored
Warning: card      CELL_DYNAMICS = 'BFGS', ignored
Warning: card    / ignored

     Current dimensions of program PWSCF are:
     Max number of different atomic species (ntypx) = 10
     Max number of k-points (npk) =  40000
     Max angular momentum in pseudopotentials (lmaxx) =  3

     bravais-lattice index     =            0
     lattice parameter (alat)  =      12.1585  a.u.
     unit-cell volume          =    6044.7986 (a.u.)^3
     number of atoms/cell      =           36
     number of atomic types    =            2
     number of electrons       =       216.00
     number of Kohn-Sham states=          130
     kinetic-energy cutoff     =      45.0000  Ry
     charge density cutoff     =     360.0000  Ry
     convergence threshold     =      1.0E-06
     mixing beta               =       0.7000
     number of iterations used =            8  local-TF  mixing
     Exchange-correlation      = SLA PW GGX GGC ( 1  4  2  2 0 0)

     celldm(1)=  12.158474  celldm(2)=   0.000000  celldm(3)=   0.000000
     celldm(4)=   0.000000  celldm(5)=   0.000000  celldm(6)=   0.000000

     crystal axes: (cart. coord. in units of alat)
               a(1) = (   1.000000   0.000000   0.000000 )
               a(2) = (   0.499608   0.864573   0.000000 )
               a(3) = (   0.353027  -0.117275   3.889940 )

     reciprocal axes: (cart. coord. in units 2 pi/alat)
               b(1) = (  1.000000 -0.577867 -0.108175 )
               b(2) = (  0.000000  1.156640  0.034871 )
               b(3) = (  0.000000  0.000000  0.257073 )

     PseudoPot. # 1 for Mo read from file:
     ~/pseudo/Mo.pw91-n-van.UPF
     MD5 check sum: Not computed, couldn't open file
     Pseudo is Ultrasoft + core correction, Zval =  6.0
     Generated by new atomic code, or converted to UPF format
     Using radial grid of  965 points,  3 beta functions with:
                l(1) =   1
                l(2) =   2
                l(3) =   2
     Q(r) pseudized with  8 coefficients,  rinner =    1.000   1.000   1.000
                                                       1.200   1.200

     PseudoPot. # 2 for S  read from file:
     ~/pseudo/S.pw91-van_ak.UPF
     MD5 check sum: Not computed, couldn't open file
     Pseudo is Ultrasoft, Zval =  6.0
     Generated by new atomic code, or converted to UPF format
     Using radial grid of  811 points,  6 beta functions with:
                l(1) =   0
                l(2) =   0
                l(3) =   1
                l(4) =   1
                l(5) =   2
                l(6) =   2
     Q(r) pseudized with  8 coefficients,  rinner =    1.100   1.100   1.100
                                                       1.100   1.100

     atomic species   valence    mass     pseudopotential
        Mo             6.00    95.50000     Mo( 1.00)
        S              6.00    32.06500     S ( 1.00)

     No symmetry found

   Cartesian axes

     site n.     atom                  positions (alat units)
         1           Mo  tau(   1) = (   0.8599846   0.6199910   1.1868296  )
         2           Mo  tau(   2) = (   1.3600894   0.6203491   1.1867714  )
         3           Mo  tau(   3) = (   0.6103149   0.1878941   1.1868685  )
         4           Mo  tau(   4) = (   1.1107097   0.1877005   1.1866492  )
         5           Mo  tau(   5) = (   1.3653709   0.7613522   2.6835115  )
         6           Mo  tau(   6) = (   0.8654993   0.7610449   2.6833905  )
         7           Mo  tau(   7) = (   1.1159677   0.3294599   2.6833183  )
         8           Mo  tau(   8) = (   0.6157626   0.3286484   2.6834547  )
         9           Mo  tau(   9) = (   0.8733755   0.6638490   0.0177703  )
        10           Mo  tau(  10) = (   1.3740038   0.6649306   0.0177852  )
        11           Mo  tau(  11) = (   0.6231442   0.2314194   0.0177559  )
        12           Mo  tau(  12) = (   1.1237956   0.2324504   0.0176854  )
        13           S   tau(  13) = (   0.1250321  -0.0552935   0.2639945  )
        14           S   tau(  14) = (   0.6238652  -0.0568163   0.2637015  )
        15           S   tau(  15) = (   0.3739864   0.3770427   0.2629030  )
        16           S   tau(  16) = (   0.8730086   0.3752648   0.2630356  )
        17           S   tau(  17) = (   0.8604997   0.3312636   0.9413865  )
        18           S   tau(  18) = (   0.3604091   0.3319928   0.9409631  )
        19           S   tau(  19) = (   1.1097054   0.7639000   0.9411097  )
        20           S   tau(  20) = (   0.6099861   0.7636037   0.9409004  )
        21           S   tau(  21) = (   0.8609394   0.3313734   1.4317680  )
        22           S   tau(  22) = (   0.3607478   0.3322971   1.4324689  )
        23           S   tau(  23) = (   1.1099271   0.7641200   1.4323335  )
        24           S   tau(  24) = (   0.6103655   0.7642139   1.4328662  )
        25           S   tau(  25) = (   1.1161237   0.0404379   2.4382909  )
        26           S   tau(  26) = (   0.6158653   0.0395730   2.4372518  )
        27           S   tau(  27) = (   1.3667242   0.4723838   2.4374078  )
        28           S   tau(  28) = (   0.8658831   0.4718965   2.4377104  )
        29           S   tau(  29) = (   1.1158017   0.0416842   2.9283676  )
        30           S   tau(  30) = (   0.6153628   0.0409322   2.9291657  )
        31           S   tau(  31) = (   1.3658779   0.4738300   2.9292710  )
        32           S   tau(  32) = (   0.8654712   0.4732420   2.9295634  )
        33           S   tau(  33) = (   0.9772215   0.6913549   3.6618075  )
        34           S   tau(  34) = (   1.4762456   0.6896147   3.6620158  )
        35           S   tau(  35) = (   0.7267699   0.2593045   3.6626240  )
        36           S   tau(  36) = (   1.2259259   0.2575914   3.6619794  )

     number of k points=     5  Marzari-Vanderbilt smearing, width (Ry)=  0.0200
                       cart. coord. in units 2pi/alat
        k(    1) = (   0.0000000   0.0000000   0.0000000), wk =   0.2222222
        k(    2) = (   0.0000000   0.3855468   0.0116236), wk =   0.4444444
        k(    3) = (   0.3333333  -0.1926224  -0.0360585), wk =   0.4444444
        k(    4) = (   0.3333333   0.1929244  -0.0244349), wk =   0.4444444
        k(    5) = (   0.3333333  -0.5781692  -0.0476821), wk =   0.4444444

     Initial potential from superposition of free atoms

     starting charge  215.98107, renormalised to  216.00000
     Starting wfcs are  204 randomized atomic wfcs

     Self-consistent Calculation

     iteration #  1     ecut=    45.00 Ry     beta= 0.70
     Davidson diagonalization with overlap
     ethr =  1.00E-02,  avg # of iterations =  2.0

     total energy              =    -844.24813393 Ry
     Harris-Foulkes estimate   =    -846.86002721 Ry
     estimated scf accuracy    <       6.66988327 Ry

[...]

     total energy              =    -845.54253385 Ry
     Harris-Foulkes estimate   =    -845.54253426 Ry
     estimated scf accuracy    <       0.00000204 Ry

     iteration # 14     ecut=    45.00 Ry     beta= 0.70
     Davidson diagonalization with overlap
     ethr =  9.46E-10,  avg # of iterations =  3.0

     End of self-consistent calculation

          k = 0.0000 0.0000 0.0000 ( 30757 PWs)   bands (ev):

    -9.8006  -9.7884  -9.7781  -8.6112  -8.5937  -8.5865  -8.0660  -8.0562
    -8.0532  -8.0509  -8.0461  -8.0446  -8.0412  -8.0335  -8.0304  -7.8007
    -7.7955  -7.7902  -7.7881  -7.7848  -7.7787  -7.7785  -7.7752  -7.7693
    -1.4363  -1.4312  -1.4296  -1.4207  -1.4174  -1.4145  -1.4117  -1.4096
    -1.4050  -1.3175  -1.2596  -1.2281  -0.4974  -0.4947  -0.4923  -0.4757
    -0.4725  -0.4709  -0.4707  -0.4678  -0.4638   0.1784   0.1832   0.1876
     0.2149   0.2223   0.2257   0.2268   0.2298   0.2369   1.0868   1.0950
     1.1013   1.1080   1.1112   1.1119   1.1190   1.1230   1.1317   1.6105
     1.6185   1.6262   1.6306   1.6340   1.6467   2.2852   2.2975   2.3043
     2.3531   2.3544   2.3590   2.3709   2.3949   2.4023   2.4034   2.5031
     2.6778   2.7247   2.7327   2.7445   2.7464   2.7531   2.7642   3.2514
     3.2608   3.2629   3.2713   3.2728   3.2744   3.2811   3.2847   3.2938
     3.5156   3.5250   3.5327   3.5556   3.5625   3.5710   3.5738   3.5784
     3.5836   4.0617   4.1928   4.2768   6.2169   6.2202   6.2208   6.2250
     6.2262   6.2291   6.2330   6.2371   6.2390   6.7282   6.7313   6.7344
     6.7511   6.7563   6.7576   6.7595   6.7608   6.7619   6.9022   6.9066
     6.9119   6.9157

[...]

          k = 0.3333-0.5782-0.0477 ( 30872 PWs)   bands (ev):

    -8.8244  -8.8197  -8.8123  -8.8109  -8.8062  -8.8031  -8.8018  -8.7943
    -8.7915  -8.1404  -8.1380  -8.1353  -8.1262  -8.1238  -8.1216  -8.1178
    -8.1156  -8.1131  -7.8160  -7.8057  -7.7948  -7.6321  -7.6215  -7.6117
    -1.0498  -1.0398  -1.0283  -0.6217  -0.6175  -0.6134  -0.5858  -0.5807
    -0.5785  -0.5710  -0.5675  -0.5647  -0.2670  -0.2537  -0.2443   0.2300
     0.2432   0.2524   0.4096   0.4148   0.4176   0.4440   0.4471   0.4516
     0.4556   0.4596   0.4630   0.6432   0.6445   0.6503   0.6528   0.6665
     0.6706   0.6737   0.6757   0.6797   0.6831   0.6882   0.7020   1.0703
     1.0758   1.0763   1.1083   1.1099   1.1159   1.1249   1.1288   1.1310
     1.3391   1.3597   1.3640   2.0115   2.0673   2.0965   2.2680   2.2706
     2.2767   2.2777   2.2819   2.2852   2.2858   2.2950   2.2972   3.0824
     3.0866   3.0927   3.1444   3.1481   3.1565   3.1890   3.1938   3.1977
     3.3903   3.3945   3.3958   3.4116   3.4140   3.4152   3.4164   3.4173
     3.4222   4.1467   4.1579   4.1663   5.7874   5.7956   5.8070   5.9684
     5.9736   5.9762   6.0470   6.0495   6.0551   6.0967   6.1039   6.1075
     6.4886   6.4946   6.4991   6.5224   6.5297   6.5358   6.5541   6.5564
     6.5613   6.7167

     the Fermi energy is     4.2745 ev

!    total energy              =    -845.54253360 Ry
     Harris-Foulkes estimate   =    -845.54253428 Ry
     estimated scf accuracy    <       0.00000075 Ry

     The total energy is the sum of the following terms:

     one-electron contribution =    -702.27762527 Ry
     hartree contribution      =     457.63814176 Ry
     xc contribution           =    -334.13216735 Ry
     ewald contribution        =    -266.79440532 Ry
     smearing contrib. (-TS)   =       0.02352258 Ry

     convergence has been achieved in  14 iterations

     Forces acting on atoms (cartesian axes, Ry/au):

     atom    1 type  1   force =     0.00025494   -0.00071256   -0.00011820
     atom    2 type  1   force =     0.00059220   -0.00053922    0.00052326
     atom    3 type  1   force =     0.00024809   -0.00076330   -0.00097829
     atom    4 type  1   force =     0.00068615   -0.00075468    0.00031738
     atom    5 type  1   force =     0.00008798   -0.00041143   -0.00046397
     atom    6 type  1   force =     0.00066145   -0.00070479    0.00066029
     atom    7 type  1   force =     0.00055114   -0.00031401    0.00123010
     atom    8 type  1   force =     0.00044406   -0.00052044    0.00071870
     atom    9 type  1   force =     0.00043452   -0.00063233   -0.00044357
     atom   10 type  1   force =     0.00066657   -0.00033114    0.00014460
     atom   11 type  1   force =     0.00065699   -0.00068243   -0.00131072
     atom   12 type  1   force =     0.00038902   -0.00085730   -0.00048073
     atom   13 type  2   force =    -0.00191967   -0.00123706   -0.00264555
     atom   14 type  2   force =    -0.00027415    0.00054085   -0.00168954
     atom   15 type  2   force =    -0.00053091   -0.00135668    0.00104617
     atom   16 type  2   force =     0.00053097    0.00070282    0.00008598
     atom   17 type  2   force =    -0.00011423    0.00095153   -0.00044248
     atom   18 type  2   force =     0.00000630   -0.00000945    0.00118931
     atom   19 type  2   force =     0.00053456    0.00064557    0.00086161
     atom   20 type  2   force =     0.00025577    0.00117638    0.00146160
     atom   21 type  2   force =    -0.00094534    0.00077180    0.00220749
     atom   22 type  2   force =    -0.00097183   -0.00071148   -0.00028889
     atom   23 type  2   force =     0.00009741    0.00010829    0.00030152
     atom   24 type  2   force =    -0.00062281   -0.00021156   -0.00145545
     atom   25 type  2   force =    -0.00056514    0.00105623   -0.00165175
     atom   26 type  2   force =    -0.00025757    0.00216673    0.00172208
     atom   27 type  2   force =    -0.00186568    0.00166765    0.00136673
     atom   28 type  2   force =    -0.00063534    0.00219136    0.00059208
     atom   29 type  2   force =     0.00016571   -0.00157811    0.00174385
     atom   30 type  2   force =     0.00083997   -0.00103210   -0.00063545
     atom   31 type  2   force =    -0.00005509   -0.00169335   -0.00086173
     atom   32 type  2   force =     0.00064102   -0.00091763   -0.00194082
     atom   33 type  2   force =    -0.00072705    0.00043132    0.00089242
     atom   34 type  2   force =     0.00013087    0.00247292    0.00013752
     atom   35 type  2   force =    -0.00026447   -0.00055217   -0.00201956
     atom   36 type  2   force =     0.00087359    0.00163976    0.00022402

     Total force =     0.010446     Total SCF correction =     0.002067
     SCF correction compared to forces is large: reduce conv_thr to get better values

     General routines

     Parallel routines

   This run was terminated on:  12:25:44   6Oct2021

   JOB DONE.