     Program PWSCF v.6.4 starts on 14Oct2021 at  9:58:10

     R & G space division:  proc/nbgrp/npool/nimage =      40
     Waiting for input...
     Reading input from standard input
Warning: card    &IONS ignored
Warning: card      ION_DYNAMICS = 'BFGS' ignored
Warning: card   / ignored
Warning: card    &CELL ignored
Warning: card      CELL_DYNAMICS = 'BFGS', ignored
Warning: card    / ignored

     Current dimensions of program PWSCF are:
     Max number of different atomic species (ntypx) = 10
     Max number of k-points (npk) =  40000
     Max angular momentum in pseudopotentials (lmaxx) =  3

     bravais-lattice index     =            0
     lattice parameter (alat)  =      12.2378  a.u.
     unit-cell volume          =    8434.7549 (a.u.)^3
     number of atoms/cell      =           36
     number of atomic types    =            2
     number of electrons       =       216.00
     number of Kohn-Sham states=          130
     kinetic-energy cutoff     =      45.0000  Ry
     charge density cutoff     =     360.0000  Ry
     convergence threshold     =      1.0E-06
     mixing beta               =       0.7000
     number of iterations used =            8  local-TF  mixing
     Exchange-correlation      = SLA PW GGX GGC ( 1  4  2  2 0 0)

     celldm(1)=  12.237788  celldm(2)=   0.000000  celldm(3)=   0.000000
     celldm(4)=   0.000000  celldm(5)=   0.000000  celldm(6)=   0.000000

     crystal axes: (cart. coord. in units of alat)
               a(1) = (   1.000000   0.000000   0.000000 )
               a(2) = (  -0.494909   0.873288   0.000000 )
               a(3) = (  -0.457239   0.413134   5.269950 )

     reciprocal axes: (cart. coord. in units 2 pi/alat)
               b(1) = (  1.000000  0.566720  0.042336 )
               b(2) = (  0.000000  1.145098 -0.089769 )
               b(3) = (  0.000000  0.000000  0.189755 )

     PseudoPot. # 1 for Mo read from file:
     ~/pseudo/Mo.pw91-n-van.UPF
     MD5 check sum: Not computed, couldn't open file
     Pseudo is Ultrasoft + core correction, Zval =  6.0
     Generated by new atomic code, or converted to UPF format
     Using radial grid of  965 points,  3 beta functions with:
                l(1) =   1
                l(2) =   2
                l(3) =   2
     Q(r) pseudized with  8 coefficients,  rinner =    1.000   1.000   1.000
                                                       1.200   1.200

     PseudoPot. # 2 for S  read from file:
     ~/pseudo/S.pw91-van_ak.UPF
     MD5 check sum: Not computed, couldn't open file
     Pseudo is Ultrasoft, Zval =  6.0
     Generated by new atomic code, or converted to UPF format
     Using radial grid of  811 points,  6 beta functions with:
                l(1) =   0
                l(2) =   0
                l(3) =   1
                l(4) =   1
                l(5) =   2
                l(6) =   2
     Q(r) pseudized with  8 coefficients,  rinner =    1.100   1.100   1.100
                                                       1.100   1.100

     atomic species   valence    mass     pseudopotential
        Mo             6.00    95.50000     Mo( 1.00)
        S              6.00    32.06500     S ( 1.00)

     No symmetry found

   Cartesian axes

     site n.     atom                  positions (alat units)
         1           Mo  tau(   1) = (   0.4608564   0.4121820   0.3419021  )
         2           Mo  tau(   2) = (  -0.3292273   0.7895020   0.3352519  )
         3           Mo  tau(   3) = (   0.1955299   0.7512840   0.3387808  )
         4           Mo  tau(   4) = (  -0.0206006   0.3614081   0.3437492  )
         5           Mo  tau(   5) = (  -0.0175067   1.0993076   3.2587545  )
         6           Mo  tau(   6) = (  -0.2806081   0.6618807   3.2511561  )
         7           Mo  tau(   7) = (   0.2304306   0.6553339   3.2480316  )
         8           Mo  tau(   8) = (  -0.5301826   1.0928482   3.2629181  )
         9           Mo  tau(   9) = (   0.3148160   0.5088668   1.6654299  )
        10           Mo  tau(  10) = (   0.0594717   0.0909899   1.6962250  )
        11           Mo  tau(  11) = (   0.5567241   0.0852204   1.6879261  )
        12           Mo  tau(  12) = (  -0.1928352   0.5052580   1.6629439  )
        13           S   tau(  13) = (  -0.0519485   0.9545374   0.5469359  )
        14           S   tau(  14) = (  -0.2820920   0.5090296   0.5866643  )
        15           S   tau(  15) = (   0.2049463   0.5037203   0.6160199  )
        16           S   tau(  16) = (  -0.5728301   0.9461483   0.5869597  )
        17           S   tau(  17) = (   0.4801617   0.5110592   3.5009619  )
        18           S   tau(  18) = (  -0.2665370   0.9552773   3.4994863  )
        19           S   tau(  19) = (   0.2268302   0.9323712   3.5039089  )
        20           S   tau(  20) = (  -0.0261065   0.5152017   3.4905054  )
        21           S   tau(  21) = (   0.8096923  -0.0737724   1.9199696  )
        22           S   tau(  22) = (   0.0678047   0.3861969   1.9232804  )
        23           S   tau(  23) = (   0.5617729   0.3734524   1.9174281  )
        24           S   tau(  24) = (   0.3153529  -0.0825058   1.9226383  )
        25           S   tau(  25) = (   0.2439418   0.6152101   5.3995243  )
        26           S   tau(  26) = (  -0.5213105   1.0613556   5.3630696  )
        27           S   tau(  27) = (  -0.0118024   1.0663877   5.3340177  )
        28           S   tau(  28) = (  -0.2312218   0.6240243   5.3673046  )
        29           S   tau(  29) = (   0.4786551   0.5135190   3.0004503  )
        30           S   tau(  30) = (  -0.2779095   0.9706307   3.0199328  )
        31           S   tau(  31) = (   0.2243976   0.9533893   3.0102997  )
        32           S   tau(  32) = (  -0.0360278   0.5099288   3.0117648  )
        33           S   tau(  33) = (   0.8118014  -0.0496582   1.4510538  )
        34           S   tau(  34) = (   0.0618347   0.3657152   1.4203350  )
        35           S   tau(  35) = (   0.5562695   0.3577137   1.4167400  )
        36           S   tau(  36) = (   0.2975375  -0.0570003   1.4472913  )

     number of k points=     5  Marzari-Vanderbilt smearing, width (Ry)=  0.0200
                       cart. coord. in units 2pi/alat
        k(    1) = (   0.0000000   0.0000000   0.0000000), wk =   0.2222222
        k(    2) = (   0.0000000   0.3816994  -0.0299231), wk =   0.4444444
        k(    3) = (   0.3333333   0.1889066   0.0141119), wk =   0.4444444
        k(    4) = (   0.3333333   0.5706060  -0.0158111), wk =   0.4444444
        k(    5) = (   0.3333333  -0.1927929   0.0440350), wk =   0.4444444

     Initial potential from superposition of free atoms

     starting charge  215.98107, renormalised to  216.00000

     negative rho (up, down):  5.050E-04 0.000E+00
     Starting wfcs are  204 randomized atomic wfcs

     Self-consistent Calculation

     iteration #  1     ecut=    45.00 Ry     beta= 0.70
     Davidson diagonalization with overlap
     ethr =  1.00E-02,  avg # of iterations =  2.0

     negative rho (up, down):  2.914E-05 0.000E+00

     total energy              =    -843.76888575 Ry
     Harris-Foulkes estimate   =    -846.65777708 Ry
     estimated scf accuracy    <       7.57221186 Ry

[...]

     End of self-consistent calculation

          k = 0.0000 0.0000 0.0000 ( 42929 PWs)   bands (ev):

   -12.5858 -12.5399 -12.4960 -11.5235 -11.4261 -11.3331 -11.1047 -11.0390
   -11.0016 -10.9503 -10.9034 -10.8849 -10.8759 -10.8554 -10.8088 -10.6648
   -10.6119 -10.6023 -10.5933 -10.5598 -10.5256 -10.4978 -10.4694 -10.3934
    -4.4942  -4.4543  -4.3957  -4.2119  -4.1931  -4.1740  -4.1439  -4.1240
    -4.0846  -4.0352  -3.9712  -3.8969  -3.3256  -3.2397  -3.2246  -3.2139
    -3.1929  -3.1773  -3.1653  -3.0955  -3.0169  -2.6327  -2.6012  -2.5814
    -2.5775  -2.5311  -2.5237  -2.5037  -2.4856  -2.4063  -1.8287  -1.7950
    -1.7417  -1.7407  -1.7306  -1.6947  -1.6642  -1.6441  -1.5848  -1.5593
    -1.4030  -1.3204  -1.2610  -1.2314  -1.1404  -1.0027  -0.8576  -0.7214
    -0.6161  -0.5912  -0.5668  -0.5283  -0.4793  -0.2888  -0.2802  -0.2567
    -0.2347  -0.1954  -0.1883  -0.1142  -0.0617  -0.0610  -0.0459   0.0961
     0.1032   0.1701   0.2408   0.3388   0.3874   0.3930   0.4264   0.5765
     0.6802   0.6890   0.7109   0.7457   0.7957   0.8164   0.8169   1.2005
     1.3250   1.3624   1.3994   1.4057   1.5513   1.7669   2.9128   3.0809
     3.1455   3.1589   3.2022   3.2096   3.2564   3.3324   3.3522   3.6007
     3.6410   3.6762   3.7215   3.7458   3.7720   3.7995   3.8042   3.8633
     3.8776   3.8954

[...]

     the Fermi energy is     1.4823 ev

!    total energy              =    -845.24826694 Ry
     Harris-Foulkes estimate   =    -845.24826582 Ry
     estimated scf accuracy    <       0.00000074 Ry

     The total energy is the sum of the following terms:

     one-electron contribution =   -2890.10340865 Ry
     hartree contribution      =    1528.77424078 Ry
     xc contribution           =    -333.50768033 Ry
     ewald contribution        =     849.57583798 Ry
     smearing contrib. (-TS)   =       0.01274327 Ry

     convergence has been achieved in  18 iterations

[...]

     Forces acting on atoms (cartesian axes, Ry/au):

     atom    1 type  1   force =    -0.03719227   -0.02606674    0.03499095
     atom    2 type  1   force =     0.00470077   -0.02346857    0.02350069
     atom    3 type  1   force =     0.02803206   -0.00418302   -0.02902533
     atom    4 type  1   force =     0.00751940    0.04204580   -0.02466053
     atom    5 type  1   force =    -0.00477765   -0.00705928   -0.01166019
     atom    6 type  1   force =     0.02116434    0.01835287    0.00763721
     atom    7 type  1   force =    -0.02470548   -0.00464668    0.00444437
     atom    8 type  1   force =     0.01523352    0.01641834   -0.01276630
     atom    9 type  1   force =    -0.00902665    0.04018902    0.01677686
     atom   10 type  1   force =     0.01131295   -0.03047338   -0.03550837
     atom   11 type  1   force =    -0.00123583   -0.03378128   -0.03330679
     atom   12 type  1   force =     0.01995944    0.03706652    0.02966587
     atom   13 type  2   force =     0.00114221   -0.00212311    0.01181432
     atom   14 type  2   force =    -0.01773094    0.01459141    0.01101399
     atom   15 type  2   force =     0.00921035   -0.01935249   -0.02026054
     atom   16 type  2   force =     0.02841481   -0.01650875   -0.02598208
     atom   17 type  2   force =    -0.00805603    0.01227706   -0.01614446
     atom   18 type  2   force =    -0.01675057   -0.01173835   -0.00408750
     atom   19 type  2   force =    -0.00284003    0.02046415   -0.01532726
     atom   20 type  2   force =    -0.00328218    0.00433835    0.00631849
     atom   21 type  2   force =    -0.00287804    0.00389545    0.00835452
     atom   22 type  2   force =    -0.01518924   -0.01101685   -0.01777948
     atom   23 type  2   force =    -0.00149798    0.00396750   -0.00149411
     atom   24 type  2   force =    -0.01977804    0.01496480   -0.00544550
     atom   25 type  2   force =    -0.00097374    0.01047712   -0.00921426
     atom   26 type  2   force =     0.01669899   -0.01408535   -0.00313925
     atom   27 type  2   force =    -0.00988810    0.02254031    0.00878029
     atom   28 type  2   force =    -0.03020281    0.01550044    0.02283440
     atom   29 type  2   force =    -0.00449104   -0.00273581    0.02557697
     atom   30 type  2   force =     0.00695320   -0.03433901   -0.00577630
     atom   31 type  2   force =     0.00521331   -0.01295603    0.01302191
     atom   32 type  2   force =     0.01677124    0.00200398    0.00942798
     atom   33 type  2   force =    -0.00089114   -0.02110447   -0.01697710
     atom   34 type  2   force =    -0.00074626   -0.00096136    0.03234488
     atom   35 type  2   force =     0.00577994    0.00804783    0.02767749
     atom   36 type  2   force =     0.01402751   -0.01054045   -0.00562587

     Total force =     0.187759     Total SCF correction =     0.001574

     General routines

     Parallel routines

   This run was terminated on:  10: 0:34  14Oct2021

   JOB DONE.

     Program PWSCF v.6.4 starts on 14Oct2021 at 10:46: 8

     R & G space division:  proc/nbgrp/npool/nimage =      40
     Waiting for input...
     Reading input from standard input
Warning: card    &IONS ignored
Warning: card      ION_DYNAMICS = 'BFGS' ignored
Warning: card   / ignored
Warning: card    &CELL ignored
Warning: card      CELL_DYNAMICS = 'BFGS', ignored
Warning: card    / ignored

     Current dimensions of program PWSCF are:
     Max number of different atomic species (ntypx) = 10
     Max number of k-points (npk) =  40000
     Max angular momentum in pseudopotentials (lmaxx) =  3

     bravais-lattice index     =            0
     lattice parameter (alat)  =      12.2378  a.u.
     unit-cell volume          =    8434.7549 (a.u.)^3
     number of atoms/cell      =           36
     number of atomic types    =            2
     number of electrons       =       216.00
     number of Kohn-Sham states=          130
     kinetic-energy cutoff     =      45.0000  Ry
     charge density cutoff     =     360.0000  Ry
     convergence threshold     =      1.0E-06
     mixing beta               =       0.7000
     number of iterations used =            8  local-TF  mixing
     Exchange-correlation      = SLA PW GGX GGC ( 1  4  2  2 0 0)

     celldm(1)=  12.237788  celldm(2)=   0.000000  celldm(3)=   0.000000
     celldm(4)=   0.000000  celldm(5)=   0.000000  celldm(6)=   0.000000

     crystal axes: (cart. coord. in units of alat)
               a(1) = (   1.000000   0.000000   0.000000 )
               a(2) = (  -0.494909   0.873288   0.000000 )
               a(3) = (  -0.457239   0.413134   5.269950 )

     reciprocal axes: (cart. coord. in units 2 pi/alat)
               b(1) = (  1.000000  0.566720  0.042336 )
               b(2) = (  0.000000  1.145098 -0.089769 )
               b(3) = (  0.000000  0.000000  0.189755 )

     PseudoPot. # 1 for Mo read from file:
     ~/pseudo/Mo.pw91-n-van.UPF
     MD5 check sum: Not computed, couldn't open file
     Pseudo is Ultrasoft + core correction, Zval =  6.0
     Generated by new atomic code, or converted to UPF format
     Using radial grid of  965 points,  3 beta functions with:
                l(1) =   1
                l(2) =   2
                l(3) =   2
     Q(r) pseudized with  8 coefficients,  rinner =    1.000   1.000   1.000
                                                       1.200   1.200

     PseudoPot. # 2 for S  read from file:
     ~/pseudo/S.pw91-van_ak.UPF
     MD5 check sum: Not computed, couldn't open file
     Pseudo is Ultrasoft, Zval =  6.0
     Generated by new atomic code, or converted to UPF format
     Using radial grid of  811 points,  6 beta functions with:
                l(1) =   0
                l(2) =   0
                l(3) =   1
                l(4) =   1
                l(5) =   2
                l(6) =   2
     Q(r) pseudized with  8 coefficients,  rinner =    1.100   1.100   1.100
                                                       1.100   1.100

     atomic species   valence    mass     pseudopotential
        Mo             6.00    95.50000     Mo( 1.00)
        S              6.00    32.06500     S ( 1.00)

     No symmetry found

   Cartesian axes

     site n.     atom                  positions (alat units)
         1           Mo  tau(   1) = (   0.4608564   0.4121820   0.3419021  )
         2           Mo  tau(   2) = (  -0.3292273   0.7895020   0.3352519  )
         3           Mo  tau(   3) = (   0.1955299   0.7512840   0.3387808  )
         4           Mo  tau(   4) = (  -0.0206006   0.3614081   0.3437492  )
         5           Mo  tau(   5) = (  -0.0175067   1.0993076   3.2587545  )
         6           Mo  tau(   6) = (  -0.2806081   0.6618807   3.2511561  )
         7           Mo  tau(   7) = (   0.2304306   0.6553339   3.2480316  )
         8           Mo  tau(   8) = (  -0.5301826   1.0928482   3.2629181  )
         9           Mo  tau(   9) = (   0.3148160   0.5088668   1.6654299  )
        10           Mo  tau(  10) = (   0.0594717   0.0909899   1.6962250  )
        11           Mo  tau(  11) = (   0.5567241   0.0852204   1.6879261  )
        12           Mo  tau(  12) = (  -0.1928352   0.5052580   1.6629439  )
        13           S   tau(  13) = (  -0.0519485   0.9545374   0.5469359  )
        14           S   tau(  14) = (  -0.2820920   0.5090296   0.5866643  )
        15           S   tau(  15) = (   0.2049463   0.5037203   0.6160199  )
        16           S   tau(  16) = (  -0.5728301   0.9461483   0.5869597  )
        17           S   tau(  17) = (   0.4801617   0.5110592   3.5009619  )
        18           S   tau(  18) = (  -0.2665370   0.9552773   3.4994863  )
        19           S   tau(  19) = (   0.2268302   0.9323712   3.5039089  )
        20           S   tau(  20) = (  -0.0261065   0.5152017   3.4905054  )
        21           S   tau(  21) = (   0.8096923  -0.0737724   1.9199696  )
        22           S   tau(  22) = (   0.0678047   0.3861969   1.9232804  )
        23           S   tau(  23) = (   0.5617729   0.3734524   1.9174281  )
        24           S   tau(  24) = (   0.3153529  -0.0825058   1.9226383  )
        25           S   tau(  25) = (   0.2439418   0.6152101   5.3995243  )
        26           S   tau(  26) = (  -0.5213105   1.0613556   5.3630696  )
        27           S   tau(  27) = (  -0.0118024   1.0663877   5.3340177  )
        28           S   tau(  28) = (  -0.2312218   0.6240243   5.3673046  )
        29           S   tau(  29) = (   0.4786551   0.5135190   3.0004503  )
        30           S   tau(  30) = (  -0.2779095   0.9706307   3.0199328  )
        31           S   tau(  31) = (   0.2243976   0.9533893   3.0102997  )
        32           S   tau(  32) = (  -0.0360278   0.5099288   3.0117648  )
        33           S   tau(  33) = (   0.8118014  -0.0496582   1.4510538  )
        34           S   tau(  34) = (   0.0618347   0.3657152   1.4203350  )
        35           S   tau(  35) = (   0.5562695   0.3577137   1.4167400  )
        36           S   tau(  36) = (   0.2975375  -0.0570003   1.4472913  )

     number of k points=     5  Marzari-Vanderbilt smearing, width (Ry)=  0.0200
                       cart. coord. in units 2pi/alat
        k(    1) = (   0.0000000   0.0000000   0.0000000), wk =   0.2222222
        k(    2) = (   0.0000000   0.3816994  -0.0299231), wk =   0.4444444
        k(    3) = (   0.3333333   0.1889066   0.0141119), wk =   0.4444444
        k(    4) = (   0.3333333   0.5706060  -0.0158111), wk =   0.4444444
        k(    5) = (   0.3333333  -0.1927929   0.0440350), wk =   0.4444444

     Initial potential from superposition of free atoms

     starting charge  215.98107, renormalised to  216.00000

     negative rho (up, down):  5.050E-04 0.000E+00
     Starting wfcs are  204 randomized atomic wfcs

     Self-consistent Calculation

[...]

     total energy              =    -845.24826561 Ry
     Harris-Foulkes estimate   =    -845.24826601 Ry
     estimated scf accuracy    <       0.00000141 Ry

     iteration # 18     ecut=    45.00 Ry     beta= 0.70
     Davidson diagonalization with overlap
     ethr =  6.54E-10,  avg # of iterations =  3.0

[...]

     End of self-consistent calculation

[...]

          k = 0.3333-0.1928 0.0440 ( 43025 PWs)   bands (ev):

   -12.2382 -12.1738 -12.1465 -11.4436 -11.4394 -11.3382 -11.2740 -11.2724
   -11.1683 -11.0375 -11.0289 -10.9421 -10.9245 -10.9197 -10.8579 -10.8047
   -10.7777 -10.7431 -10.7100 -10.6291 -10.5999 -10.5409 -10.4856 -10.4777
    -3.9415  -3.8145  -3.7970  -3.7238  -3.7224  -3.6849  -3.6582  -3.6463
    -3.6386  -3.5930  -3.5592  -3.4903  -3.3390  -3.2913  -3.2761  -3.2561
    -3.2404  -3.1703  -2.9840  -2.7134  -2.6061  -2.5193  -2.4842  -2.4494
    -2.4283  -2.4243  -2.3714  -2.3335  -2.2860  -2.2325  -2.0881  -2.0400
    -2.0085  -1.9732  -1.8799  -1.8009  -1.7530  -1.7072  -1.5992  -1.5274
    -1.4970  -1.4533  -1.4332  -1.3948  -1.3240  -1.2439  -1.1362  -1.0627
    -1.0479  -0.9243  -0.8772  -0.8708  -0.8605  -0.7783  -0.7675  -0.7028
    -0.6371  -0.5472  -0.4779  -0.3676  -0.3631  -0.3264  -0.2946  -0.1348
    -0.1057  -0.0967  -0.0421  -0.0185   0.2962   0.3293   0.3575   0.3676
     0.4230   0.4778   0.4880   0.7993   0.8385   0.8502   0.8893   0.9379
     1.0037   1.0909   1.1254   1.3922   1.7960   2.2168   2.6037   2.8362
     3.0535   3.0561   3.1434   3.1925   3.2508   3.3067   3.3836   3.4116
     3.5008   3.5242   3.5609   3.5768   3.5887   3.6934   3.7305   3.7680
     3.7993   3.8403

     the Fermi energy is     1.4823 ev

!    total energy              =    -845.24826700 Ry
     Harris-Foulkes estimate   =    -845.24826578 Ry
     estimated scf accuracy    <       0.00000067 Ry

     The total energy is the sum of the following terms:

     one-electron contribution =   -2890.10263643 Ry
     hartree contribution      =    1528.77341339 Ry
     xc contribution           =    -333.50762515 Ry
     ewald contribution        =     849.57583798 Ry
     smearing contrib. (-TS)   =       0.01274322 Ry

     convergence has been achieved in  18 iterations

     negative rho (up, down):  7.136E-04 0.000E+00

     Forces acting on atoms (cartesian axes, Ry/au):

     atom    1 type  1   force =    -0.03718947   -0.02606421    0.03499105
     atom    2 type  1   force =     0.00469954   -0.02346751    0.02350267
     atom    3 type  1   force =     0.02803241   -0.00417920   -0.02902465
     atom    4 type  1   force =     0.00751806    0.04204654   -0.02466055
     atom    5 type  1   force =    -0.00477894   -0.00705942   -0.01166123
     atom    6 type  1   force =     0.02116403    0.01835091    0.00763636
     atom    7 type  1   force =    -0.02470574   -0.00464576    0.00444438
     atom    8 type  1   force =     0.01523430    0.01641771   -0.01276694
     atom    9 type  1   force =    -0.00902606    0.04018866    0.01677616
     atom   10 type  1   force =     0.01131390   -0.03047382   -0.03550901
     atom   11 type  1   force =    -0.00123607   -0.03378152   -0.03330738
     atom   12 type  1   force =     0.01995885    0.03706556    0.02966462
     atom   13 type  2   force =     0.00114239   -0.00212528    0.01181405
     atom   14 type  2   force =    -0.01772971    0.01459243    0.01101674
     atom   15 type  2   force =     0.00920973   -0.01935170   -0.02025789
     atom   16 type  2   force =     0.02841431   -0.01650957   -0.02598136
     atom   17 type  2   force =    -0.00805609    0.01227718   -0.01614151
     atom   18 type  2   force =    -0.01675126   -0.01173807   -0.00408501
     atom   19 type  2   force =    -0.00284002    0.02046415   -0.01532464
     atom   20 type  2   force =    -0.00328245    0.00433833    0.00632068
     atom   21 type  2   force =    -0.00287776    0.00389549    0.00835515
     atom   22 type  2   force =    -0.01518939   -0.01101701   -0.01777852
     atom   23 type  2   force =    -0.00149777    0.00396762   -0.00149322
     atom   24 type  2   force =    -0.01977796    0.01496487   -0.00544513
     atom   25 type  2   force =    -0.00097440    0.01047576   -0.00921463
     atom   26 type  2   force =     0.01669917   -0.01408478   -0.00313941
     atom   27 type  2   force =    -0.00988826    0.02254139    0.00877968
     atom   28 type  2   force =    -0.03020305    0.01549908    0.02283361
     atom   29 type  2   force =    -0.00449026   -0.00273664    0.02557544
     atom   30 type  2   force =     0.00695380   -0.03433892   -0.00577838
     atom   31 type  2   force =     0.00521394   -0.01295559    0.01301970
     atom   32 type  2   force =     0.01677017    0.00200205    0.00942618
     atom   33 type  2   force =    -0.00089134   -0.02110466   -0.01697844
     atom   34 type  2   force =    -0.00074636   -0.00096126    0.03234276
     atom   35 type  2   force =     0.00578015    0.00804777    0.02767586
     atom   36 type  2   force =     0.01402761   -0.01054059   -0.00562717

     Total force =     0.187756     Total SCF correction =     0.001492

     General routines

     Parallel routines

   This run was terminated on:  10:49: 7  14Oct2021

   JOB DONE.