     Program PWSCF v.6.4 starts on 18Oct2021 at 17:24:30

     R & G space division:  proc/nbgrp/npool/nimage =      40
     Waiting for input...
     Reading input from standard input
Warning: card    &IONS ignored
Warning: card      ION_DYNAMICS = 'BFGS' ignored
Warning: card   / ignored
Warning: card    &CELL ignored
Warning: card      CELL_DYNAMICS = 'BFGS', ignored
Warning: card    / ignored

     Current dimensions of program PWSCF are:
     Max number of different atomic species (ntypx) = 10
     Max number of k-points (npk) =  40000
     Max angular momentum in pseudopotentials (lmaxx) =  3

     bravais-lattice index     =            0
     lattice parameter (alat)  =      12.1418  a.u.
     unit-cell volume          =    8507.2980 (a.u.)^3
     number of atoms/cell      =           36
     number of atomic types    =            2
     number of electrons       =       216.00
     number of Kohn-Sham states=          130
     kinetic-energy cutoff     =      45.0000  Ry
     charge density cutoff     =     360.0000  Ry
     convergence threshold     =      1.0E-06
     mixing beta               =       0.7000
     number of iterations used =            8  local-TF  mixing
     Exchange-correlation      = SLA PW GGX GGC ( 1  4  2  2 0 0)

     celldm(1)=  12.141812  celldm(2)=   0.000000  celldm(3)=   0.000000
     celldm(4)=   0.000000  celldm(5)=   0.000000  celldm(6)=   0.000000

     crystal axes: (cart. coord. in units of alat)
               a(1) = (   0.999286  -0.035060   0.014060 )
               a(2) = (   0.526620   0.847007   0.015147 )
               a(3) = (   0.014668  -0.366127   5.492248 )

     reciprocal axes: (cart. coord. in units 2 pi/alat)
               b(1) = (  0.979972 -0.608517 -0.043182 )
               b(2) = (  0.039432  1.154736  0.076872 )
               b(3) = ( -0.002617 -0.001627  0.181973 )

     PseudoPot. # 1 for Mo read from file:
     ~/pseudo/Mo.pw91-n-van.UPF
     MD5 check sum: Not computed, couldn't open file
     Pseudo is Ultrasoft + core correction, Zval =  6.0
     Generated by new atomic code, or converted to UPF format
     Using radial grid of  965 points,  3 beta functions with:
                l(1) =   1
                l(2) =   2
                l(3) =   2
     Q(r) pseudized with  8 coefficients,  rinner =    1.000   1.000   1.000
                                                       1.200   1.200

     PseudoPot. # 2 for S  read from file:
     ~/pseudo/S.pw91-van_ak.UPF
     MD5 check sum: Not computed, couldn't open file
     Pseudo is Ultrasoft, Zval =  6.0
     Generated by new atomic code, or converted to UPF format
     Using radial grid of  811 points,  6 beta functions with:
                l(1) =   0
                l(2) =   0
                l(3) =   1
                l(4) =   1
                l(5) =   2
                l(6) =   2
     Q(r) pseudized with  8 coefficients,  rinner =    1.100   1.100   1.100
                                                       1.100   1.100

     atomic species   valence    mass     pseudopotential
        Mo             6.00    95.50000     Mo( 1.00)
        S              6.00    32.06500     S ( 1.00)

     No symmetry found

   Cartesian axes

     site n.     atom                  positions (alat units)
         1           Mo  tau(   1) = (   0.2416381  -0.0047031   0.1591212  )
         2           Mo  tau(   2) = (   0.3837812  -0.0661352   5.3038137  )
         3           Mo  tau(   3) = (   1.0415448   0.3342020   0.1602129  )
         4           Mo  tau(   4) = (   1.1762267   0.3611549   5.3457126  )
         5           Mo  tau(   5) = (   0.5673549   0.2799491   1.2860424  )
         6           Mo  tau(   6) = (   0.8190606   0.7094124   1.2900676  )
         7           Mo  tau(   7) = (   1.2900975   0.7259420   1.3010658  )
         8           Mo  tau(   8) = (   1.0130462   0.2816057   1.2922888  )
         9           Mo  tau(   9) = (   0.2781831   0.1001052   4.2525640  )
        10           Mo  tau(  10) = (   0.6171851   0.5636633   4.2464989  )
        11           Mo  tau(  11) = (   1.0411655   0.5061235   4.2671665  )
        12           Mo  tau(  12) = (   0.8533687   0.1226252   4.2460220  )
        13           S   tau(  13) = (   0.8128397   0.4314861   5.2716639  )
        14           S   tau(  14) = (   1.3092930   0.4016657   5.0480679  )
        15           S   tau(  15) = (   1.0358080   0.0125554   5.2660424  )
        16           S   tau(  16) = (   0.5530405   0.0224282   5.0247310  )
        17           S   tau(  17) = (   1.0550217   0.5667186   1.0390413  )
        18           S   tau(  18) = (   0.7904560   0.1434632   1.0197563  )
        19           S   tau(  19) = (   0.2881702   0.1650263   1.0377480  )
        20           S   tau(  20) = (   0.5495789   0.5854560   1.0451875  )
        21           S   tau(  21) = (   0.8189789   0.3885286   3.9811046  )
        22           S   tau(  22) = (   0.5642945  -0.0304342   4.0256570  )
        23           S   tau(  23) = (   1.0551255  -0.0524232   3.9806896  )
        24           S   tau(  24) = (   1.3276256   0.3754821   4.0404657  )
        25           S   tau(  25) = (   0.7218836   0.7547264   0.5039234  )
        26           S   tau(  26) = (   0.8799979   0.0170185   0.0991703  )
        27           S   tau(  27) = (   0.9160505   0.4053835   0.4675822  )
        28           S   tau(  28) = (   0.4146000   0.3273741   0.1879370  )
        29           S   tau(  29) = (   0.7913464   0.4323911   1.5516191  )
        30           S   tau(  30) = (   0.5269842   0.0071400   1.5437362  )
        31           S   tau(  31) = (   1.0313694  -0.0119133   1.5367656  )
        32           S   tau(  32) = (   1.2941615   0.4114287   1.5354470  )
        33           S   tau(  33) = (   0.5677454   0.2535581   4.4731746  )
        34           S   tau(  34) = (   0.3135516  -0.1651085   4.5170962  )
        35           S   tau(  35) = (   0.8036879  -0.1873697   4.4723686  )
        36           S   tau(  36) = (   1.0763893   0.2411446   4.5314189  )

     number of k points=     5  Marzari-Vanderbilt smearing, width (Ry)=  0.0200
                       cart. coord. in units 2pi/alat
        k(    1) = (   0.0000000   0.0000000   0.0000000), wk =   0.2222222
        k(    2) = (   0.0131441   0.3849119   0.0256241), wk =   0.4444444
        k(    3) = (   0.3266573  -0.2028391  -0.0143942), wk =   0.4444444
        k(    4) = (   0.3398014   0.1820728   0.0112299), wk =   0.4444444
        k(    5) = (   0.3135133  -0.5877510  -0.0400182), wk =   0.4444444

     Initial potential from superposition of free atoms

     starting charge  215.98107, renormalised to  216.00000

     negative rho (up, down):  9.076E-04 0.000E+00
     Starting wfcs are  204 randomized atomic wfcs

     Self-consistent Calculation

     iteration #  1     ecut=    45.00 Ry     beta= 0.70
     Davidson diagonalization with overlap
     ethr =  1.00E-02,  avg # of iterations =  2.0

     negative rho (up, down):  2.064E-04 0.000E+00

     total energy              =    -842.85616331 Ry
     Harris-Foulkes estimate   =    -845.87347818 Ry
     estimated scf accuracy    <      10.75906692 Ry

[...]

     total energy              =    -844.48900652 Ry
     Harris-Foulkes estimate   =    -844.48900431 Ry
     estimated scf accuracy    <       0.00000175 Ry

     iteration # 19     ecut=    45.00 Ry     beta= 0.70
     Davidson diagonalization with overlap
     ethr =  8.12E-10,  avg # of iterations =  2.8

[...]

     End of self-consistent calculation

          k = 0.0000 0.0000 0.0000 ( 43289 PWs)   bands (ev):

   -12.5848 -12.5292 -12.0948 -11.6450 -11.5612 -11.4576 -11.2436 -11.2134
   -11.1060 -11.0976 -11.0261 -11.0065 -10.9641 -10.9531 -10.8230 -10.7875
   -10.5110 -10.4569 -10.4218 -10.3411 -10.3241 -10.3009 -10.0519  -9.8659
    -4.6061  -4.5577  -4.5408  -4.4819  -4.4800  -4.4628  -4.0593  -3.9410
    -3.8915  -3.3209  -3.2901  -3.1230  -3.1156  -3.0987  -3.0951  -3.0519
    -3.0447  -3.0249  -3.0128  -2.9334  -2.9014  -2.7423  -2.6025  -2.5870
    -2.4654  -2.3771  -2.3560  -2.3421  -2.1882  -2.1244  -1.9908  -1.9250
    -1.8712  -1.7850  -1.7536  -1.6915  -1.6663  -1.6585  -1.6037  -1.4880
    -1.4755  -1.3585  -1.3315  -1.2929  -1.2557  -1.0989  -1.0005  -0.9328
    -0.9001  -0.8317  -0.8219  -0.7545  -0.7485  -0.6995  -0.6543  -0.6021
    -0.5214  -0.4711  -0.3911  -0.3351  -0.1322  -0.1151  -0.1064  -0.0500
    -0.0159   0.1046   0.2510   0.4157   0.4739   0.4804   0.5180   0.6045
     0.6141   0.6312   0.7200   0.9743   1.0243   1.2801   1.2844   1.3023
     1.3094   1.4525   1.4655   1.6580   1.8304   1.8637   1.9326   1.9734
     2.2409   2.3019   2.5266   2.5953   2.9179   3.0432   3.1426   3.1759
     3.1943   3.1987   3.2263   3.3643   3.3925   3.4314   3.4832   3.5958
     3.8714   3.8826

[...]

          k = 0.3135-0.5878-0.0400 ( 43442 PWs)   bands (ev):

   -11.6775 -11.6331 -11.5671 -11.5527 -11.5113 -11.5029 -11.4853 -11.4744
   -11.4134 -11.2800 -11.2474 -11.1854 -11.1568 -11.1464 -11.0175 -11.0073
   -10.8314 -10.7704 -10.5426 -10.5105 -10.4446 -10.3452 -10.1973  -9.9509
    -3.6464  -3.6169  -3.5808  -3.5476  -3.4956  -3.4408  -3.4253  -3.3899
    -3.3566  -3.2553  -3.2178  -3.1394  -3.1272  -2.9932  -2.8992  -2.8683
    -2.8283  -2.8076  -2.7825  -2.7378  -2.7208  -2.6033  -2.5309  -2.5141
    -2.4773  -2.4215  -2.3883  -2.3740  -2.3407  -2.3202  -2.2493  -2.1324
    -2.0915  -2.0447  -1.9263  -1.8966  -1.8227  -1.7515  -1.7253  -1.7083
    -1.7000  -1.6175  -1.5863  -1.4961  -1.4658  -1.4437  -1.3035  -1.2961
    -1.1843  -1.1692  -1.1513  -1.0627  -1.0074  -0.9639  -0.9369  -0.8806
    -0.6984  -0.6333  -0.5997  -0.5428  -0.5022  -0.3106  -0.2930  -0.2247
    -0.1599  -0.0278   0.0265   0.0750   0.1506   0.2501   0.3412   0.5712
     0.6341   0.7183   0.7951   0.8166   0.8485   0.9145   1.0073   1.1074
     1.1785   1.2830   1.4413   1.4881   1.7644   1.8217   1.8931   1.9889
     2.0545   2.3223   2.3965   2.5221   2.5655   2.6379   2.6913   2.8487
     2.8809   3.1134   3.1359   3.2035   3.2826   3.3087   3.5692   3.5886
     3.6500   3.7146

     the Fermi energy is     1.6235 ev

!    total energy              =    -844.48900509 Ry
     Harris-Foulkes estimate   =    -844.48900665 Ry
     estimated scf accuracy    <       0.00000068 Ry

     The total energy is the sum of the following terms:

     one-electron contribution =   -5819.05692469 Ry
     hartree contribution      =    2993.24495056 Ry
     xc contribution           =    -333.25581248 Ry
     ewald contribution        =    2314.57139290 Ry
     smearing contrib. (-TS)   =       0.00738863 Ry

     convergence has been achieved in  19 iterations

     negative rho (up, down):  1.240E-03 0.000E+00

     Forces acting on atoms (cartesian axes, Ry/au):

     atom    1 type  1   force =     0.01453545   -0.01127583   -0.00550331
     atom    2 type  1   force =    -0.00231132   -0.00208189    0.01013857
     atom    3 type  1   force =     0.03010595    0.02924713   -0.05423857
     atom    4 type  1   force =    -0.03614325   -0.01900831    0.02541351
     atom    5 type  1   force =     0.00199238    0.00104268    0.00913758
     atom    6 type  1   force =     0.00513170   -0.00222074    0.00201654
     atom    7 type  1   force =    -0.00228435    0.00212317   -0.00597177
     atom    8 type  1   force =    -0.00506423   -0.00061062   -0.00689848
     atom    9 type  1   force =     0.01024406    0.00538487    0.00507920
     atom   10 type  1   force =    -0.00862024   -0.00439870   -0.00489473
     atom   11 type  1   force =     0.00918317    0.00601088    0.00400591
     atom   12 type  1   force =    -0.00867801   -0.00479374   -0.00500337
     atom   13 type  2   force =    -0.00131445    0.00356009    0.00833036
     atom   14 type  2   force =     0.02379476    0.01232246   -0.02694845
     atom   15 type  2   force =     0.00969319    0.00776821    0.01600690
     atom   16 type  2   force =     0.00697619    0.00123309    0.00150317
     atom   17 type  2   force =     0.00682987   -0.00064991    0.00142290
     atom   18 type  2   force =     0.00614176    0.00007739   -0.01072281
     atom   19 type  2   force =     0.00455664    0.00165560    0.01880883
     atom   20 type  2   force =     0.00200444   -0.00211051    0.01910409
     atom   21 type  2   force =     0.00555939    0.00297318    0.00270456
     atom   22 type  2   force =     0.00133761    0.00050487    0.00782780
     atom   23 type  2   force =     0.00602160    0.00282114    0.00226641
     atom   24 type  2   force =     0.00056574    0.00052135    0.00779591
     atom   25 type  2   force =     0.01355589   -0.00937240    0.00100263
     atom   26 type  2   force =    -0.01138075   -0.02340720    0.00059677
     atom   27 type  2   force =    -0.01500394    0.02943807    0.02095834
     atom   28 type  2   force =    -0.03243289   -0.01794020    0.00357087
     atom   29 type  2   force =    -0.00575720    0.00083952    0.00487762
     atom   30 type  2   force =    -0.00701328   -0.00063024    0.00467403
     atom   31 type  2   force =    -0.00574249    0.00156399   -0.01130583
     atom   32 type  2   force =    -0.00093559   -0.00098123   -0.02370140
     atom   33 type  2   force =    -0.00127131   -0.00021271   -0.00974088
     atom   34 type  2   force =    -0.00729682   -0.00400243   -0.00229115
     atom   35 type  2   force =    -0.00042066   -0.00059284   -0.00883896
     atom   36 type  2   force =    -0.00655901   -0.00479820   -0.00118279

     Total force =     0.128390     Total SCF correction =     0.001639

     General routines

     Parallel routines

   This run was terminated on:  17:27: 1  18Oct2021

   JOB DONE.