     Program PWSCF v.6.4 starts on 24Dec2021 at  0: 9: 9

     R & G space division:  proc/nbgrp/npool/nimage =      40
     Waiting for input...
     Reading input from standard input
Warning: card    &IONS ignored
Warning: card      ION_DYNAMICS = 'BFGS' ignored
Warning: card   / ignored
Warning: card    &CELL ignored
Warning: card      CELL_DYNAMICS = 'BFGS', ignored
Warning: card    / ignored

     Current dimensions of program PWSCF are:
     Max number of different atomic species (ntypx) = 10
     Max number of k-points (npk) =  40000
     Max angular momentum in pseudopotentials (lmaxx) =  3

     bravais-lattice index     =            0
     lattice parameter (alat)  =      16.2025  a.u.
     unit-cell volume          =    5509.4480 (a.u.)^3
     number of atoms/cell      =           30
     number of atomic types    =            2
     number of electrons       =       180.00
     number of Kohn-Sham states=          108
     kinetic-energy cutoff     =      45.0000  Ry
     charge density cutoff     =     360.0000  Ry
     convergence threshold     =      1.0E-06
     mixing beta               =       0.7000
     number of iterations used =            8  local-TF  mixing
     Exchange-correlation      = SLA PW GGX GGC ( 1  4  2  2 0 0)

     celldm(1)=  16.202495  celldm(2)=   0.000000  celldm(3)=   0.000000
     celldm(4)=   0.000000  celldm(5)=   0.000000  celldm(6)=   0.000000

     crystal axes: (cart. coord. in units of alat)
               a(1) = (   1.000000   0.000000   0.000000 )
               a(2) = (  -0.073933   1.025105   0.000000 )
               a(3) = (  -0.445576  -0.266487   1.263555 )

     reciprocal axes: (cart. coord. in units 2 pi/alat)
               b(1) = (  1.000000  0.072123  0.367848 )
               b(2) = (  0.000000  0.975510  0.205738 )
               b(3) = (  0.000000  0.000000  0.791418 )

     PseudoPot. # 1 for Mo read from file:
     ~/pseudo/Mo.pw91-n-van.UPF
     MD5 check sum: Not computed, couldn't open file
     Pseudo is Ultrasoft + core correction, Zval =  6.0
     Generated by new atomic code, or converted to UPF format
     Using radial grid of  965 points,  3 beta functions with:
                l(1) =   1
                l(2) =   2
                l(3) =   2
     Q(r) pseudized with  8 coefficients,  rinner =    1.000   1.000   1.000
                                                       1.200   1.200

     PseudoPot. # 2 for S  read from file:
     ~/pseudo/S.pw91-van_ak.UPF
     MD5 check sum: Not computed, couldn't open file
     Pseudo is Ultrasoft, Zval =  6.0
     Generated by new atomic code, or converted to UPF format
     Using radial grid of  811 points,  6 beta functions with:
                l(1) =   0
                l(2) =   0
                l(3) =   1
                l(4) =   1
                l(5) =   2
                l(6) =   2
     Q(r) pseudized with  8 coefficients,  rinner =    1.100   1.100   1.100
                                                       1.100   1.100

     atomic species   valence    mass     pseudopotential
        Mo             6.00    95.50000     Mo( 1.00)
        S              6.00    32.06500     S ( 1.00)

     No symmetry found

   Cartesian axes

     site n.     atom                  positions (alat units)
         1           Mo  tau(   1) = (   0.2994608  -0.1454299   0.9042364  )
         2           Mo  tau(   2) = (  -0.2433509   0.4892252   0.8965594  )
         3           Mo  tau(   3) = (   0.6063135   0.4128977   0.3737846  )
         4           Mo  tau(   4) = (   0.0617966   0.0637301   0.3009984  )
         5           Mo  tau(   5) = (   0.8445584   0.2679814   0.1842260  )
         6           Mo  tau(   6) = (   0.1053399   0.5639299   0.8927022  )
         7           Mo  tau(   7) = (   0.0030452   0.2503486   0.8181065  )
         8           Mo  tau(   8) = (  -0.2149963  -0.0139535   0.8353206  )
         9           Mo  tau(   9) = (   0.4259409   0.5960046   0.8881068  )
        10           Mo  tau(  10) = (  -0.1912767   0.1588509   0.4938167  )
        11           S   tau(  11) = (   0.2745416   0.3582406   0.8177596  )
        12           S   tau(  12) = (   0.2567890   0.7282078   0.6820672  )
        13           S   tau(  13) = (  -0.0955885   0.6563210   0.7296363  )
        14           S   tau(  14) = (   0.5793703   0.5381571   0.6435208  )
        15           S   tau(  15) = (  -0.2736012   0.2494065   0.7575652  )
        16           S   tau(  16) = (   0.5164359   0.1738143   0.4621992  )
        17           S   tau(  17) = (  -0.1246013   0.4328390   0.4002056  )
        18           S   tau(  18) = (   0.0906887   0.1681102   0.5513719  )
        19           S   tau(  19) = (   0.7777634  -0.1126054   0.5901278  )
        20           S   tau(  20) = (   0.5129458   0.0231872   0.9229026  )
        21           S   tau(  21) = (  -0.3411594   0.7664784   0.9735435  )
        22           S   tau(  22) = (   0.8002401   0.0022535   0.2444269  )
        23           S   tau(  23) = (   0.5949453   0.3541424   0.0978632  )
        24           S   tau(  24) = (   0.4646231   0.6547119   0.3098464  )
        25           S   tau(  25) = (   0.1122562   0.2505892   0.1086438  )
        26           S   tau(  26) = (   0.1119435   0.8446570   0.2716569  )
        27           S   tau(  27) = (  -0.0400181   0.3923517   1.0642041  )
        28           S   tau(  28) = (   0.2437822   0.6968159   1.0999272  )
        29           S   tau(  29) = (   0.5567816   0.4429401   1.0979908  )
        30           S   tau(  30) = (   0.0534129  -0.0081205   0.9103305  )

     number of k points=     8  Marzari-Vanderbilt smearing, width (Ry)=  0.0200
                       cart. coord. in units 2pi/alat
        k(    1) = (   0.0000000   0.0000000   0.0000000), wk =   0.2500000
        k(    2) = (   0.0000000   0.0000000  -0.3957089), wk =   0.2500000
        k(    3) = (   0.0000000  -0.4877550  -0.1028689), wk =   0.2500000
        k(    4) = (   0.0000000  -0.4877550  -0.4985778), wk =   0.2500000
        k(    5) = (  -0.5000000  -0.0360614  -0.1839240), wk =   0.2500000
        k(    6) = (  -0.5000000  -0.0360614  -0.5796329), wk =   0.2500000
        k(    7) = (  -0.5000000  -0.5238164  -0.2867929), wk =   0.2500000
        k(    8) = (  -0.5000000  -0.5238164  -0.6825018), wk =   0.2500000

     Initial potential from superposition of free atoms

     starting charge  179.98423, renormalised to  180.00000
     Starting wfcs are  170 randomized atomic wfcs

     Self-consistent Calculation

     iteration #  1     ecut=    45.00 Ry     beta= 0.70
     Davidson diagonalization with overlap
     ethr =  1.00E-02,  avg # of iterations =  2.0

     total energy              =    -701.73883733 Ry
     Harris-Foulkes estimate   =    -704.66962401 Ry
     estimated scf accuracy    <       8.30618360 Ry

[...]

     iteration #  8     ecut=    45.00 Ry     beta= 0.70
     Davidson diagonalization with overlap
     c_bands:  1 eigenvalues not converged
     ethr =  8.15E-06,  avg # of iterations =  8.0

[...]

     total energy              =    -703.32986260 Ry
     Harris-Foulkes estimate   =    -703.32986272 Ry
     estimated scf accuracy    <       0.00000127 Ry

     iteration # 16     ecut=    45.00 Ry     beta= 0.70
     Davidson diagonalization with overlap
     ethr =  7.06E-10,  avg # of iterations =  1.2

     End of self-consistent calculation

          k = 0.0000 0.0000 0.0000 ( 28067 PWs)   bands (ev):

   -10.4159  -9.7221  -9.6221  -9.4265  -9.3565  -9.2310  -9.2158  -8.9630
    -8.9375  -8.8920  -8.7648  -8.6824  -8.6164  -8.5071  -8.3550  -8.2728
    -8.1566  -7.9547  -7.3619  -7.1298  -2.2060  -1.9622  -1.9082  -1.6133
    -1.5078  -1.2819  -1.1880  -1.1490  -1.0681  -1.0020  -0.9220  -0.8950
    -0.8050  -0.7166  -0.6318  -0.5666  -0.5067  -0.4562  -0.3999  -0.3495
    -0.3054  -0.2415  -0.1847  -0.1397  -0.0074   0.0640   0.1009   0.1355
     0.1982   0.3415   0.3916   0.4791   0.5496   0.6028   0.6761   0.7590
     0.8123   0.8695   0.9435   1.0615   1.1303   1.1774   1.2612   1.3751
     1.5163   1.5635   1.6370   1.6711   1.8285   1.8487   1.9215   2.0910
     2.1779   2.2471   2.3370   2.3544   2.4273   2.5302   2.6043   2.7547
     2.7609   2.9572   2.9841   3.0735   3.1877   3.3317   3.4749   3.5419
     3.6887   3.7971   3.8340   3.9073   4.0943   4.1077   4.2111   4.3191
     4.5382   4.6006   4.6447   4.7241   4.7700   4.9513   4.9624   4.9974
     5.1082   5.2411   5.3238   5.4436

[...]

          k = 0.0000-0.4878-0.4986 ( 28066 PWs)   bands (ev):

[...]

          k =-0.5000-0.0361-0.1839 ( 28074 PWs)   bands (ev):

[...]

          k =-0.5000-0.5238-0.6825 ( 28104 PWs)   bands (ev):

   -10.3238  -9.6587  -9.6028  -9.5504  -9.4289  -9.3103  -9.1709  -9.0854
    -8.9386  -8.8927  -8.7436  -8.6387  -8.5815  -8.5079  -8.3313  -8.2473
    -8.1733  -7.9198  -7.3657  -7.1274  -2.1106  -1.9401  -1.7424  -1.6131
    -1.4957  -1.3492  -1.2215  -1.1829  -1.1228  -1.0416  -0.9839  -0.9380
    -0.8169  -0.6641  -0.6568  -0.5468  -0.4485  -0.4200  -0.4040  -0.3191
    -0.2728  -0.2094  -0.1408  -0.0784  -0.0508   0.0686   0.1165   0.1889
     0.3126   0.3909   0.4783   0.5060   0.5133   0.6144   0.6737   0.7785
     0.8228   0.8767   0.9609   1.0240   1.0683   1.1547   1.2792   1.3311
     1.3443   1.4842   1.5038   1.5849   1.5976   1.7453   1.9445   1.9825
     2.1165   2.2479   2.2619   2.3439   2.4600   2.5622   2.6829   2.7547
     2.8708   2.9174   2.9636   3.1078   3.2106   3.3342   3.4564   3.4958
     3.7232   3.8546   3.9296   3.9796   4.0272   4.1012   4.2588   4.2889
     4.4310   4.5312   4.5853   4.7407   4.7662   4.8713   4.9852   5.0729
     5.1104   5.3140   5.3792   5.4959

     the Fermi energy is     3.8489 ev

!    total energy              =    -703.32986187 Ry
     Harris-Foulkes estimate   =    -703.32986268 Ry
     estimated scf accuracy    <       0.00000090 Ry

     The total energy is the sum of the following terms:

     one-electron contribution =    -256.79531504 Ry
     hartree contribution      =     212.25953737 Ry
     xc contribution           =    -276.69096103 Ry
     ewald contribution        =    -382.09271065 Ry
     smearing contrib. (-TS)   =      -0.01041252 Ry

     convergence has been achieved in  16 iterations

     Forces acting on atoms (cartesian axes, Ry/au):

     atom    1 type  1   force =     0.02152623    0.05607299   -0.02955110
     atom    2 type  1   force =    -0.03253436    0.01884602   -0.00704053
     atom    3 type  1   force =    -0.09465597    0.05117900   -0.03948343
     atom    4 type  1   force =     0.08948009   -0.10286887    0.02081441
     atom    5 type  1   force =    -0.03530796    0.03604760   -0.02532973
     atom    6 type  1   force =    -0.05542579   -0.00471538   -0.02809004
     atom    7 type  1   force =    -0.01431407   -0.01591795   -0.01305061
     atom    8 type  1   force =    -0.01869610   -0.01879425   -0.03081544
     atom    9 type  1   force =     0.05356587   -0.01944015   -0.02399221
     atom   10 type  1   force =    -0.00675259   -0.01588569   -0.02817623
     atom   11 type  2   force =    -0.00724278    0.01197455    0.00515797
     atom   12 type  2   force =     0.00402163    0.01218634    0.03783467
     atom   13 type  2   force =     0.03989096   -0.02698833    0.02727496
     atom   14 type  2   force =     0.00199020    0.02844172    0.05131084
     atom   15 type  2   force =     0.02209584   -0.00519285    0.00607699
     atom   16 type  2   force =     0.00903894    0.02866784   -0.00715843
     atom   17 type  2   force =     0.00959258   -0.01972971    0.01428269
     atom   18 type  2   force =     0.01205157   -0.00317241   -0.01411255
     atom   19 type  2   force =    -0.00603242    0.01356561    0.03422213
     atom   20 type  2   force =    -0.03087198   -0.02934302   -0.00127794
     atom   21 type  2   force =    -0.01204135   -0.01918774   -0.01321116
     atom   22 type  2   force =    -0.01381746    0.03091073    0.02824451
     atom   23 type  2   force =     0.03538491   -0.01507759    0.01730774
     atom   24 type  2   force =     0.04287396   -0.07538678    0.02819238
     atom   25 type  2   force =    -0.01273923   -0.00319085    0.00990275
     atom   26 type  2   force =    -0.05422168    0.09656687    0.00468640
     atom   27 type  2   force =     0.01346625   -0.00954299    0.01002055
     atom   28 type  2   force =     0.00011029   -0.01587147    0.00468834
     atom   29 type  2   force =     0.02151779    0.02249029   -0.05011237
     atom   30 type  2   force =     0.01804660   -0.00664355    0.01138443

     Total force =     0.310424     Total SCF correction =     0.001554

     General routines

     Parallel routines

   This run was terminated on:   0:11:22  24Dec2021

   JOB DONE.