     Program PWSCF v.6.4 starts on  3Dec2021 at 14: 8:30

     R & G space division:  proc/nbgrp/npool/nimage =      40
     Waiting for input...
     Reading input from standard input
Warning: card    &IONS ignored
Warning: card      ION_DYNAMICS = 'BFGS' ignored
Warning: card   / ignored
Warning: card    &CELL ignored
Warning: card      CELL_DYNAMICS = 'BFGS', ignored
Warning: card    / ignored

     Current dimensions of program PWSCF are:
     Max number of different atomic species (ntypx) = 10
     Max number of k-points (npk) =  40000
     Max angular momentum in pseudopotentials (lmaxx) =  3

     bravais-lattice index     =            0
     lattice parameter (alat)  =      11.9776  a.u.
     unit-cell volume          =    4567.3598 (a.u.)^3
     number of atoms/cell      =           30
     number of atomic types    =            2
     number of electrons       =       180.00
     number of Kohn-Sham states=          108
     kinetic-energy cutoff     =      45.0000  Ry
     charge density cutoff     =     360.0000  Ry
     convergence threshold     =      1.0E-06
     mixing beta               =       0.7000
     number of iterations used =            8  local-TF  mixing
     Exchange-correlation      = SLA PW GGX GGC ( 1  4  2  2 0 0)

     celldm(1)=  11.977584  celldm(2)=   0.000000  celldm(3)=   0.000000
     celldm(4)=   0.000000  celldm(5)=   0.000000  celldm(6)=   0.000000

     crystal axes: (cart. coord. in units of alat)
               a(1) = (   1.000000   0.000000   0.000000 )
               a(2) = (  -0.264374   1.312585   0.000000 )
               a(3) = (  -0.087427  -0.576151   2.025024 )

     reciprocal axes: (cart. coord. in units 2 pi/alat)
               b(1) = (  1.000000  0.201415  0.100479 )
               b(2) = (  0.000000  0.761855  0.216760 )
               b(3) = (  0.000000  0.000000  0.493821 )

     PseudoPot. # 1 for Mo read from file:
     ~/pseudo/Mo.pw91-n-van.UPF
     MD5 check sum: Not computed, couldn't open file
     Pseudo is Ultrasoft + core correction, Zval =  6.0
     Generated by new atomic code, or converted to UPF format
     Using radial grid of  965 points,  3 beta functions with:
                l(1) =   1
                l(2) =   2
                l(3) =   2
     Q(r) pseudized with  8 coefficients,  rinner =    1.000   1.000   1.000
                                                       1.200   1.200

     PseudoPot. # 2 for S  read from file:
     ~/pseudo/S.pw91-van_ak.UPF
     MD5 check sum: Not computed, couldn't open file
     Pseudo is Ultrasoft, Zval =  6.0
     Generated by new atomic code, or converted to UPF format
     Using radial grid of  811 points,  6 beta functions with:
                l(1) =   0
                l(2) =   0
                l(3) =   1
                l(4) =   1
                l(5) =   2
                l(6) =   2
     Q(r) pseudized with  8 coefficients,  rinner =    1.100   1.100   1.100
                                                       1.100   1.100

     atomic species   valence    mass     pseudopotential
        Mo             6.00    95.50000     Mo( 1.00)
        S              6.00    32.06500     S ( 1.00)

     No symmetry found

   Cartesian axes

     site n.     atom                  positions (alat units)
         1           Mo  tau(   1) = (   0.4953142  -0.1841309   1.3961969  )
         2           Mo  tau(   2) = (  -0.0147949   0.6909491   1.3967301  )
         3           Mo  tau(   3) = (   0.4861997   0.5290821   0.3688792  )
         4           Mo  tau(   4) = (   0.6122211   1.0038868   0.3378010  )
         5           Mo  tau(   5) = (   0.5684521   0.0462653   0.3861276  )
         6           Mo  tau(   6) = (   0.2393873   0.2536793   1.3948594  )
         7           Mo  tau(   7) = (   0.7403595   0.2541710   1.3957957  )
         8           Mo  tau(   8) = (   0.4856228   0.6908978   1.3955696  )
         9           Mo  tau(   9) = (  -0.0051321  -0.1857614   1.3967776  )
        10           Mo  tau(  10) = (   0.1812589   0.8892620   0.4233387  )
        11           S   tau(  11) = (   0.7449989  -0.0373101   1.1474373  )
        12           S   tau(  12) = (   0.2439207  -0.0391694   1.1462914  )
        13           S   tau(  13) = (  -0.0106715   0.4009743   1.1435048  )
        14           S   tau(  14) = (   0.2361719   0.8379108   1.6463839  )
        15           S   tau(  15) = (  -0.2647838   0.8360519   1.1459003  )
        16           S   tau(  16) = (   0.2403595   0.5918755   0.6329466  )
        17           S   tau(  17) = (   0.7043250   0.2882917   0.5906538  )
        18           S   tau(  18) = (   0.4889008   0.4000304   1.1441813  )
        19           S   tau(  19) = (   0.2346698   0.8378750   1.1465027  )
        20           S   tau(  20) = (   0.7445950  -0.0358296   1.6460395  )
        21           S   tau(  21) = (   0.5604755   1.2977828   0.1262998  )
        22           S   tau(  22) = (   0.2133671  -0.1260377   0.4834995  )
        23           S   tau(  23) = (   0.3573214   0.2796045   0.1580001  )
        24           S   tau(  24) = (  -0.1580594   0.7040518   0.2922406  )
        25           S   tau(  25) = (   0.4222570   1.0848496   0.6429434  )
        26           S   tau(  26) = (   0.3702305   0.8059480   0.1173897  )
        27           S   tau(  27) = (  -0.0103584   0.4006385   1.6463371  )
        28           S   tau(  28) = (   0.2446004  -0.0364277   1.6455141  )
        29           S   tau(  29) = (  -0.2661333   0.8361430   1.6489307  )
        30           S   tau(  30) = (   0.4888076   0.4006950   1.6445632  )

     number of k points=     8  Marzari-Vanderbilt smearing, width (Ry)=  0.0200
                       cart. coord. in units 2pi/alat
        k(    1) = (   0.0000000   0.0000000   0.0000000), wk =   0.1666667
        k(    2) = (   0.0000000   0.0000000  -0.2469107), wk =   0.1666667
        k(    3) = (   0.0000000  -0.3809277  -0.1083799), wk =   0.1666667
        k(    4) = (   0.0000000  -0.3809277  -0.3552905), wk =   0.1666667
        k(    5) = (   0.3333333   0.0671383   0.0334930), wk =   0.3333333
        k(    6) = (   0.3333333   0.0671383  -0.2134177), wk =   0.3333333
        k(    7) = (   0.3333333  -0.3137894  -0.0748869), wk =   0.3333333
        k(    8) = (   0.3333333  -0.3137894  -0.3217975), wk =   0.3333333

     Initial potential from superposition of free atoms

     starting charge  179.98423, renormalised to  180.00000
     Starting wfcs are  170 randomized atomic wfcs

     Self-consistent Calculation

     iteration #  1     ecut=    45.00 Ry     beta= 0.70
     Davidson diagonalization with overlap
     ethr =  1.00E-02,  avg # of iterations =  2.0

     total energy              =    -703.10557976 Ry
     Harris-Foulkes estimate   =    -705.35063844 Ry
     estimated scf accuracy    <       5.76935818 Ry

[...]

     iteration #  5     ecut=    45.00 Ry     beta= 0.70
     Davidson diagonalization with overlap
     c_bands:  4 eigenvalues not converged
     c_bands:  1 eigenvalues not converged
     ethr =  2.33E-05,  avg # of iterations = 10.1

[...]

     iteration # 12     ecut=    45.00 Ry     beta= 0.70
     Davidson diagonalization with overlap
     c_bands:  1 eigenvalues not converged
     ethr =  8.85E-08,  avg # of iterations = 10.1

[...]

     total energy              =    -704.22877229 Ry
     Harris-Foulkes estimate   =    -704.22877258 Ry
     estimated scf accuracy    <       0.00000119 Ry

     iteration # 16     ecut=    45.00 Ry     beta= 0.70
     Davidson diagonalization with overlap
     ethr =  6.61E-10,  avg # of iterations =  3.2

     End of self-consistent calculation

          k = 0.0000 0.0000 0.0000 ( 23251 PWs)   bands (ev):

    -8.8239  -7.7716  -7.6537  -7.5707  -7.5537  -7.1450  -7.0495  -7.0467
    -6.9935  -6.9908  -6.9879  -6.8259  -6.7917  -6.7708  -6.7254  -6.7200
    -6.6544  -6.6139  -6.5574  -6.5198  -0.4650  -0.3545  -0.0093   0.0089
     0.0859   0.0867   0.3806   0.3960   0.4048   0.4799   0.6038   0.8702
     0.9237   1.0504   1.0886   1.1468   1.2964   1.3289   1.4028   1.4346
     1.4893   1.5818   1.6077   1.6592   1.8531   1.9005   2.0209   2.0858
     2.1746   2.1981   2.2081   2.2831   2.3205   2.5537   2.5650   2.5779
     2.6578   2.7392   2.8086   2.9151   2.9249   2.9364   3.0462   3.1172
     3.2718   3.3623   3.4519   3.5007   3.5210   3.5841   3.6732   3.7668
     3.7942   3.8289   3.9264   4.0506   4.0591   4.1834   4.2210   4.2453
     4.2799   4.4295   4.5983   4.7690   4.8013   4.9008   4.9630   5.1620
     5.5635   5.7454   5.9334   6.0521   6.6201   6.9109   6.9374   7.1251
     7.3811   7.3910   7.4036   7.4246   7.4356   7.4898   7.5134   7.8294
     7.8816   7.8974   7.9800   7.9988

[...]

          k = 0.3333-0.3138-0.3218 ( 23308 PWs)   bands (ev):

    -8.2928  -8.0597  -7.6863  -7.5158  -7.3678  -7.3581  -7.3104  -7.2218
    -7.0783  -6.9536  -6.9153  -6.9081  -6.8412  -6.7712  -6.7209  -6.6822
    -6.6608  -6.6157  -6.5414  -6.4854  -0.0624  -0.0160   0.0098   0.1815
     0.2238   0.2738   0.3305   0.4907   0.6106   0.6954   0.8404   0.9488
     1.0859   1.1929   1.2796   1.3310   1.3621   1.4051   1.4357   1.4981
     1.5416   1.6158   1.6892   1.7480   1.8491   1.8718   1.9079   1.9956
     2.0957   2.1288   2.1761   2.2117   2.2249   2.2953   2.3407   2.3700
     2.4194   2.4927   2.5080   2.5746   2.9080   2.9687   3.0105   3.0287
     3.0835   3.1317   3.2032   3.3173   3.3245   3.3840   3.5358   3.6537
     3.7761   3.8003   3.8323   3.9524   4.1846   4.2602   4.3281   4.3636
     4.4517   4.5534   4.5802   4.7259   4.8450   4.9521   5.0723   5.1813
     5.4607   5.5124   6.0779   6.2108   6.4912   6.9055   6.9460   7.0531
     7.0880   7.2130   7.2752   7.3137   7.3336   7.3846   7.4068   7.5992
     7.6266   7.6489   7.7018   7.7373

     the Fermi energy is     5.7870 ev

!    total energy              =    -704.22877242 Ry
     Harris-Foulkes estimate   =    -704.22877260 Ry
     estimated scf accuracy    <       0.00000025 Ry

     The total energy is the sum of the following terms:

     one-electron contribution =    -169.24070663 Ry
     hartree contribution      =     180.80350531 Ry
     xc contribution           =    -278.12868388 Ry
     ewald contribution        =    -437.66634908 Ry
     smearing contrib. (-TS)   =       0.00346186 Ry

     convergence has been achieved in  16 iterations

     Forces acting on atoms (cartesian axes, Ry/au):

     atom    1 type  1   force =     0.00191335    0.00385220    0.00224752
     atom    2 type  1   force =     0.00406168    0.00121731   -0.00052757
     atom    3 type  1   force =     0.01433438    0.00490266    0.03017465
     atom    4 type  1   force =     0.00515665    0.01634908   -0.01279053
     atom    5 type  1   force =    -0.01679454   -0.02409976   -0.04198896
     atom    6 type  1   force =     0.00208209    0.00093053   -0.00091407
     atom    7 type  1   force =     0.00216898    0.00229024   -0.00327200
     atom    8 type  1   force =     0.00074206    0.00063589   -0.00035284
     atom    9 type  1   force =     0.00274006    0.00421120    0.00168006
     atom   10 type  1   force =    -0.00827318   -0.02045161    0.01565908
     atom   11 type  2   force =    -0.00043462    0.00025386   -0.00277282
     atom   12 type  2   force =    -0.00136847    0.00142397   -0.00432260
     atom   13 type  2   force =    -0.00173186   -0.00132362    0.00391474
     atom   14 type  2   force =    -0.00385896   -0.00056575    0.00192175
     atom   15 type  2   force =    -0.00155702    0.00208455   -0.00370613
     atom   16 type  2   force =     0.01584020   -0.00834188   -0.00224283
     atom   17 type  2   force =     0.01716857    0.04620453    0.03212948
     atom   18 type  2   force =     0.00037200   -0.00086390    0.00047409
     atom   19 type  2   force =    -0.00112216   -0.00119761   -0.00270976
     atom   20 type  2   force =    -0.00047466   -0.00363589    0.00474528
     atom   21 type  2   force =    -0.01837170    0.00889647    0.00199386
     atom   22 type  2   force =     0.01075208   -0.01207022   -0.00511351
     atom   23 type  2   force =    -0.01265202   -0.02303733   -0.01605878
     atom   24 type  2   force =    -0.00891909    0.01070566   -0.00058837
     atom   25 type  2   force =    -0.00838490    0.00612109    0.00381045
     atom   26 type  2   force =     0.00893475   -0.00705671   -0.00561672
     atom   27 type  2   force =    -0.00074861   -0.00249758    0.00227634
     atom   28 type  2   force =    -0.00260678   -0.00345456    0.00220406
     atom   29 type  2   force =     0.00123364    0.00101812   -0.00461416
     atom   30 type  2   force =    -0.00020193   -0.00250096    0.00436029

     Total force =     0.105816     Total SCF correction =     0.001144

     General routines

     Parallel routines

   This run was terminated on:  14:10:24   3Dec2021

   JOB DONE.