     Program PWSCF v.6.4 starts on 18Nov2021 at 20: 4:53

     R & G space division:  proc/nbgrp/npool/nimage =      40
     Waiting for input...
     Reading input from standard input
Warning: card    &IONS ignored
Warning: card      ION_DYNAMICS = 'BFGS' ignored
Warning: card   / ignored
Warning: card    &CELL ignored
Warning: card      CELL_DYNAMICS = 'BFGS', ignored
Warning: card    / ignored

     Current dimensions of program PWSCF are:
     Max number of different atomic species (ntypx) = 10
     Max number of k-points (npk) =  40000
     Max angular momentum in pseudopotentials (lmaxx) =  3

     bravais-lattice index     =            0
     lattice parameter (alat)  =      11.7615  a.u.
     unit-cell volume          =    5050.6042 (a.u.)^3
     number of atoms/cell      =           18
     number of atomic types    =            2
     number of electrons       =       108.00
     number of Kohn-Sham states=           65
     kinetic-energy cutoff     =      45.0000  Ry
     charge density cutoff     =     360.0000  Ry
     convergence threshold     =      1.0E-06
     mixing beta               =       0.7000
     number of iterations used =            8  local-TF  mixing
     Exchange-correlation      = SLA PW GGX GGC ( 1  4  2  2 0 0)

     celldm(1)=  11.761518  celldm(2)=   0.000000  celldm(3)=   0.000000
     celldm(4)=   0.000000  celldm(5)=   0.000000  celldm(6)=   0.000000

     crystal axes: (cart. coord. in units of alat)
               a(1) = (   1.000000   0.000000   0.000000 )
               a(2) = (  -0.500365   0.894181   0.000000 )
               a(3) = (  -0.348800  -0.296311   3.471585 )

     reciprocal axes: (cart. coord. in units 2 pi/alat)
               b(1) = (  1.000000  0.559579  0.148235 )
               b(2) = (  0.000000  1.118342  0.095454 )
               b(3) = (  0.000000  0.000000  0.288053 )

     PseudoPot. # 1 for Mo read from file:
     ~/pseudo/Mo.pw91-n-van.UPF
     MD5 check sum: Not computed, couldn't open file
     Pseudo is Ultrasoft + core correction, Zval =  6.0
     Generated by new atomic code, or converted to UPF format
     Using radial grid of  965 points,  3 beta functions with:
                l(1) =   1
                l(2) =   2
                l(3) =   2
     Q(r) pseudized with  8 coefficients,  rinner =    1.000   1.000   1.000
                                                       1.200   1.200

     PseudoPot. # 2 for S  read from file:
     ~/pseudo/S.pw91-van_ak.UPF
     MD5 check sum: Not computed, couldn't open file
     Pseudo is Ultrasoft, Zval =  6.0
     Generated by new atomic code, or converted to UPF format
     Using radial grid of  811 points,  6 beta functions with:
                l(1) =   0
                l(2) =   0
                l(3) =   1
                l(4) =   1
                l(5) =   2
                l(6) =   2
     Q(r) pseudized with  8 coefficients,  rinner =    1.100   1.100   1.100
                                                       1.100   1.100

     atomic species   valence    mass     pseudopotential
        Mo             6.00    95.50000     Mo( 1.00)
        S              6.00    32.06500     S ( 1.00)

     No symmetry found

   Cartesian axes

     site n.     atom                  positions (alat units)
         1           Mo  tau(   1) = (   0.3510188   0.3429059   1.3304547  )
         2           Mo  tau(   2) = (   0.1012322  -0.1040524   1.3312240  )
         3           Mo  tau(   3) = (  -0.1488438   0.3431192   1.3304864  )
         4           Mo  tau(   4) = (   0.6010328  -0.1042974   1.3305555  )
         5           Mo  tau(   5) = (  -0.0974136   0.2698512   2.4757282  )
         6           Mo  tau(   6) = (   0.4262251   0.2658452   2.4753057  )
         7           S   tau(   7) = (   0.1011242   0.1911246   1.0749682  )
         8           S   tau(   8) = (   0.3512550   0.6386659   1.0751313  )
         9           S   tau(   9) = (   0.6011867   0.1914488   1.0749472  )
        10           S   tau(  10) = (  -0.1495487   0.6387797   1.0749814  )
        11           S   tau(  11) = (   0.1609615   0.0014773   2.3568836  )
        12           S   tau(  12) = (  -0.3342626   0.0736987   2.6765001  )
        13           S   tau(  13) = (   0.1010323   0.1914858   1.5883616  )
        14           S   tau(  14) = (   0.3503777   0.6378630   1.5884872  )
        15           S   tau(  15) = (   0.6011424   0.1909903   1.5877346  )
        16           S   tau(  16) = (  -0.1491017   0.6378561   1.5887552  )
        17           S   tau(  17) = (   0.1661171   0.4363423   2.6775032  )
        18           S   tau(  18) = (  -0.3400211   0.5541029   2.3540601  )

     number of k points=     5  Marzari-Vanderbilt smearing, width (Ry)=  0.0200
                       cart. coord. in units 2pi/alat
        k(    1) = (   0.0000000   0.0000000   0.0000000), wk =   0.2222222
        k(    2) = (   0.0000000   0.3727806   0.0318181), wk =   0.4444444
        k(    3) = (   0.3333333   0.1865264   0.0494116), wk =   0.4444444
        k(    4) = (   0.3333333   0.5593070   0.0812297), wk =   0.4444444
        k(    5) = (   0.3333333  -0.1862543   0.0175935), wk =   0.4444444

     Initial potential from superposition of free atoms

     starting charge  107.99054, renormalised to  108.00000

     negative rho (up, down):  4.098E-04 0.000E+00
     Starting wfcs are  102 randomized atomic wfcs

     Self-consistent Calculation

     iteration #  1     ecut=    45.00 Ry     beta= 0.70
     Davidson diagonalization with overlap
     ethr =  1.00E-02,  avg # of iterations =  2.2

     negative rho (up, down):  7.052E-06 0.000E+00

     total energy              =    -421.77871130 Ry
     Harris-Foulkes estimate   =    -422.99347151 Ry
     estimated scf accuracy    <       3.12493267 Ry

[...]

     total energy              =    -422.37517985 Ry
     Harris-Foulkes estimate   =    -422.37517904 Ry
     estimated scf accuracy    <       0.00000345 Ry

     iteration # 19     ecut=    45.00 Ry     beta= 0.70
     Davidson diagonalization with overlap
     ethr =  3.20E-09,  avg # of iterations =  3.4

[...]

     End of self-consistent calculation

          k = 0.0000 0.0000 0.0000 ( 25747 PWs)   bands (ev):

   -14.0931 -13.9701 -12.9261 -12.2614 -12.1508 -12.1461 -12.1020 -11.9518
   -11.9478 -11.8984 -11.3627 -10.5203  -5.8556  -5.7702  -5.7203  -5.7182
    -5.5598  -4.8429  -4.8407  -4.7755  -4.0369  -4.0187  -4.0153  -3.5383
    -3.1480  -3.1398  -3.1340  -2.9416  -2.8034  -2.7705  -2.7012  -2.5938
    -2.5274  -2.3912  -2.2547  -2.2251  -2.0401  -1.8964  -1.8940  -1.8283
    -1.4266  -1.1492  -1.1122  -0.8534  -0.8482  -0.7721  -0.5798  -0.5770
    -0.5263  -0.2755  -0.1745   0.0777   0.8449   0.9581   1.2667   1.2959
     1.8255   2.2378   2.2400   2.2557   2.7119   2.7347   2.8090   2.8129
     2.8529

[...]

          k = 0.3333-0.1863 0.0176 ( 25731 PWs)   bands (ev):

   -13.8937 -13.6929 -12.7463 -12.7200 -12.2628 -12.2407 -12.2066 -12.0506
   -11.9732 -11.8127 -11.4626 -10.7091  -5.4378  -5.2555  -5.2126  -5.1328
    -5.1220  -4.8300  -4.7857  -4.1389  -3.8024  -3.7995  -3.7564  -3.5532
    -3.2102  -3.1946  -3.1544  -3.1085  -3.0783  -2.8213  -2.7942  -2.7874
    -2.6325  -2.5390  -2.3460  -2.2058  -2.0855  -2.0688  -1.9393  -1.8741
    -1.8033  -1.7715  -1.6595  -1.6447  -1.2323  -1.0224  -0.9227  -0.7887
    -0.3895  -0.3739  -0.3400  -0.1942   0.4364   1.0721   1.3454   1.7449
     1.9376   2.1457   2.1991   2.2211   2.2590   2.3116   2.5513   2.6230
     2.7163

     the Fermi energy is     1.2095 ev

!    total energy              =    -422.37517933 Ry
     Harris-Foulkes estimate   =    -422.37518023 Ry
     estimated scf accuracy    <       0.00000058 Ry

     The total energy is the sum of the following terms:

     one-electron contribution =   -1636.87985570 Ry
     hartree contribution      =     855.85744210 Ry
     xc contribution           =    -166.91390121 Ry
     ewald contribution        =     525.56527847 Ry
     smearing contrib. (-TS)   =      -0.00414299 Ry

     convergence has been achieved in  19 iterations

     negative rho (up, down):  6.281E-04 0.000E+00

     Forces acting on atoms (cartesian axes, Ry/au):

     atom    1 type  1   force =     0.00023349   -0.00365511    0.00881636
     atom    2 type  1   force =    -0.00036287   -0.00525941    0.00757983
     atom    3 type  1   force =    -0.00018583   -0.00439304    0.00849804
     atom    4 type  1   force =     0.00072086   -0.00472134    0.00840826
     atom    5 type  1   force =     0.02843826    0.00615924    0.02099904
     atom    6 type  1   force =    -0.03149934    0.00522173    0.02219268
     atom    7 type  2   force =    -0.00002538    0.00208441   -0.00493625
     atom    8 type  2   force =    -0.00081199    0.00172803   -0.00444778
     atom    9 type  2   force =    -0.00005001    0.00137234   -0.00544477
     atom   10 type  2   force =     0.00058606    0.00145398   -0.00438767
     atom   11 type  2   force =     0.00161936    0.12524705   -0.01462643
     atom   12 type  2   force =    -0.00056176   -0.00302982   -0.00516046
     atom   13 type  2   force =     0.00007487    0.00213798   -0.00272554
     atom   14 type  2   force =     0.00066212    0.00311434   -0.00333632
     atom   15 type  2   force =    -0.00014970    0.00268930   -0.00179190
     atom   16 type  2   force =    -0.00012096    0.00334584   -0.00372574
     atom   17 type  2   force =    -0.00188954    0.00547316   -0.00199994
     atom   18 type  2   force =     0.00332236   -0.13896867   -0.02391139

     Total force =     0.198009     Total SCF correction =     0.001611

     General routines

     Parallel routines

   This run was terminated on:  20: 5:52  18Nov2021

   JOB DONE.