     Program PWSCF v.6.4 starts on  2Sep2021 at 11: 9:37

     R & G space division:  proc/nbgrp/npool/nimage =      40
     Waiting for input...
     Reading input from standard input
Warning: card    &IONS ignored
Warning: card      ION_DYNAMICS = 'BFGS' ignored
Warning: card   / ignored
Warning: card    &CELL ignored
Warning: card      CELL_DYNAMICS = 'BFGS', ignored
Warning: card    / ignored

     Current dimensions of program PWSCF are:
     Max number of different atomic species (ntypx) = 10
     Max number of k-points (npk) =  40000
     Max angular momentum in pseudopotentials (lmaxx) =  3

     bravais-lattice index     =            0
     lattice parameter (alat)  =      12.2555  a.u.
     unit-cell volume          =    4676.7841 (a.u.)^3
     number of atoms/cell      =           24
     number of atomic types    =            2
     number of electrons       =       144.00
     number of Kohn-Sham states=           86
     kinetic-energy cutoff     =      45.0000  Ry
     charge density cutoff     =     360.0000  Ry
     convergence threshold     =      1.0E-06
     mixing beta               =       0.7000
     number of iterations used =            8  local-TF  mixing
     Exchange-correlation      = SLA PW GGX GGC ( 1  4  2  2 0 0)

     celldm(1)=  12.255511  celldm(2)=   0.000000  celldm(3)=   0.000000
     celldm(4)=   0.000000  celldm(5)=   0.000000  celldm(6)=   0.000000

     crystal axes: (cart. coord. in units of alat)
               a(1) = (   1.000000   0.000000   0.000000 )
               a(2) = (  -0.501773   0.860757   0.000000 )
               a(3) = (  -0.366558  -0.419557   2.951700 )

     reciprocal axes: (cart. coord. in units 2 pi/alat)
               b(1) = (  1.000000  0.582944  0.207046 )
               b(2) = (  0.000000  1.161767  0.165135 )
               b(3) = (  0.000000  0.000000  0.338788 )

     PseudoPot. # 1 for Mo read from file:
     ~/pseudo/Mo.pw91-n-van.UPF
     MD5 check sum: Not computed, couldn't open file
     Pseudo is Ultrasoft + core correction, Zval =  6.0
     Generated by new atomic code, or converted to UPF format
     Using radial grid of  965 points,  3 beta functions with:
                l(1) =   1
                l(2) =   2
                l(3) =   2
     Q(r) pseudized with  8 coefficients,  rinner =    1.000   1.000   1.000
                                                       1.200   1.200

     PseudoPot. # 2 for S  read from file:
     ~/pseudo/S.pw91-van_ak.UPF
     MD5 check sum: Not computed, couldn't open file
     Pseudo is Ultrasoft, Zval =  6.0
     Generated by new atomic code, or converted to UPF format
     Using radial grid of  811 points,  6 beta functions with:
                l(1) =   0
                l(2) =   0
                l(3) =   1
                l(4) =   1
                l(5) =   2
                l(6) =   2
     Q(r) pseudized with  8 coefficients,  rinner =    1.100   1.100   1.100
                                                       1.100   1.100

     atomic species   valence    mass     pseudopotential
        Mo             6.00    95.50000     Mo( 1.00)
        S              6.00    32.06500     S ( 1.00)

     No symmetry found

   Cartesian axes

     site n.     atom                  positions (alat units)
         1           Mo  tau(   1) = (  -0.6467319   0.5163599   2.2748885  )
         2           Mo  tau(   2) = (   0.1030599   0.0884432   2.2748668  )
         3           Mo  tau(   3) = (  -0.3955723   0.0882393   2.2744941  )
         4           Mo  tau(   4) = (  -0.1453882   0.5192507   2.2742060  )
         5           Mo  tau(   5) = (   0.7748435  -0.0774095   0.6682736  )
         6           Mo  tau(   6) = (   0.0264080   0.3553432   0.6681845  )
         7           Mo  tau(   7) = (   0.5246642   0.3540702   0.6687244  )
         8           Mo  tau(   8) = (   0.2767453  -0.0750739   0.6688753  )
         9           S   tau(   9) = (  -0.3957018   0.3738543   2.5170863  )
        10           S   tau(  10) = (   0.3535233  -0.0560889   2.5168872  )
        11           S   tau(  11) = (  -0.1470800  -0.0577083   2.5171695  )
        12           S   tau(  12) = (   0.1022132   0.3737198   2.5182010  )
        13           S   tau(  13) = (   0.0263644   0.0681110   0.4265342  )
        14           S   tau(  14) = (   0.2765596   0.4986328   0.4243768  )
        15           S   tau(  15) = (  -0.2245431   0.4996444   0.4265496  )
        16           S   tau(  16) = (   0.5263159   0.0685758   0.4255639  )
        17           S   tau(  17) = (   0.0248704   0.0667760   0.9102237  )
        18           S   tau(  18) = (   0.2750890   0.4963505   0.9118982  )
        19           S   tau(  19) = (  -0.2244826   0.4965532   0.9105461  )
        20           S   tau(  20) = (   0.5264408   0.0664023   0.9119612  )
        21           S   tau(  21) = (  -0.3955701   0.3764253   2.0319696  )
        22           S   tau(  22) = (   0.3539006  -0.0528819   2.0320560  )
        23           S   tau(  23) = (  -0.1456526  -0.0556507   2.0326493  )
        24           S   tau(  24) = (   0.1038945   0.3756896   2.0313055  )

     number of k points=     5  Marzari-Vanderbilt smearing, width (Ry)=  0.0200
                       cart. coord. in units 2pi/alat
        k(    1) = (   0.0000000   0.0000000   0.0000000), wk =   0.2222222
        k(    2) = (   0.0000000   0.3872558   0.0550449), wk =   0.4444444
        k(    3) = (   0.3333333   0.1943147   0.0690152), wk =   0.4444444
        k(    4) = (   0.3333333   0.5815705   0.1240601), wk =   0.4444444
        k(    5) = (   0.3333333  -0.1929411   0.0139704), wk =   0.4444444

     Initial potential from superposition of free atoms

     starting charge  143.98738, renormalised to  144.00000
     Starting wfcs are  136 randomized atomic wfcs

     Self-consistent Calculation

     iteration #  1     ecut=    45.00 Ry     beta= 0.70
     Davidson diagonalization with overlap
     ethr =  1.00E-02,  avg # of iterations =  2.0

     total energy              =    -562.79772470 Ry
     Harris-Foulkes estimate   =    -564.58334961 Ry
     estimated scf accuracy    <       4.57246990 Ry

[...]

     negative rho (up, down):  3.092E-08 0.000E+00

[...]

     total energy              =    -563.69068540 Ry
     Harris-Foulkes estimate   =    -563.69068664 Ry
     estimated scf accuracy    <       0.00000537 Ry

     iteration # 13     ecut=    45.00 Ry     beta= 0.70
     Davidson diagonalization with overlap
     ethr =  3.73E-09,  avg # of iterations =  2.8

[...]

     End of self-consistent calculation

          k = 0.0000 0.0000 0.0000 ( 23755 PWs)   bands (ev):

   -11.1545 -11.1534  -9.9521  -9.9508  -9.4772  -9.4760  -9.4704  -9.4701
    -9.4525  -9.4511  -9.1946  -9.1911  -9.1748  -9.1744  -9.1609  -9.1553
    -2.7846  -2.7837  -2.7784  -2.7779  -2.7734  -2.7719  -2.6378  -2.6254
    -1.8359  -1.8332  -1.8305  -1.8286  -1.8196  -1.8164  -1.1777  -1.1760
    -1.1746  -1.1725  -1.1663  -1.1625  -0.3497  -0.3488  -0.3088  -0.3081
    -0.2779  -0.2763   0.1491   0.1506   0.2145   0.2158   0.9564   0.9705
     0.9915   1.0037   1.0091   1.0262   1.1307   1.2002   1.2733   1.2743
     1.3130   1.3156   1.7691   1.7741   1.8138   1.8162   1.8414   1.8455
     2.1395   2.1463   2.1586   2.1653   2.1772   2.1787   2.7854   2.8449
     4.7382   4.7476   4.7525   4.7557   4.7644   4.7721   5.2694   5.2727
     5.2772   5.2786   5.2863   5.2909   5.4360   5.4364

[...]

          k = 0.3333-0.1929 0.0140 ( 23827 PWs)   bands (ev):

   -10.8005 -10.7995  -9.9779  -9.9770  -9.7860  -9.7849  -9.4877  -9.4859
    -9.4764  -9.4760  -9.4090  -9.4083  -9.1661  -9.1597  -9.1507  -9.1462
    -2.3503  -2.3439  -2.3381  -2.3331  -2.2724  -2.2694  -2.2476  -2.2359
    -1.9251  -1.9233  -1.9187  -1.9179  -1.2256  -1.2217  -1.0557  -1.0496
    -0.9671  -0.9629  -0.9501  -0.9460  -0.5392  -0.5379  -0.3445  -0.3377
    -0.3256  -0.3185   0.0008   0.0158   0.0325   0.0347   0.4759   0.4832
     0.5098   0.5158   0.6007   0.6014   0.7942   0.7952   1.1147   1.1178
     1.1250   1.1317   1.2228   1.2417   1.4285   1.4289   1.7298   1.7675
     1.8397   1.8450   2.2638   2.2702   2.2823   2.2873   2.4923   2.5150
     4.8010   4.8113   4.8183   4.8219   4.8381   4.8468   4.9452   4.9744
     5.0064   5.0132   5.2173   5.2431   5.2750   5.2905

     the Fermi energy is     2.8803 ev

!    total energy              =    -563.69068591 Ry
     Harris-Foulkes estimate   =    -563.69068611 Ry
     estimated scf accuracy    <       0.00000050 Ry

     The total energy is the sum of the following terms:

     one-electron contribution =    -689.58563141 Ry
     hartree contribution      =     408.33260342 Ry
     xc contribution           =    -222.61837104 Ry
     ewald contribution        =     -59.83357923 Ry
     smearing contrib. (-TS)   =       0.01429235 Ry

     convergence has been achieved in  13 iterations

     negative rho (up, down):  4.250E-08 0.000E+00

     Forces acting on atoms (cartesian axes, Ry/au):

     atom    1 type  1   force =     0.00041333    0.00526274    0.00017751
     atom    2 type  1   force =     0.00154207   -0.00484652   -0.00003009
     atom    3 type  1   force =    -0.00219185   -0.00269325   -0.00046587
     atom    4 type  1   force =    -0.00639839   -0.00319243   -0.00019284
     atom    5 type  1   force =     0.00756533    0.00779569    0.00043236
     atom    6 type  1   force =    -0.00451923   -0.00296014   -0.00106095
     atom    7 type  1   force =     0.00614010    0.00339522   -0.00058928
     atom    8 type  1   force =    -0.00244441   -0.00264308    0.00054664
     atom    9 type  2   force =     0.00117500    0.00322280    0.00015151
     atom   10 type  2   force =     0.00164791    0.00444959    0.00058550
     atom   11 type  2   force =     0.00219787    0.00344759    0.00018548
     atom   12 type  2   force =     0.00234456    0.00294086   -0.00142846
     atom   13 type  2   force =    -0.00201399   -0.00201355   -0.00003765
     atom   14 type  2   force =    -0.00271286   -0.00370564    0.00238413
     atom   15 type  2   force =    -0.00047774   -0.00408908   -0.00030284
     atom   16 type  2   force =    -0.00117566   -0.00333773    0.00036436
     atom   17 type  2   force =     0.00126420    0.00110960    0.00043567
     atom   18 type  2   force =     0.00006466    0.00189678   -0.00117310
     atom   19 type  2   force =    -0.00033638    0.00305587    0.00046176
     atom   20 type  2   force =    -0.00126297    0.00137862   -0.00129129
     atom   21 type  2   force =     0.00033130   -0.00246970    0.00019716
     atom   22 type  2   force =     0.00053569   -0.00270963   -0.00012460
     atom   23 type  2   force =    -0.00084354   -0.00159003   -0.00048225
     atom   24 type  2   force =    -0.00084501   -0.00170459    0.00125713

     Total force =     0.022497     Total SCF correction =     0.001637

     General routines

     Parallel routines

   This run was terminated on:  11:10:23   2Sep2021

   JOB DONE.