     Program PWSCF v.6.4 starts on 14Oct2021 at 12: 8:23

     R & G space division:  proc/nbgrp/npool/nimage =      40
     Waiting for input...
     Reading input from standard input
Warning: card    &IONS ignored
Warning: card      ION_DYNAMICS = 'BFGS' ignored
Warning: card   / ignored
Warning: card    &CELL ignored
Warning: card      CELL_DYNAMICS = 'BFGS', ignored
Warning: card    / ignored

     Current dimensions of program PWSCF are:
     Max number of different atomic species (ntypx) = 10
     Max number of k-points (npk) =  40000
     Max angular momentum in pseudopotentials (lmaxx) =  3

     bravais-lattice index     =            0
     lattice parameter (alat)  =      11.9888  a.u.
     unit-cell volume          =    8086.5418 (a.u.)^3
     number of atoms/cell      =           36
     number of atomic types    =            2
     number of electrons       =       216.00
     number of Kohn-Sham states=          130
     kinetic-energy cutoff     =      45.0000  Ry
     charge density cutoff     =     360.0000  Ry
     convergence threshold     =      1.0E-06
     mixing beta               =       0.7000
     number of iterations used =            8  local-TF  mixing
     Exchange-correlation      = SLA PW GGX GGC ( 1  4  2  2 0 0)

     celldm(1)=  11.988846  celldm(2)=   0.000000  celldm(3)=   0.000000
     celldm(4)=   0.000000  celldm(5)=   0.000000  celldm(6)=   0.000000

     crystal axes: (cart. coord. in units of alat)
               a(1) = (   1.000000   0.000000   0.000000 )
               a(2) = (   0.489342   0.911834   0.000000 )
               a(3) = (  -0.228746   0.893085   5.146532 )

     reciprocal axes: (cart. coord. in units 2 pi/alat)
               b(1) = (  1.000000 -0.536657  0.137573 )
               b(2) = (  0.000000  1.096690 -0.190310 )
               b(3) = (  0.000000  0.000000  0.194306 )

     PseudoPot. # 1 for Mo read from file:
     ~/pseudo/Mo.pw91-n-van.UPF
     MD5 check sum: Not computed, couldn't open file
     Pseudo is Ultrasoft + core correction, Zval =  6.0
     Generated by new atomic code, or converted to UPF format
     Using radial grid of  965 points,  3 beta functions with:
                l(1) =   1
                l(2) =   2
                l(3) =   2
     Q(r) pseudized with  8 coefficients,  rinner =    1.000   1.000   1.000
                                                       1.200   1.200

     PseudoPot. # 2 for S  read from file:
     ~/pseudo/S.pw91-van_ak.UPF
     MD5 check sum: Not computed, couldn't open file
     Pseudo is Ultrasoft, Zval =  6.0
     Generated by new atomic code, or converted to UPF format
     Using radial grid of  811 points,  6 beta functions with:
                l(1) =   0
                l(2) =   0
                l(3) =   1
                l(4) =   1
                l(5) =   2
                l(6) =   2
     Q(r) pseudized with  8 coefficients,  rinner =    1.100   1.100   1.100
                                                       1.100   1.100

     atomic species   valence    mass     pseudopotential
        Mo             6.00    95.50000     Mo( 1.00)
        S              6.00    32.06500     S ( 1.00)

     No symmetry found

   Cartesian axes

     site n.     atom                  positions (alat units)
         1           Mo  tau(   1) = (   0.8376213   0.2293598   0.1378889  )
         2           Mo  tau(   2) = (   0.5937568  -0.1314811   0.1537245  )
         3           Mo  tau(   3) = (   1.0977764  -0.1442719   0.1569444  )
         4           Mo  tau(   4) = (   0.3263887   0.2181181   0.1435522  )
         5           Mo  tau(   5) = (   0.7948493   1.4054726   3.5495636  )
         6           Mo  tau(   6) = (   0.5549201   0.9467303   3.5481266  )
         7           Mo  tau(   7) = (   0.0569592   0.9524999   3.5479153  )
         8           Mo  tau(   8) = (   0.2966134   1.4108781   3.5473196  )
         9           Mo  tau(   9) = (   0.4308346   0.3212943   1.4560150  )
        10           Mo  tau(  10) = (   0.6756495   0.7723476   1.4542760  )
        11           Mo  tau(  11) = (   0.2005250   0.7655081   1.4514048  )
        12           Mo  tau(  12) = (  -0.0679789   0.3148385   1.4515106  )
        13           S   tau(  13) = (   0.8374113   0.5640903   0.3862809  )
        14           S   tau(  14) = (   0.5858805   0.1445758   0.3977074  )
        15           S   tau(  15) = (   1.0727062   0.1349634   0.4139668  )
        16           S   tau(  16) = (   1.3356113   0.5584003   0.3468066  )
        17           S   tau(  17) = (   0.8010889   1.1074086   3.7940772  )
        18           S   tau(  18) = (   1.0420213   1.5625439   3.7964617  )
        19           S   tau(  19) = (   0.5444412   1.5663774   3.7941674  )
        20           S   tau(  20) = (   0.3037063   1.1117544   3.7917677  )
        21           S   tau(  21) = (   0.9374439   0.9241261   1.6934769  )
        22           S   tau(  22) = (   0.6772495   0.4733827   1.7008981  )
        23           S   tau(  23) = (   0.1718782   0.4723810   1.7019988  )
        24           S   tau(  24) = (   0.4272142   0.9338928   1.7021845  )
        25           S   tau(  25) = (   0.3423257   1.3253797   5.0712625  )
        26           S   tau(  26) = (   0.1202767   0.8413698   5.0305597  )
        27           S   tau(  27) = (   0.6192800   0.8385082   5.0426206  )
        28           S   tau(  28) = (   0.8582856   1.3305530   5.0721587  )
        29           S   tau(  29) = (   0.8035117   1.1062335   3.3035227  )
        30           S   tau(  30) = (   1.0419016   1.5610141   3.3008248  )
        31           S   tau(  31) = (   0.5461982   1.5646442   3.3022409  )
        32           S   tau(  32) = (   0.3066913   1.1075420   3.3032102  )
        33           S   tau(  33) = (   0.9447076   0.9282228   1.2159642  )
        34           S   tau(  34) = (   0.6850151   0.4726386   1.2092633  )
        35           S   tau(  35) = (   0.1864195   0.4702432   1.2020510  )
        36           S   tau(  36) = (   0.4420231   0.9342991   1.2009243  )

     number of k points=     5  Marzari-Vanderbilt smearing, width (Ry)=  0.0200
                       cart. coord. in units 2pi/alat
        k(    1) = (   0.0000000   0.0000000   0.0000000), wk =   0.2222222
        k(    2) = (   0.0000000   0.3655634  -0.0634367), wk =   0.4444444
        k(    3) = (   0.3333333  -0.1788857   0.0458578), wk =   0.4444444
        k(    4) = (   0.3333333   0.1866777  -0.0175789), wk =   0.4444444
        k(    5) = (   0.3333333  -0.5444491   0.1092945), wk =   0.4444444

     Initial potential from superposition of free atoms

     starting charge  215.98107, renormalised to  216.00000

     negative rho (up, down):  2.569E-04 0.000E+00
     Starting wfcs are  204 randomized atomic wfcs

     Self-consistent Calculation

     iteration #  1     ecut=    45.00 Ry     beta= 0.70
     Davidson diagonalization with overlap
     ethr =  1.00E-02,  avg # of iterations =  2.0

     negative rho (up, down):  3.565E-06 0.000E+00

     total energy              =    -843.86592135 Ry
     Harris-Foulkes estimate   =    -846.60633314 Ry
     estimated scf accuracy    <       7.35265440 Ry

[...]

     total energy              =    -845.26287681 Ry
     Harris-Foulkes estimate   =    -845.26287834 Ry
     estimated scf accuracy    <       0.00000215 Ry

     iteration # 17     ecut=    45.00 Ry     beta= 0.70
     Davidson diagonalization with overlap
     ethr =  9.97E-10,  avg # of iterations =  2.4

[...]

     End of self-consistent calculation

          k = 0.0000 0.0000 0.0000 ( 41285 PWs)   bands (ev):

   -12.4171 -12.2905 -12.2759 -11.4492 -11.0713 -11.0429 -10.9387 -10.9111
   -10.7579 -10.7456 -10.6280 -10.6186 -10.6080 -10.5873 -10.5711 -10.5055
   -10.4940 -10.4526 -10.2890 -10.2546 -10.2094 -10.1505 -10.0835 -10.0294
    -4.3249  -4.2937  -4.2552  -3.9683  -3.9418  -3.8825  -3.8711  -3.8634
    -3.8485  -3.7656  -3.7460  -3.7434  -3.0525  -3.0206  -2.9824  -2.9635
    -2.9605  -2.9505  -2.8324  -2.8289  -2.8195  -2.6870  -2.3500  -2.3208
    -2.3173  -2.3020  -2.2739  -2.2618  -2.0593  -2.0273  -1.7374  -1.7173
    -1.6507  -1.6218  -1.6174  -1.6131  -1.5240  -1.3493  -1.2704  -1.2637
    -1.1890  -1.1198  -1.0959  -0.7828  -0.7790  -0.6563  -0.4872  -0.3905
    -0.3699  -0.2657  -0.2337  -0.2128  -0.1804  -0.1791  -0.1128  -0.0853
    -0.0357   0.0074   0.0404   0.1265   0.2657   0.2938   0.3209   0.3327
     0.3646   0.3768   0.4479   0.4840   0.6483   0.7292   0.8235   0.8315
     0.8907   0.8947   0.9235   1.0862   1.1105   1.1544   1.1672   1.4574
     1.7035   1.7458   1.7471   1.8479   1.9781   2.0647   3.3703   3.4360
     3.4398   3.4730   3.4943   3.5195   3.5356   3.5810   3.6185   3.9196
     3.9496   4.0502   4.1057   4.1494   4.1682   4.1774   4.1927   4.2013
     4.2094   4.2097

[...]

          k = 0.3333-0.5444 0.1093 ( 41241 PWs)   bands (ev):

   -11.5795 -11.5471 -11.4139 -11.3876 -11.3764 -11.3635 -11.3118 -11.2999
   -11.2959 -11.0270 -10.9119 -10.7312 -10.6599 -10.6587 -10.6326 -10.5511
   -10.5340 -10.5012 -10.4335 -10.4247 -10.3359 -10.1585 -10.1359 -10.0920
    -3.6383  -3.5509  -3.5187  -3.5136  -3.3977  -3.1888  -3.1397  -3.1373
    -3.1123  -3.1052  -3.0869  -3.0749  -2.8448  -2.7392  -2.7313  -2.6584
    -2.6013  -2.4353  -2.3381  -2.3275  -2.2659  -2.2534  -2.2228  -2.1540
    -2.1494  -2.1425  -2.1327  -2.1099  -2.0839  -2.0075  -1.9747  -1.9669
    -1.9639  -1.8837  -1.8775  -1.8681  -1.8441  -1.8438  -1.7191  -1.5786
    -1.5236  -1.5100  -1.4541  -1.3710  -1.3683  -1.3244  -1.2536  -1.1184
    -1.0924  -1.0668  -0.8127  -0.7306  -0.6091  -0.4907  -0.4076  -0.3963
    -0.3930  -0.3819  -0.3470  -0.3202  -0.3132  -0.2055  -0.1737   0.0865
     0.2055   0.5137   0.5795   0.5933   0.6421   0.6646   0.6689   0.7189
     0.8080   0.8530   0.8553   0.8628   0.8629   0.9257   0.9314   1.1814
     1.3304   1.4637   1.5701   1.6258   2.1068   2.3126   2.8954   2.9319
     3.0528   3.2767   3.3825   3.4456   3.4582   3.5170   3.5658   3.5662
     3.7834   3.8326   3.8548   3.8878   3.9092   3.9667   3.9810   4.0538
     4.0669   4.1617

     the Fermi energy is     1.7755 ev

!    total energy              =    -845.26287700 Ry
     Harris-Foulkes estimate   =    -845.26287700 Ry
     estimated scf accuracy    <       0.00000051 Ry

     The total energy is the sum of the following terms:

     one-electron contribution =   -2156.58685473 Ry
     hartree contribution      =    1164.29793316 Ry
     xc contribution           =    -334.05274408 Ry
     ewald contribution        =     481.05895240 Ry
     smearing contrib. (-TS)   =       0.01983625 Ry

     convergence has been achieved in  17 iterations

     negative rho (up, down):  4.098E-04 0.000E+00

     Forces acting on atoms (cartesian axes, Ry/au):

     atom    1 type  1   force =    -0.00620861    0.02247679    0.03122418
     atom    2 type  1   force =    -0.00896583   -0.06041783   -0.03856326
     atom    3 type  1   force =     0.00717429   -0.01148977   -0.03523127
     atom    4 type  1   force =     0.01116982    0.04369429    0.02847675
     atom    5 type  1   force =     0.00244379    0.01371118   -0.00344936
     atom    6 type  1   force =    -0.00570461    0.02438775    0.00322657
     atom    7 type  1   force =    -0.01371635    0.00861047    0.00273107
     atom    8 type  1   force =    -0.00367926   -0.00137031    0.00229990
     atom    9 type  1   force =     0.01413223   -0.02066290   -0.00260383
     atom   10 type  1   force =     0.05656374    0.01651262    0.00146697
     atom   11 type  1   force =    -0.07095190    0.03185224   -0.00387281
     atom   12 type  1   force =     0.00853382    0.02327935    0.00319459
     atom   13 type  2   force =    -0.00151610    0.01911544   -0.02853019
     atom   14 type  2   force =    -0.00702606    0.00733924    0.08933614
     atom   15 type  2   force =     0.01940730    0.00355194    0.03107651
     atom   16 type  2   force =    -0.01617805   -0.00315091    0.04878839
     atom   17 type  2   force =     0.00561483   -0.01062333    0.00271843
     atom   18 type  2   force =     0.00666141   -0.00666678   -0.00250990
     atom   19 type  2   force =     0.00175806   -0.00552474    0.00323364
     atom   20 type  2   force =     0.00390028   -0.00930932    0.00651626
     atom   21 type  2   force =    -0.00425790   -0.00306256    0.00302795
     atom   22 type  2   force =     0.00615310   -0.00124158    0.00185540
     atom   23 type  2   force =     0.02396034   -0.00693714   -0.00150456
     atom   24 type  2   force =     0.01841443   -0.01163645    0.00518756
     atom   25 type  2   force =     0.02477437   -0.00383584   -0.00150883
     atom   26 type  2   force =    -0.01408971   -0.01350988   -0.03582914
     atom   27 type  2   force =    -0.00009415    0.00358457   -0.08461810
     atom   28 type  2   force =    -0.00855564   -0.00828675   -0.00470482
     atom   29 type  2   force =    -0.00005665   -0.00557362   -0.00408175
     atom   30 type  2   force =     0.00464777   -0.00429044    0.00041540
     atom   31 type  2   force =     0.00061795   -0.00281343   -0.00338539
     atom   32 type  2   force =    -0.00262100   -0.00039456   -0.00539977
     atom   33 type  2   force =    -0.02033861   -0.00815075   -0.00754530
     atom   34 type  2   force =    -0.01576080    0.00146663   -0.00775707
     atom   35 type  2   force =    -0.00356263   -0.00560088    0.00611936
     atom   36 type  2   force =    -0.01264368   -0.01503279    0.00020029

     Total force =     0.221228     Total SCF correction =     0.001635

     General routines

     Parallel routines

   This run was terminated on:  12:11: 7  14Oct2021

   JOB DONE.