     Program PWSCF v.6.4 starts on 18Oct2021 at 16: 4: 1

     R & G space division:  proc/nbgrp/npool/nimage =      40
     Waiting for input...
     Reading input from standard input
Warning: card    &IONS ignored
Warning: card      ION_DYNAMICS = 'BFGS' ignored
Warning: card   / ignored
Warning: card    &CELL ignored
Warning: card      CELL_DYNAMICS = 'BFGS', ignored
Warning: card    / ignored

     Current dimensions of program PWSCF are:
     Max number of different atomic species (ntypx) = 10
     Max number of k-points (npk) =  40000
     Max angular momentum in pseudopotentials (lmaxx) =  3

     bravais-lattice index     =            0
     lattice parameter (alat)  =      11.9458  a.u.
     unit-cell volume          =    6416.5768 (a.u.)^3
     number of atoms/cell      =           24
     number of atomic types    =            2
     number of electrons       =       144.00
     number of Kohn-Sham states=           86
     kinetic-energy cutoff     =      45.0000  Ry
     charge density cutoff     =     360.0000  Ry
     convergence threshold     =      1.0E-06
     mixing beta               =       0.7000
     number of iterations used =            8  local-TF  mixing
     Exchange-correlation      = SLA PW GGX GGC ( 1  4  2  2 0 0)

     celldm(1)=  11.945815  celldm(2)=   0.000000  celldm(3)=   0.000000
     celldm(4)=   0.000000  celldm(5)=   0.000000  celldm(6)=   0.000000

     crystal axes: (cart. coord. in units of alat)
               a(1) = (   0.999763  -0.021686   0.002124 )
               a(2) = (  -0.280195   0.919527  -0.004172 )
               a(3) = (  -0.032760  -0.257699   4.122624 )

     reciprocal axes: (cart. coord. in units 2 pi/alat)
               b(1) = (  1.006837  0.306923  0.027186 )
               b(2) = (  0.023606  1.095020  0.068635 )
               b(3) = ( -0.000495  0.000950  0.242619 )

     PseudoPot. # 1 for Mo read from file:
     ~/pseudo/Mo.pw91-n-van.UPF
     MD5 check sum: Not computed, couldn't open file
     Pseudo is Ultrasoft + core correction, Zval =  6.0
     Generated by new atomic code, or converted to UPF format
     Using radial grid of  965 points,  3 beta functions with:
                l(1) =   1
                l(2) =   2
                l(3) =   2
     Q(r) pseudized with  8 coefficients,  rinner =    1.000   1.000   1.000
                                                       1.200   1.200

     PseudoPot. # 2 for S  read from file:
     ~/pseudo/S.pw91-van_ak.UPF
     MD5 check sum: Not computed, couldn't open file
     Pseudo is Ultrasoft, Zval =  6.0
     Generated by new atomic code, or converted to UPF format
     Using radial grid of  811 points,  6 beta functions with:
                l(1) =   0
                l(2) =   0
                l(3) =   1
                l(4) =   1
                l(5) =   2
                l(6) =   2
     Q(r) pseudized with  8 coefficients,  rinner =    1.100   1.100   1.100
                                                       1.100   1.100

     atomic species   valence    mass     pseudopotential
        Mo             6.00    95.50000     Mo( 1.00)
        S              6.00    32.06500     S ( 1.00)

     No symmetry found

   Cartesian axes

     site n.     atom                  positions (alat units)
         1           Mo  tau(   1) = (   0.0419155   0.1301359   0.6009371  )
         2           Mo  tau(   2) = (  -0.0181220   0.5928018   0.6006060  )
         3           Mo  tau(   3) = (   0.4831246   0.5843722   0.5979735  )
         4           Mo  tau(   4) = (   0.5412501   0.1222796   0.6012655  )
         5           Mo  tau(   5) = (   0.6343924   0.5043490   3.5471901  )
         6           Mo  tau(   6) = (   0.6939644   0.0330965   3.5189133  )
         7           Mo  tau(   7) = (   0.1944235   0.0199275   3.5214838  )
         8           Mo  tau(   8) = (   0.2038981   0.4828479   3.5211631  )
         9           S   tau(   9) = (   0.4921416   0.8727830   0.3536047  )
        10           S   tau(  10) = (   0.7258731   0.4114597   0.3685870  )
        11           S   tau(  11) = (   0.2226266   0.4290087   0.3609885  )
        12           S   tau(  12) = (  -0.0031375   0.8853783   0.3549180  )
        13           S   tau(  13) = (   0.6682405  -0.2389105   3.7843350  )
        14           S   tau(  14) = (   0.4495251   0.2149309   3.7574532  )
        15           S   tau(  15) = (  -0.0535112   0.2383692   3.7273457  )
        16           S   tau(  16) = (   0.1606147  -0.2131342   3.8069015  )
        17           S   tau(  17) = (   0.4198012   0.6678452   3.2648310  )
        18           S   tau(  18) = (   0.4430237   0.2312627   3.2949929  )
        19           S   tau(  19) = (  -0.0410126   0.1347665   3.2549241  )
        20           S   tau(  20) = (  -0.0773183   0.6152208   3.2995654  )
        21           S   tau(  21) = (   0.4981117   0.8740564   0.8425879  )
        22           S   tau(  22) = (   0.7230967   0.4174935   0.8381668  )
        23           S   tau(  23) = (   0.2260465   0.4222037   0.8328068  )
        24           S   tau(  24) = (   0.2727253  -0.0338695   0.8478414  )

     number of k points=     5  Marzari-Vanderbilt smearing, width (Ry)=  0.0200
                       cart. coord. in units 2pi/alat
        k(    1) = (   0.0000000   0.0000000   0.0000000), wk =   0.2222222
        k(    2) = (   0.0078687   0.3650065   0.0228785), wk =   0.4444444
        k(    3) = (   0.3356124   0.1023076   0.0090620), wk =   0.4444444
        k(    4) = (   0.3434810   0.4673141   0.0319405), wk =   0.4444444
        k(    5) = (   0.3277437  -0.2626989  -0.0138165), wk =   0.4444444

     Initial potential from superposition of free atoms

     starting charge  143.98738, renormalised to  144.00000

     negative rho (up, down):  8.555E-04 0.000E+00
     Starting wfcs are  136 randomized atomic wfcs

     Self-consistent Calculation

     iteration #  1     ecut=    45.00 Ry     beta= 0.70
     Davidson diagonalization with overlap
     ethr =  1.00E-02,  avg # of iterations =  2.6

     negative rho (up, down):  9.400E-05 0.000E+00

     total energy              =    -562.26654180 Ry
     Harris-Foulkes estimate   =    -564.01454545 Ry
     estimated scf accuracy    <       4.51992745 Ry

[...]

     iteration #  6     ecut=    45.00 Ry     beta= 0.70
     Davidson diagonalization with overlap
     c_bands:  1 eigenvalues not converged
     ethr =  8.68E-06,  avg # of iterations =  8.8

[...]

     iteration # 18     ecut=    45.00 Ry     beta= 0.70
     Davidson diagonalization with overlap
     c_bands:  1 eigenvalues not converged
     ethr =  7.78E-07,  avg # of iterations = 12.4

[...]

     total energy              =    -563.16730634 Ry
     Harris-Foulkes estimate   =    -563.16731441 Ry
     estimated scf accuracy    <       0.00011700 Ry

     iteration # 24     ecut=    45.00 Ry     beta= 0.70
     Davidson diagonalization with overlap
     ethr =  4.03E-08,  avg # of iterations =  1.0

[...]

     End of self-consistent calculation

          k = 0.0000 0.0000 0.0000 ( 32749 PWs)   bands (ev):

   -13.9326 -13.5514 -12.7567 -12.3979 -12.2358 -12.2110 -12.0300 -11.9573
   -11.8340 -11.8287 -11.7035 -11.5602 -11.5507 -11.4281 -11.2537 -10.8818
    -5.7798  -5.5245  -5.4335  -5.1998  -5.1940  -4.9512  -4.8867  -4.7822
    -4.5767  -4.4760  -4.2987  -4.2795  -4.1242  -4.0091  -3.9598  -3.7294
    -3.5219  -3.5142  -3.3160  -3.2733  -3.2069  -3.1394  -2.7494  -2.5557
    -2.5344  -2.2830  -2.1650  -2.0680  -2.0365  -1.9957  -1.9204  -1.8728
    -1.7708  -1.6171  -1.5584  -1.4134  -1.3056  -1.2196  -1.1692  -1.1410
    -1.1356  -1.0227  -0.8953  -0.8110  -0.6434  -0.5824  -0.4880  -0.3965
    -0.2804  -0.1961   0.0295   0.1174   0.4150   0.4547   0.7044   0.8125
     1.4018   1.6542   1.9737   2.2766   2.4171   2.5634   2.6035   2.7369
     2.7417   2.8807   2.8944   3.0082   3.0890   3.1244

[...]

          k = 0.3277-0.2627-0.0138 ( 32695 PWs)   bands (ev):

   -13.5338 -13.1013 -12.7297 -12.5299 -12.3301 -12.1690 -12.0965 -12.0458
   -12.0073 -11.9684 -11.8681 -11.7346 -11.7039 -11.4707 -11.3985 -11.1811
    -5.1961  -4.9726  -4.8099  -4.7060  -4.6675  -4.6207  -4.4304  -4.3682
    -4.3462  -4.2264  -3.9753  -3.9247  -3.8422  -3.6821  -3.5806  -3.5109
    -3.4367  -3.3856  -3.3709  -3.2958  -3.2657  -2.8941  -2.7942  -2.7450
    -2.7086  -2.6075  -2.5685  -2.5495  -2.3770  -2.3196  -2.1818  -2.1530
    -2.1319  -1.9755  -1.8474  -1.7239  -1.6976  -1.6361  -1.5574  -1.4548
    -1.4103  -1.2133  -1.1243  -1.0322  -0.9219  -0.6847  -0.4583  -0.3806
    -0.1124  -0.0642   0.0237   0.0800   0.1211   0.5920   0.6270   0.6655
     1.2034   1.4456   1.6828   1.7837   1.8541   2.1040   2.3403   2.4720
     2.4976   2.5449   2.5617   2.6622   2.7015   2.9876

     the Fermi energy is     0.8660 ev

!    total energy              =    -563.16731077 Ry
     Harris-Foulkes estimate   =    -563.16731076 Ry
     estimated scf accuracy    <       0.00000059 Ry

     The total energy is the sum of the following terms:

     one-electron contribution =   -3702.85016737 Ry
     hartree contribution      =    1902.51148200 Ry
     xc contribution           =    -222.89237445 Ry
     ewald contribution        =    1460.05231208 Ry
     smearing contrib. (-TS)   =       0.01143698 Ry

     convergence has been achieved in  24 iterations

     negative rho (up, down):  1.189E-03 0.000E+00

     Forces acting on atoms (cartesian axes, Ry/au):

     atom    1 type  1   force =     0.00930164    0.01259360   -0.00669678
     atom    2 type  1   force =     0.00653138    0.01056255   -0.00106947
     atom    3 type  1   force =    -0.00876609   -0.00486842    0.00568365
     atom    4 type  1   force =     0.01691753   -0.00284674    0.01581964
     atom    5 type  1   force =     0.00863997   -0.01789363   -0.00855313
     atom    6 type  1   force =    -0.02241548   -0.00111112   -0.01301084
     atom    7 type  1   force =    -0.00146351    0.02106780   -0.00377793
     atom    8 type  1   force =    -0.03383997    0.00188611    0.02401231
     atom    9 type  2   force =     0.01999383    0.00323844   -0.01783864
     atom   10 type  2   force =    -0.01892922   -0.00206890   -0.02702431
     atom   11 type  2   force =    -0.01373196   -0.00924177   -0.01499203
     atom   12 type  2   force =     0.00814629   -0.00565970   -0.01690171
     atom   13 type  2   force =     0.01239192    0.01087393    0.01824160
     atom   14 type  2   force =    -0.00398229    0.00224929    0.02359249
     atom   15 type  2   force =     0.01497865   -0.00144962    0.01927320
     atom   16 type  2   force =     0.01621165   -0.03766649   -0.00996885
     atom   17 type  2   force =     0.00523984    0.00418904    0.00038385
     atom   18 type  2   force =     0.00067336   -0.01519049   -0.01147490
     atom   19 type  2   force =     0.00247523    0.02067549   -0.01905027
     atom   20 type  2   force =     0.00121134    0.01251556   -0.02240841
     atom   21 type  2   force =    -0.00035617    0.00615633    0.01309300
     atom   22 type  2   force =    -0.01892871   -0.00677240    0.01984439
     atom   23 type  2   force =    -0.01948597    0.00211579    0.01927215
     atom   24 type  2   force =     0.01918673   -0.00335466    0.01355103

     Total force =     0.122087     Total SCF correction =     0.001382

     General routines

     Parallel routines

   This run was terminated on:  16: 5:42  18Oct2021

   JOB DONE.