     Program PWSCF v.6.4 starts on  3Aug2021 at 21:10:30

     R & G space division:  proc/nbgrp/npool/nimage =      40
     Waiting for input...
     Reading input from standard input
Warning: card    &IONS ignored
Warning: card      ION_DYNAMICS = 'BFGS' ignored
Warning: card   / ignored
Warning: card    &CELL ignored
Warning: card      CELL_DYNAMICS = 'BFGS', ignored
Warning: card    / ignored

     Current dimensions of program PWSCF are:
     Max number of different atomic species (ntypx) = 10
     Max number of k-points (npk) =  40000
     Max angular momentum in pseudopotentials (lmaxx) =  3

     bravais-lattice index     =            0
     lattice parameter (alat)  =      12.6709  a.u.
     unit-cell volume          =    3857.6586 (a.u.)^3
     number of atoms/cell      =           24
     number of atomic types    =            2
     number of electrons       =       144.00
     number of Kohn-Sham states=           86
     kinetic-energy cutoff     =      45.0000  Ry
     charge density cutoff     =     360.0000  Ry
     convergence threshold     =      1.0E-06
     mixing beta               =       0.7000
     number of iterations used =            8  local-TF  mixing
     Exchange-correlation      = SLA PW GGX GGC ( 1  4  2  2 0 0)

     celldm(1)=  12.670855  celldm(2)=   0.000000  celldm(3)=   0.000000
     celldm(4)=   0.000000  celldm(5)=   0.000000  celldm(6)=   0.000000

     crystal axes: (cart. coord. in units of alat)
               a(1) = (   1.000000   0.000000   0.000000 )
               a(2) = (  -0.250000   0.433013   0.000000 )
               a(3) = (   0.000000   0.000000   4.379307 )

     reciprocal axes: (cart. coord. in units 2 pi/alat)
               b(1) = (  1.000000  0.577350  0.000000 )
               b(2) = (  0.000000  2.309401  0.000000 )
               b(3) = (  0.000000  0.000000  0.228347 )

     PseudoPot. # 1 for Mo read from file:
     ~/pseudo/Mo.pw91-n-van.UPF
     MD5 check sum: Not computed, couldn't open file
     Pseudo is Ultrasoft + core correction, Zval =  6.0
     Generated by new atomic code, or converted to UPF format
     Using radial grid of  965 points,  3 beta functions with:
                l(1) =   1
                l(2) =   2
                l(3) =   2
     Q(r) pseudized with  8 coefficients,  rinner =    1.000   1.000   1.000
                                                       1.200   1.200

     PseudoPot. # 2 for S  read from file:
     ~/pseudo/S.pw91-van_ak.UPF
     MD5 check sum: Not computed, couldn't open file
     Pseudo is Ultrasoft, Zval =  6.0
     Generated by new atomic code, or converted to UPF format
     Using radial grid of  811 points,  6 beta functions with:
                l(1) =   0
                l(2) =   0
                l(3) =   1
                l(4) =   1
                l(5) =   2
                l(6) =   2
     Q(r) pseudized with  8 coefficients,  rinner =    1.100   1.100   1.100
                                                       1.100   1.100

     atomic species   valence    mass     pseudopotential
        Mo             6.00    95.50000     Mo( 1.00)
        S              6.00    32.06500     S ( 1.00)

     No symmetry found

   Cartesian axes

     site n.     atom                  positions (alat units)
         1           Mo  tau(   1) = (  -0.0154951  -0.0210812   1.6565645  )
         2           Mo  tau(   2) = (   0.0174244   0.0113929   3.8532547  )
         3           Mo  tau(   3) = (   0.4903188   0.0087017   1.6690778  )
         4           Mo  tau(   4) = (   0.4736862  -0.0092849   3.8424331  )
         5           Mo  tau(   5) = (  -0.0259867   0.0121099   0.5556443  )
         6           Mo  tau(   6) = (  -0.0017445  -0.0294179   2.7416762  )
         7           Mo  tau(   7) = (   0.5013903   0.0000943   0.5772087  )
         8           Mo  tau(   8) = (   0.4992233   0.0053734   2.7077372  )
         9           S   tau(   9) = (   0.2364045   0.1631549   1.8687723  )
        10           S   tau(  10) = (   0.2616400   0.1601979   4.0547343  )
        11           S   tau(  11) = (   0.7726046   0.1519695   1.9054035  )
        12           S   tau(  12) = (   0.7528136   0.1715912   4.0889453  )
        13           S   tau(  13) = (   0.0208349   0.2934643   0.3229531  )
        14           S   tau(  14) = (  -0.0045399   0.2736717   2.5171829  )
        15           S   tau(  15) = (   0.5028792   0.2600628   0.2942317  )
        16           S   tau(  16) = (   0.5106590   0.2806208   2.5184745  )
        17           S   tau(  17) = (  -0.0033537   0.2872699   0.8222797  )
        18           S   tau(  18) = (  -0.0076385   0.2956022   2.9543388  )
        19           S   tau(  19) = (   0.5124913   0.2640671   0.8039926  )
        20           S   tau(  20) = (   0.5062346   0.3174789   2.9869304  )
        21           S   tau(  21) = (   0.2427622   0.1645020   1.3762258  )
        22           S   tau(  22) = (   0.2507952   0.1271028   3.5623008  )
        23           S   tau(  23) = (   0.7515953   0.1521124   1.4257318  )
        24           S   tau(  24) = (   0.7526013   0.1337188   3.6143849  )

     number of k points=    14  Marzari-Vanderbilt smearing, width (Ry)=  0.0200
                       cart. coord. in units 2pi/alat
        k(    1) = (   0.0000000   0.0000000   0.0000000), wk =   0.1333333
        k(    2) = (   0.0000000   0.4618802   0.0000000), wk =   0.1333333
        k(    3) = (   0.0000000   0.9237605   0.0000000), wk =   0.1333333
        k(    4) = (   0.3333333   0.1924501   0.0000000), wk =   0.2666667
        k(    5) = (   0.3333333   0.6543303   0.0000000), wk =   0.1333333
        k(    6) = (   0.3333333   1.1162106   0.0000000), wk =   0.1333333
        k(    7) = (   0.3333333  -0.7313104   0.0000000), wk =   0.1333333
        k(    8) = (   0.3333333  -0.2694301   0.0000000), wk =   0.1333333
        k(    9) = (   0.4000000  -0.2309401   0.0000000), wk =   0.1333333
        k(   10) = (   0.8000000  -0.4618802   0.0000000), wk =   0.1333333
        k(   11) = (   0.7333333  -0.0384900   0.0000000), wk =   0.1333333
        k(   12) = (   1.1333333  -0.2694301   0.0000000), wk =   0.1333333
        k(   13) = (  -0.4666667   0.6543303   0.0000000), wk =   0.1333333
        k(   14) = (  -0.0666667   0.4233902   0.0000000), wk =   0.1333333

     Initial potential from superposition of free atoms

     starting charge  143.98738, renormalised to  144.00000
     Starting wfcs are  136 randomized atomic wfcs

     Self-consistent Calculation

     iteration #  1     ecut=    45.00 Ry     beta= 0.70
     Davidson diagonalization with overlap
     ethr =  1.00E-02,  avg # of iterations =  2.0

     total energy              =    -561.91556444 Ry
     Harris-Foulkes estimate   =    -564.20373393 Ry
     estimated scf accuracy    <       6.15644089 Ry

[...]

     iteration #  9     ecut=    45.00 Ry     beta= 0.70
     Davidson diagonalization with overlap
     c_bands:  1 eigenvalues not converged
     ethr =  3.30E-06,  avg # of iterations =  4.4

[...]

     iteration # 11     ecut=    45.00 Ry     beta= 0.70
     Davidson diagonalization with overlap
     c_bands:  1 eigenvalues not converged
     ethr =  5.69E-07,  avg # of iterations =  5.4

[...]

     total energy              =    -563.13955261 Ry
     Harris-Foulkes estimate   =    -563.13955271 Ry
     estimated scf accuracy    <       0.00000120 Ry

     iteration # 20     ecut=    45.00 Ry     beta= 0.70
     Davidson diagonalization with overlap
     ethr =  8.31E-10,  avg # of iterations =  1.0

     End of self-consistent calculation

          k = 0.0000 0.0000 0.0000 ( 19681 PWs)   bands (ev):

    -9.4186  -8.9471  -8.7882  -8.3485  -8.1967  -7.8643  -7.8158  -7.7917
    -7.5216  -7.4238  -7.3780  -7.3716  -6.8974  -6.8884  -6.7458  -6.6887
    -1.0867  -0.7334  -0.6021  -0.3723  -0.3100  -0.2768  -0.0370   0.1118
     0.1972   0.4672   0.4757   0.5356   0.8468   0.8562   0.8934   0.9555
     1.0038   1.3048   1.3215   1.4745   1.5432   2.1379   2.1441   2.1707
     2.1940   2.2134   2.3557   2.4849   2.5290   2.6217   2.8139   2.8473
     2.9138   2.9748   3.1292   3.1666   3.2063   3.2732   3.3749   3.3843
     3.5457   3.6982   3.7426   3.7855   3.8905   3.9479   4.0600   4.2330
     4.3321   4.5302   4.5732   4.8019   4.8534   4.9547   4.9964   5.1900
     5.5607   6.0890   6.2276   6.2582   6.3118   6.3447   6.3549   6.3956
     6.4813   6.5168   6.5313   6.6925   6.7355   6.7622

[...]

          k = 1.1333-0.2694 0.0000 ( 19693 PWs)   bands (ev):

[...]

          k =-0.4667 0.6543 0.0000 ( 19650 PWs)   bands (ev):

[...]

          k =-0.0667 0.4234 0.0000 ( 19659 PWs)   bands (ev):

    -9.0751  -8.6438  -8.4263  -8.1132  -7.9897  -7.7359  -7.6774  -7.6613
    -7.3663  -7.3547  -7.2987  -7.2458  -6.8503  -6.8384  -6.6848  -6.6070
    -0.6705  -0.3826  -0.2262  -0.1388  -0.0627   0.0309   0.1890   0.2525
     0.3169   0.4396   0.5402   0.5781   0.7156   0.7164   0.9303   1.1195
     1.2022   1.2693   1.2820   1.5527   1.5591   1.6126   1.6549   1.8212
     1.8786   2.0212   2.0886   2.2108   2.2727   2.2751   2.4442   2.4553
     2.4854   2.5485   2.5659   2.7087   2.8155   2.8841   2.9236   3.0796
     3.1683   3.2335   3.3486   3.4399   3.5732   3.6907   3.7423   3.9493
     3.9716   4.1407   4.3112   4.4090   4.5254   4.5735   4.6482   4.7788
     5.6824   5.8107   5.8914   6.1353   6.1786   6.2413   6.3739   6.3863
     6.5031   6.6574   6.6622   6.7119   6.7938   6.8301

     the Fermi energy is     5.1133 ev

!    total energy              =    -563.13955179 Ry
     Harris-Foulkes estimate   =    -563.13955265 Ry
     estimated scf accuracy    <       0.00000087 Ry

     The total energy is the sum of the following terms:

     one-electron contribution =    -120.41494503 Ry
     hartree contribution      =     134.04434550 Ry
     xc contribution           =    -221.24902910 Ry
     ewald contribution        =    -355.53205960 Ry
     smearing contrib. (-TS)   =       0.01213643 Ry

     convergence has been achieved in  20 iterations

     Forces acting on atoms (cartesian axes, Ry/au):

     atom    1 type  1   force =     0.07223123    0.12037260   -0.01413865
     atom    2 type  1   force =    -0.07643475   -0.02712226   -0.08606903
     atom    3 type  1   force =     0.02715840    0.04419171   -0.14862404
     atom    4 type  1   force =     0.11789579    0.06884014   -0.15489813
     atom    5 type  1   force =     0.09372614   -0.05432291    0.01194570
     atom    6 type  1   force =    -0.00849807    0.15668992    0.01259463
     atom    7 type  1   force =     0.02164078   -0.06851914   -0.07420471
     atom    8 type  1   force =     0.00136870   -0.07617112    0.20765334
     atom    9 type  2   force =    -0.00488950   -0.05318197    0.04490110
     atom   10 type  2   force =    -0.02311536   -0.02999022    0.10555389
     atom   11 type  2   force =    -0.05950829   -0.03658741   -0.02530460
     atom   12 type  2   force =    -0.00039618   -0.03986106   -0.03569758
     atom   13 type  2   force =    -0.06041184    0.00935574    0.06132153
     atom   14 type  2   force =     0.01032249   -0.02890077   -0.06300554
     atom   15 type  2   force =    -0.00455893    0.03743383    0.11297306
     atom   16 type  2   force =    -0.03185792    0.04930485   -0.12940042
     atom   17 type  2   force =    -0.02068729    0.01232671   -0.09485614
     atom   18 type  2   force =     0.07437934   -0.04922630    0.03057798
     atom   19 type  2   force =    -0.02908608    0.06340745   -0.01704226
     atom   20 type  2   force =    -0.04571129   -0.05124484   -0.05875638
     atom   21 type  2   force =    -0.00310929   -0.01573178    0.12897340
     atom   22 type  2   force =    -0.01481166    0.01134831    0.11049184
     atom   23 type  2   force =    -0.03231085   -0.05901985    0.01362414
     atom   24 type  2   force =    -0.00333557    0.01660836    0.06138686

     Total force =     0.583249     Total SCF correction =     0.002836

     General routines

     Parallel routines

   This run was terminated on:  21:12:42   3Aug2021

   JOB DONE.