     Program PWSCF v.6.4 starts on 28Nov2021 at 10: 6:53

     R & G space division:  proc/nbgrp/npool/nimage =      40
     Waiting for input...
     Reading input from standard input
Warning: card    &IONS ignored
Warning: card      ION_DYNAMICS = 'BFGS' ignored
Warning: card   / ignored
Warning: card    &CELL ignored
Warning: card      CELL_DYNAMICS = 'BFGS', ignored
Warning: card    / ignored

     Current dimensions of program PWSCF are:
     Max number of different atomic species (ntypx) = 10
     Max number of k-points (npk) =  40000
     Max angular momentum in pseudopotentials (lmaxx) =  3

     bravais-lattice index     =            0
     lattice parameter (alat)  =      11.2269  a.u.
     unit-cell volume          =    3533.0430 (a.u.)^3
     number of atoms/cell      =           27
     number of atomic types    =            2
     number of electrons       =       162.00
     number of Kohn-Sham states=           97
     kinetic-energy cutoff     =      45.0000  Ry
     charge density cutoff     =     360.0000  Ry
     convergence threshold     =      1.0E-06
     mixing beta               =       0.7000
     number of iterations used =            8  local-TF  mixing
     Exchange-correlation      = SLA PW GGX GGC ( 1  4  2  2 0 0)

     celldm(1)=  11.226894  celldm(2)=   0.000000  celldm(3)=   0.000000
     celldm(4)=   0.000000  celldm(5)=   0.000000  celldm(6)=   0.000000

     crystal axes: (cart. coord. in units of alat)
               a(1) = (   0.999913  -0.007460  -0.010873 )
               a(2) = (  -0.026012   1.473683  -0.010546 )
               a(3) = (  -0.062460   0.378668   1.692476 )

     reciprocal axes: (cart. coord. in units 2 pi/alat)
               b(1) = (  1.000578  0.017897  0.032922 )
               b(2) = (  0.003408  0.677548 -0.151466 )
               b(3) = (  0.006449  0.004337  0.590118 )

     PseudoPot. # 1 for Mo read from file:
     ~/pseudo/Mo.pw91-n-van.UPF
     MD5 check sum: Not computed, couldn't open file
     Pseudo is Ultrasoft + core correction, Zval =  6.0
     Generated by new atomic code, or converted to UPF format
     Using radial grid of  965 points,  3 beta functions with:
                l(1) =   1
                l(2) =   2
                l(3) =   2
     Q(r) pseudized with  8 coefficients,  rinner =    1.000   1.000   1.000
                                                       1.200   1.200

     PseudoPot. # 2 for S  read from file:
     ~/pseudo/S.pw91-van_ak.UPF
     MD5 check sum: Not computed, couldn't open file
     Pseudo is Ultrasoft, Zval =  6.0
     Generated by new atomic code, or converted to UPF format
     Using radial grid of  811 points,  6 beta functions with:
                l(1) =   0
                l(2) =   0
                l(3) =   1
                l(4) =   1
                l(5) =   2
                l(6) =   2
     Q(r) pseudized with  8 coefficients,  rinner =    1.100   1.100   1.100
                                                       1.100   1.100

     atomic species   valence    mass     pseudopotential
        Mo             6.00    95.50000     Mo( 1.00)
        S              6.00    32.06500     S ( 1.00)

     No symmetry found

   Cartesian axes

     site n.     atom                  positions (alat units)
         1           Mo  tau(   1) = (   0.8646237   0.9960949   0.6779238  )
         2           Mo  tau(   2) = (   0.9271839   0.8980457   0.1412470  )
         3           Mo  tau(   3) = (   0.8810452   0.5013624   0.5210579  )
         4           Mo  tau(   4) = (   0.8758042   1.6952033   1.3211882  )
         5           Mo  tau(   5) = (  -0.0875409   0.6045020   1.0028191  )
         6           Mo  tau(   6) = (   0.9071683   1.6088312   0.8262333  )
         7           Mo  tau(   7) = (   0.3513572   0.7942093   1.6216705  )
         8           Mo  tau(   8) = (   0.3816065   1.1529473   1.2273436  )
         9           Mo  tau(   9) = (   0.4756852   1.4469182   0.1761991  )
        10           S   tau(  10) = (   0.6131505   0.4020225   0.7983395  )
        11           S   tau(  11) = (   0.1617906   1.2521316   0.8241630  )
        12           S   tau(  12) = (   0.5993431   1.1035014   1.5683600  )
        13           S   tau(  13) = (   0.1919491   0.3203361   1.0934309  )
        14           S   tau(  14) = (   0.6841376   0.9244454   1.0069835  )
        15           S   tau(  15) = (   0.6423583   1.3317650   0.5621695  )
        16           S   tau(  16) = (   0.6670404   1.5984643   1.6778508  )
        17           S   tau(  17) = (   0.1892312   0.8151050   1.2567292  )
        18           S   tau(  18) = (   0.1490572   0.5912585   0.1209002  )
        19           S   tau(  19) = (   0.2154246   1.1398959   0.2677450  )
        20           S   tau(  20) = (   0.1164891   0.1839128   0.4824031  )
        21           S   tau(  21) = (   0.1142413   1.3696405   1.3860007  )
        22           S   tau(  22) = (   0.6239697   0.8161265   0.4172237  )
        23           S   tau(  23) = (   0.6469563   1.4632843   1.0944648  )
        24           S   tau(  24) = (   0.1474653   0.4423982   1.6347665  )
        25           S   tau(  25) = (   0.1687584   0.7297030   0.7265764  )
        26           S   tau(  26) = (   0.6306228   0.4923964   1.4114289  )
        27           S   tau(  27) = (   0.6552023   0.3111967   0.2388702  )

     number of k points=     8  Marzari-Vanderbilt smearing, width (Ry)=  0.0200
                       cart. coord. in units 2pi/alat
        k(    1) = (   0.0000000   0.0000000   0.0000000), wk =   0.1666667
        k(    2) = (  -0.0032247  -0.0021684  -0.2950591), wk =   0.1666667
        k(    3) = (  -0.0017041  -0.3387742   0.0757332), wk =   0.1666667
        k(    4) = (  -0.0049288  -0.3409426  -0.2193259), wk =   0.1666667
        k(    5) = (   0.3335262   0.0059655   0.0109739), wk =   0.3333333
        k(    6) = (   0.3303015   0.0037972  -0.2840852), wk =   0.3333333
        k(    7) = (   0.3318221  -0.3328087   0.0867070), wk =   0.3333333
        k(    8) = (   0.3285974  -0.3349770  -0.2083520), wk =   0.3333333

     Initial potential from superposition of free atoms

     starting charge  161.98581, renormalised to  162.00000
     Starting wfcs are  153 randomized atomic wfcs

     Self-consistent Calculation

     iteration #  1     ecut=    45.00 Ry     beta= 0.70
     Davidson diagonalization with overlap
     ethr =  1.00E-02,  avg # of iterations =  2.0

     total energy              =    -631.89945751 Ry
     Harris-Foulkes estimate   =    -634.34011827 Ry
     estimated scf accuracy    <       6.30873258 Ry

[...]

     total energy              =    -633.21973237 Ry
     Harris-Foulkes estimate   =    -633.21973261 Ry
     estimated scf accuracy    <       0.00000127 Ry

     iteration # 15     ecut=    45.00 Ry     beta= 0.70
     Davidson diagonalization with overlap
     ethr =  7.86E-10,  avg # of iterations =  4.0

     End of self-consistent calculation

          k = 0.0000 0.0000 0.0000 ( 17999 PWs)   bands (ev):

    -6.8048  -6.0861  -5.9431  -5.6307  -5.6176  -5.4646  -5.4175  -5.3017
    -5.2674  -5.2169  -5.1624  -5.0998  -4.9336  -4.8899  -4.6610  -4.5477
    -4.4006  -4.2157   1.2075   1.7897   1.8616   2.0487   2.0955   2.1847
     2.2781   2.3176   2.3523   2.3834   2.4169   2.6252   2.6618   2.7849
     2.8581   2.9149   2.9776   3.0902   3.2636   3.3322   3.3801   3.4326
     3.5011   3.6300   3.6705   3.7243   3.7844   3.8581   3.9906   4.0194
     4.1192   4.2276   4.3012   4.3561   4.3950   4.5936   4.6570   4.7695
     4.8842   4.9996   5.1229   5.2100   5.3304   5.3815   5.4011   5.5888
     5.7647   5.8720   5.9407   6.0904   6.2182   6.3278   6.4190   6.4991
     6.6573   6.7100   6.8480   6.9661   7.1460   7.1849   7.4106   7.5442
     7.6893   7.8478   7.8892   7.9525   8.1180   8.2299   8.5103   8.5516
     8.6116   8.7695   8.8174   8.8331   9.0212   9.0479   9.1186   9.1745
     9.3088

          k =-0.0032-0.0022-0.2951 ( 17972 PWs)   bands (ev):

[...]

          k =-0.0049-0.3409-0.2193 ( 17950 PWs)   bands (ev):

[...]

          k = 0.3286-0.3350-0.2084 ( 18019 PWs)   bands (ev):

    -6.3016  -6.1761  -5.9665  -5.8283  -5.6344  -5.5836  -5.4699  -5.4093
    -5.3337  -5.2606  -5.1744  -5.0092  -4.9144  -4.8680  -4.6635  -4.5944
    -4.4101  -4.2147   1.5382   1.7098   1.8069   1.8547   1.8992   2.1090
     2.1794   2.2252   2.3311   2.4144   2.4595   2.5535   2.6208   2.7288
     2.8340   2.9710   3.1450   3.2039   3.3028   3.4107   3.4725   3.5244
     3.5924   3.6924   3.7504   3.8198   3.9019   3.9625   4.0478   4.1455
     4.2037   4.2475   4.3568   4.4625   4.5070   4.6181   4.6973   4.8291
     4.9114   5.0175   5.1349   5.1926   5.2775   5.4040   5.5661   5.5994
     5.7040   5.7941   5.9311   6.0427   6.1091   6.2397   6.3131   6.4055
     6.4931   6.5895   6.7891   6.8767   7.1339   7.1845   7.3628   7.5057
     7.6830   7.7040   7.7743   7.9508   8.0134   8.2010   8.3942   8.5349
     8.6194   8.6825   8.7868   8.8634   9.0615   9.0963   9.1845   9.2653
     9.3681

     the Fermi energy is     7.6502 ev

!    total energy              =    -633.21973233 Ry
     Harris-Foulkes estimate   =    -633.21973260 Ry
     estimated scf accuracy    <       0.00000030 Ry

     The total energy is the sum of the following terms:

     one-electron contribution =      69.85495145 Ry
     hartree contribution      =      62.56320461 Ry
     xc contribution           =    -250.13557429 Ry
     ewald contribution        =    -515.50287902 Ry
     smearing contrib. (-TS)   =       0.00056492 Ry

     convergence has been achieved in  15 iterations

     Forces acting on atoms (cartesian axes, Ry/au):

     atom    1 type  1   force =     0.01866398    0.00271990    0.01101569
     atom    2 type  1   force =    -0.01703860   -0.00932199    0.01049558
     atom    3 type  1   force =     0.02522366    0.05436081   -0.01220116
     atom    4 type  1   force =    -0.02478011    0.00450001    0.02141909
     atom    5 type  1   force =    -0.00356999   -0.03523729    0.01800955
     atom    6 type  1   force =    -0.02623348   -0.01639383   -0.03398942
     atom    7 type  1   force =     0.01094959   -0.03057857   -0.03179848
     atom    8 type  1   force =     0.02316889   -0.00548392    0.00883303
     atom    9 type  1   force =    -0.03881444   -0.05666566    0.01354389
     atom   10 type  2   force =     0.02692873   -0.00089230   -0.00539357
     atom   11 type  2   force =    -0.00012502    0.01999642    0.03404673
     atom   12 type  2   force =     0.00621971    0.00700113   -0.02594654
     atom   13 type  2   force =     0.02344292    0.00264234   -0.02829699
     atom   14 type  2   force =    -0.03626050    0.03432721   -0.00412984
     atom   15 type  2   force =     0.02014230    0.00826387   -0.00149762
     atom   16 type  2   force =     0.00552874   -0.00835540    0.00273580
     atom   17 type  2   force =    -0.01644746    0.00636578   -0.01577258
     atom   18 type  2   force =    -0.00798697    0.00874438    0.02954467
     atom   19 type  2   force =     0.00177388   -0.01811493    0.01238510
     atom   20 type  2   force =    -0.00543305    0.01270953    0.04252966
     atom   21 type  2   force =    -0.02280719    0.00981343    0.04192727
     atom   22 type  2   force =     0.02092515   -0.00620067   -0.03012413
     atom   23 type  2   force =    -0.02109752   -0.01991006    0.02276650
     atom   24 type  2   force =    -0.01423217   -0.02022999   -0.01127766
     atom   25 type  2   force =    -0.00131556   -0.00874281   -0.02362086
     atom   26 type  2   force =     0.02803099    0.03027759   -0.05501432
     atom   27 type  2   force =     0.02514349    0.03440502    0.00981059

     Total force =     0.204497     Total SCF correction =     0.000904

     General routines

     Parallel routines

   This run was terminated on:  10: 8: 9  28Nov2021

   JOB DONE.