     Program PWSCF v.6.4 starts on 24Dec2021 at 20:59:13

     R & G space division:  proc/nbgrp/npool/nimage =      40
     Waiting for input...
     Reading input from standard input
Warning: card    &IONS ignored
Warning: card      ION_DYNAMICS = 'BFGS' ignored
Warning: card   / ignored
Warning: card    &CELL ignored
Warning: card      CELL_DYNAMICS = 'BFGS', ignored
Warning: card    / ignored

     Current dimensions of program PWSCF are:
     Max number of different atomic species (ntypx) = 10
     Max number of k-points (npk) =  40000
     Max angular momentum in pseudopotentials (lmaxx) =  3

     bravais-lattice index     =            0
     lattice parameter (alat)  =      18.5524  a.u.
     unit-cell volume          =    6751.7254 (a.u.)^3
     number of atoms/cell      =           42
     number of atomic types    =            2
     number of electrons       =       252.00
     number of Kohn-Sham states=          151
     kinetic-energy cutoff     =      45.0000  Ry
     charge density cutoff     =     360.0000  Ry
     convergence threshold     =      1.0E-06
     mixing beta               =       0.7000
     number of iterations used =            8  local-TF  mixing
     Exchange-correlation      = SLA PW GGX GGC ( 1  4  2  2 0 0)

     celldm(1)=  18.552437  celldm(2)=   0.000000  celldm(3)=   0.000000
     celldm(4)=   0.000000  celldm(5)=   0.000000  celldm(6)=   0.000000

     crystal axes: (cart. coord. in units of alat)
               a(1) = (   1.000000   0.000000   0.000000 )
               a(2) = (   0.054762   0.992992   0.000000 )
               a(3) = (   0.188576   0.123437   1.064796 )

     reciprocal axes: (cart. coord. in units 2 pi/alat)
               b(1) = (  1.000000 -0.055148 -0.170708 )
               b(2) = (  0.000000  1.007058 -0.116744 )
               b(3) = (  0.000000  0.000000  0.939147 )

     PseudoPot. # 1 for Mo read from file:
     ~/pseudo/Mo.pw91-n-van.UPF
     MD5 check sum: Not computed, couldn't open file
     Pseudo is Ultrasoft + core correction, Zval =  6.0
     Generated by new atomic code, or converted to UPF format
     Using radial grid of  965 points,  3 beta functions with:
                l(1) =   1
                l(2) =   2
                l(3) =   2
     Q(r) pseudized with  8 coefficients,  rinner =    1.000   1.000   1.000
                                                       1.200   1.200

     PseudoPot. # 2 for S  read from file:
     ~/pseudo/S.pw91-van_ak.UPF
     MD5 check sum: Not computed, couldn't open file
     Pseudo is Ultrasoft, Zval =  6.0
     Generated by new atomic code, or converted to UPF format
     Using radial grid of  811 points,  6 beta functions with:
                l(1) =   0
                l(2) =   0
                l(3) =   1
                l(4) =   1
                l(5) =   2
                l(6) =   2
     Q(r) pseudized with  8 coefficients,  rinner =    1.100   1.100   1.100
                                                       1.100   1.100

     atomic species   valence    mass     pseudopotential
        Mo             6.00    95.50000     Mo( 1.00)
        S              6.00    32.06500     S ( 1.00)

     No symmetry found

   Cartesian axes

     site n.     atom                  positions (alat units)
         1           Mo  tau(   1) = (   0.6778509   0.1427643   0.4126668  )
         2           Mo  tau(   2) = (   0.7043164   0.4211396   0.1587376  )
         3           Mo  tau(   3) = (   0.9119073   0.1795527   0.2152586  )
         4           Mo  tau(   4) = (   0.9321751   0.4157913   0.3822070  )
         5           Mo  tau(   5) = (   0.2027151   0.6670112   0.4164354  )
         6           Mo  tau(   6) = (   0.2591106   0.8940681   0.2225211  )
         7           Mo  tau(   7) = (   0.4981357   0.6545121   0.1440408  )
         8           Mo  tau(   8) = (   0.5135154   0.9223273   0.4151371  )
         9           Mo  tau(   9) = (   0.1800275   0.4545925   0.6142007  )
        10           Mo  tau(  10) = (   0.4666556   0.1421000   0.6130156  )
        11           Mo  tau(  11) = (   0.6387165   0.5698450   1.0174493  )
        12           Mo  tau(  12) = (   0.8505240   0.7375142   0.9544082  )
        13           Mo  tau(  13) = (   0.7335366   0.9205500   0.6077060  )
        14           Mo  tau(  14) = (   0.9818848   0.6633092   0.6068582  )
        15           S   tau(  15) = (   0.6853392   0.1656595   0.1583743  )
        16           S   tau(  16) = (   0.6835375   0.3997090   0.4087097  )
        17           S   tau(  17) = (   0.1867268   0.4146720   0.3831981  )
        18           S   tau(  18) = (   0.1614001   0.1400298   0.1678690  )
        19           S   tau(  19) = (   0.4461149   0.4119120   0.1830813  )
        20           S   tau(  20) = (   0.4260236   0.1687457   0.3838647  )
        21           S   tau(  21) = (   0.4219449   0.3887811   0.6310287  )
        22           S   tau(  22) = (   0.2298741   0.6704855   0.1603459  )
        23           S   tau(  23) = (   0.2502443   0.9106496   0.4472632  )
        24           S   tau(  24) = (   0.7524680   0.8935278   0.3757059  )
        25           S   tau(  25) = (   0.7443792   0.6662447   0.1023380  )
        26           S   tau(  26) = (   1.0300480   0.9475029   0.1416587  )
        27           S   tau(  27) = (   0.9617476   0.6669446   0.3725065  )
        28           S   tau(  28) = (   0.1672670   0.3083322   0.8188244  )
        29           S   tau(  29) = (   0.9305613   0.1693211   0.4446026  )
        30           S   tau(  30) = (   0.4466947   0.4523099   0.9408194  )
        31           S   tau(  31) = (   0.8603400   0.5001939   0.9715251  )
        32           S   tau(  32) = (   0.6955964   0.1606612   0.6654777  )
        33           S   tau(  33) = (   0.9412268   0.4303278   0.6371102  )
        34           S   tau(  34) = (   0.9557683   0.3947378   0.1283689  )
        35           S   tau(  35) = (   0.7387542   0.6750570   0.6683811  )
        36           S   tau(  36) = (   0.4625873   0.6742861   0.3927581  )
        37           S   tau(  37) = (   0.9302820   0.8573607   0.7530880  )
        38           S   tau(  38) = (   0.2732963   0.1337635   0.7669979  )
        39           S   tau(  39) = (   0.2151681   0.6790774   0.6634634  )
        40           S   tau(  40) = (   0.5027602   0.8967032   0.6627451  )
        41           S   tau(  41) = (   0.6244899   0.8025903   0.9714105  )
        42           S   tau(  42) = (   0.4852369   0.9056579   0.1620883  )

     number of k points=     8  Marzari-Vanderbilt smearing, width (Ry)=  0.0200
                       cart. coord. in units 2pi/alat
        k(    1) = (   0.0000000   0.0000000   0.0000000), wk =   0.2500000
        k(    2) = (   0.0000000   0.0000000  -0.4695737), wk =   0.2500000
        k(    3) = (   0.0000000  -0.5035289   0.0583719), wk =   0.2500000
        k(    4) = (   0.0000000  -0.5035289  -0.4112017), wk =   0.2500000
        k(    5) = (  -0.5000000   0.0275741   0.0853540), wk =   0.2500000
        k(    6) = (  -0.5000000   0.0275741  -0.3842197), wk =   0.2500000
        k(    7) = (  -0.5000000  -0.4759548   0.1437259), wk =   0.2500000
        k(    8) = (  -0.5000000  -0.4759548  -0.3258478), wk =   0.2500000

     Initial potential from superposition of free atoms

     starting charge  251.97792, renormalised to  252.00000
     Starting wfcs are  238 randomized atomic wfcs

     Self-consistent Calculation

     iteration #  1     ecut=    45.00 Ry     beta= 0.70
     Davidson diagonalization with overlap
     ethr =  1.00E-02,  avg # of iterations =  2.0

     total energy              =    -983.54790577 Ry
     Harris-Foulkes estimate   =    -986.78384406 Ry
     estimated scf accuracy    <       8.82362576 Ry

[...]

     total energy              =    -985.21592443 Ry
     Harris-Foulkes estimate   =    -985.21592498 Ry
     estimated scf accuracy    <       0.00000342 Ry

     iteration # 14     ecut=    45.00 Ry     beta= 0.70
     Davidson diagonalization with overlap
     ethr =  1.36E-09,  avg # of iterations =  1.0

     End of self-consistent calculation

          k = 0.0000 0.0000 0.0000 ( 34449 PWs)   bands (ev):

    -9.2783  -8.9852  -8.4824  -8.4374  -8.3770  -8.2787  -8.1890  -8.1099
    -8.0792  -7.9825  -7.9063  -7.8902  -7.8599  -7.8276  -7.7530  -7.7153
    -7.6717  -7.6585  -7.5795  -7.5691  -7.4397  -7.3436  -6.9197  -6.7036
    -6.6152  -6.4034  -5.9064  -5.3107  -0.9188  -0.7524  -0.7143  -0.6439
    -0.3486  -0.2981  -0.2323  -0.1621  -0.1297  -0.0726  -0.0072   0.0263
     0.0766   0.1785   0.2444   0.3450   0.4185   0.4290   0.4897   0.5377
     0.5726   0.6542   0.6671   0.7241   0.7386   0.7817   0.8297   0.8838
     0.8917   0.9668   1.0423   1.1145   1.1370   1.1441   1.1798   1.2288
     1.2496   1.3160   1.3305   1.4022   1.4623   1.4976   1.5169   1.5658
     1.6169   1.6319   1.6668   1.6891   1.7713   1.8136   1.8224   1.8559
     1.9120   1.9597   2.0056   2.0417   2.0529   2.2235   2.2763   2.3458
     2.3768   2.4181   2.5527   2.5845   2.7002   2.7920   2.8675   2.9207
     2.9382   3.0226   3.0973   3.1402   3.2794   3.3812   3.5171   3.5464
     3.6152   3.7210   3.7382   3.8002   3.9221   3.9798   4.0499   4.0994
     4.1767   4.2255   4.2843   4.4326   4.5022   4.5482   4.6685   4.6879
     4.7187   4.8826   4.9355   5.0267   5.0908   5.2129   5.2740   5.3929
     5.4699   5.6278   5.7234   5.8478   5.8980   6.0312   6.0868   6.2265
     6.2736   6.4688   6.4863   6.5520   6.6097   6.6718   6.7000   6.7123
     6.7778   6.8114   6.9650   6.9821   7.0832   7.1141   7.2123

[...]

          k = 0.0000-0.5035-0.4112 ( 34358 PWs)   bands (ev):

[...]

          k =-0.5000 0.0276 0.0854 ( 34456 PWs)   bands (ev):

[...]

          k =-0.5000-0.4760-0.3258 ( 34442 PWs)   bands (ev):

    -9.2532  -8.7482  -8.6740  -8.6197  -8.3921  -8.3152  -8.2009  -8.1947
    -7.9975  -7.9247  -7.9062  -7.8872  -7.8360  -7.7943  -7.7516  -7.7189
    -7.7032  -7.6403  -7.5846  -7.5217  -7.4160  -7.3448  -6.9185  -6.7002
    -6.5971  -6.3969  -5.9116  -5.3085  -0.5874  -0.5494  -0.5081  -0.4517
    -0.4098  -0.3822  -0.2466  -0.1878  -0.1471  -0.1054   0.0526   0.0672
     0.1266   0.1849   0.1947   0.2541   0.2662   0.3462   0.3677   0.3903
     0.4789   0.4841   0.5784   0.6073   0.6203   0.6986   0.7416   0.8242
     0.8414   0.8965   0.9475   0.9839   1.0077   1.0449   1.1161   1.2067
     1.2721   1.3063   1.3575   1.4020   1.4177   1.5021   1.5336   1.5457
     1.6016   1.6239   1.6539   1.7235   1.8152   1.8541   1.8783   1.8845
     1.9682   2.0246   2.0539   2.0875   2.1242   2.2255   2.2502   2.2637
     2.4378   2.5193   2.5686   2.7710   2.8433   2.8954   2.9403   2.9983
     3.0431   3.0866   3.1468   3.2184   3.2921   3.3589   3.4951   3.6077
     3.7048   3.7070   3.7797   3.8728   3.9182   4.0079   4.0812   4.1506
     4.1639   4.2378   4.2788   4.3875   4.4539   4.6165   4.6716   4.6923
     4.8014   4.9079   4.9723   5.0289   5.1089   5.2117   5.2498   5.3825
     5.4506   5.6065   5.7635   5.7762   5.8789   5.9475   6.0780   6.2330
     6.2630   6.3583   6.3794   6.4906   6.5254   6.5788   6.6137   6.6690
     6.7522   6.7976   6.9046   7.0139   7.0643   7.1022   7.1859

     the Fermi energy is     5.2456 ev

!    total energy              =    -985.21592426 Ry
     Harris-Foulkes estimate   =    -985.21592467 Ry
     estimated scf accuracy    <       0.00000059 Ry

     The total energy is the sum of the following terms:

     one-electron contribution =    -289.58186212 Ry
     hartree contribution      =     274.48938047 Ry
     xc contribution           =    -389.29147587 Ry
     ewald contribution        =    -580.83278149 Ry
     smearing contrib. (-TS)   =       0.00081475 Ry

     convergence has been achieved in  14 iterations

     Forces acting on atoms (cartesian axes, Ry/au):

     atom    1 type  1   force =     0.01521040    0.01861870   -0.00617366
     atom    2 type  1   force =     0.01191126    0.00457333    0.01221875
     atom    3 type  1   force =     0.03060788   -0.01394399   -0.02124307
     atom    4 type  1   force =    -0.01912846    0.00636594    0.00077486
     atom    5 type  1   force =     0.01663444   -0.01391213   -0.01534814
     atom    6 type  1   force =    -0.00656546    0.02593771   -0.02891940
     atom    7 type  1   force =    -0.03022774   -0.02469068   -0.02885541
     atom    8 type  1   force =    -0.03478180    0.00426018    0.00201253
     atom    9 type  1   force =     0.04149461   -0.06781265    0.03865350
     atom   10 type  1   force =    -0.04621562    0.03676774    0.04967538
     atom   11 type  1   force =    -0.10182754   -0.05509321   -0.02755547
     atom   12 type  1   force =    -0.00484344    0.00224754   -0.05138577
     atom   13 type  1   force =    -0.01750543   -0.03979272    0.04163141
     atom   14 type  1   force =    -0.05337648   -0.01940056    0.00045638
     atom   15 type  2   force =    -0.03184550   -0.01785667   -0.01111790
     atom   16 type  2   force =     0.01412766    0.02214650   -0.02024144
     atom   17 type  2   force =     0.01830636    0.00313140   -0.01998136
     atom   18 type  2   force =     0.00013297   -0.00135942   -0.00869539
     atom   19 type  2   force =     0.02737355    0.01357682    0.01170439
     atom   20 type  2   force =     0.01523692   -0.00278175   -0.01887202
     atom   21 type  2   force =    -0.01017429   -0.00667843    0.00248464
     atom   22 type  2   force =    -0.01623886   -0.02629074   -0.00862363
     atom   23 type  2   force =    -0.01123054    0.01828998    0.05082782
     atom   24 type  2   force =     0.00409219   -0.00722080   -0.02551561
     atom   25 type  2   force =     0.01725220    0.00431743    0.05153065
     atom   26 type  2   force =    -0.01192134   -0.01872976   -0.00582443
     atom   27 type  2   force =    -0.01018144    0.02307386   -0.02760869
     atom   28 type  2   force =     0.00071867   -0.00708140   -0.02172270
     atom   29 type  2   force =     0.01006797   -0.00274014    0.02037908
     atom   30 type  2   force =     0.07597796    0.04357386    0.01968173
     atom   31 type  2   force =     0.02253480   -0.02845324   -0.00909280
     atom   32 type  2   force =     0.02378639    0.02898709    0.00540558
     atom   33 type  2   force =    -0.02523641   -0.00182629    0.01466306
     atom   34 type  2   force =    -0.01180290    0.03381680    0.01299442
     atom   35 type  2   force =    -0.01527052   -0.01707274   -0.00418193
     atom   36 type  2   force =     0.00602235   -0.01756230    0.02176413
     atom   37 type  2   force =     0.04882883    0.05268976    0.02336065
     atom   38 type  2   force =     0.00783996   -0.00546037    0.00566828
     atom   39 type  2   force =     0.03430337    0.02510210    0.00878827
     atom   40 type  2   force =    -0.00267627   -0.01475308   -0.00590256
     atom   41 type  2   force =    -0.02181493    0.01198545   -0.00584421
     atom   42 type  2   force =     0.04040423    0.03105087   -0.02196994

     Total force =     0.297353     Total SCF correction =     0.001377

     General routines

     Parallel routines

   This run was terminated on:  21: 2:15  24Dec2021

   JOB DONE.