     Program PWSCF v.6.4 starts on  3Dec2021 at 17: 7:18

     R & G space division:  proc/nbgrp/npool/nimage =      40
     Waiting for input...
     Reading input from standard input
Warning: card    &IONS ignored
Warning: card      ION_DYNAMICS = 'BFGS' ignored
Warning: card   / ignored
Warning: card    &CELL ignored
Warning: card      CELL_DYNAMICS = 'BFGS', ignored
Warning: card    / ignored

     Current dimensions of program PWSCF are:
     Max number of different atomic species (ntypx) = 10
     Max number of k-points (npk) =  40000
     Max angular momentum in pseudopotentials (lmaxx) =  3

     bravais-lattice index     =            0
     lattice parameter (alat)  =      12.1026  a.u.
     unit-cell volume          =   14386.8960 (a.u.)^3
     number of atoms/cell      =           36
     number of atomic types    =            2
     number of electrons       =       216.00
     number of Kohn-Sham states=          130
     kinetic-energy cutoff     =      45.0000  Ry
     charge density cutoff     =     360.0000  Ry
     convergence threshold     =      1.0E-06
     mixing beta               =       0.7000
     number of iterations used =            8  local-TF  mixing
     Exchange-correlation      = SLA PW GGX GGC ( 1  4  2  2 0 0)

     celldm(1)=  12.102635  celldm(2)=   0.000000  celldm(3)=   0.000000
     celldm(4)=   0.000000  celldm(5)=   0.000000  celldm(6)=   0.000000

     crystal axes: (cart. coord. in units of alat)
               a(1) = (   1.000000   0.000000   0.000000 )
               a(2) = (  -0.001468   1.782371   0.000000 )
               a(3) = (  -0.712612  -0.414040   4.553330 )

     reciprocal axes: (cart. coord. in units 2 pi/alat)
               b(1) = (  1.000000  0.000823  0.156578 )
               b(2) = (  0.000000  0.561050  0.051017 )
               b(3) = (  0.000000  0.000000  0.219619 )

     PseudoPot. # 1 for Mo read from file:
     ~/pseudo/Mo.pw91-n-van.UPF
     MD5 check sum: Not computed, couldn't open file
     Pseudo is Ultrasoft + core correction, Zval =  6.0
     Generated by new atomic code, or converted to UPF format
     Using radial grid of  965 points,  3 beta functions with:
                l(1) =   1
                l(2) =   2
                l(3) =   2
     Q(r) pseudized with  8 coefficients,  rinner =    1.000   1.000   1.000
                                                       1.200   1.200

     PseudoPot. # 2 for S  read from file:
     ~/pseudo/S.pw91-van_ak.UPF
     MD5 check sum: Not computed, couldn't open file
     Pseudo is Ultrasoft, Zval =  6.0
     Generated by new atomic code, or converted to UPF format
     Using radial grid of  811 points,  6 beta functions with:
                l(1) =   0
                l(2) =   0
                l(3) =   1
                l(4) =   1
                l(5) =   2
                l(6) =   2
     Q(r) pseudized with  8 coefficients,  rinner =    1.100   1.100   1.100
                                                       1.100   1.100

     atomic species   valence    mass     pseudopotential
        Mo             6.00    95.50000     Mo( 1.00)
        S              6.00    32.06500     S ( 1.00)

     No symmetry found

   Cartesian axes

     site n.     atom                  positions (alat units)
         1           Mo  tau(   1) = (   0.2130984  -0.0607046   2.9159520  )
         2           Mo  tau(   2) = (  -0.0375917   0.3712839   2.9205351  )
         3           Mo  tau(   3) = (  -0.2871429  -0.0608848   2.9154947  )
         4           Mo  tau(   4) = (   0.4624181   0.3712275   2.9205428  )
         5           Mo  tau(   5) = (  -0.2870387   0.8090957   2.9301812  )
         6           Mo  tau(   6) = (   0.2126149   0.8089668   2.9301186  )
         7           Mo  tau(   7) = (   0.4631238   1.2583555   2.9167128  )
         8           Mo  tau(   8) = (  -0.0370596   1.2582320   2.9167707  )
         9           Mo  tau(   9) = (  -0.4066035  -0.1320254   4.3856606  )
        10           Mo  tau(  10) = (   0.0924084  -0.1312985   4.3859356  )
        11           Mo  tau(  11) = (  -0.0360121   1.2639333   2.3843034  )
        12           Mo  tau(  12) = (   0.4642805   1.2643158   2.3847824  )
        13           S   tau(  13) = (  -0.0373819   0.0782312   3.1673859  )
        14           S   tau(  14) = (   0.2130195   1.4137369   3.1592019  )
        15           S   tau(  15) = (   0.4631671   0.0783649   3.1675702  )
        16           S   tau(  16) = (  -0.2869862   1.4136796   3.1590324  )
        17           S   tau(  17) = (   0.2142255   1.0047146   2.2681808  )
        18           S   tau(  18) = (  -0.2865223   1.0050685   2.2661655  )
        19           S   tau(  19) = (  -0.0373106   0.0819107   2.6700239  )
        20           S   tau(  20) = (   0.2129811   1.4078028   2.6680618  )
        21           S   tau(  21) = (   0.4624791   0.0819946   2.6698436  )
        22           S   tau(  22) = (  -0.2867200   1.4072508   2.6671149  )
        23           S   tau(  23) = (   0.2149566   1.4398667   2.1621738  )
        24           S   tau(  24) = (  -0.2851580   1.4359757   2.1588179  )
        25           S   tau(  25) = (  -0.2875352   0.5178178   3.1721045  )
        26           S   tau(  26) = (   0.2124207   0.5175514   3.1720315  )
        27           S   tau(  27) = (  -0.2877928   0.5242396   2.6774221  )
        28           S   tau(  28) = (   0.2122427   0.5242092   2.6772812  )
        29           S   tau(  29) = (   0.4628648   0.9646097   2.6890356  )
        30           S   tau(  30) = (  -0.0371074   0.9647035   2.6887715  )
        31           S   tau(  31) = (  -0.1574255   0.0964594   4.2605646  )
        32           S   tau(  32) = (  -0.6575271  -0.2602196   4.1607856  )
        33           S   tau(  33) = (   0.4628475   0.9689378   3.1751058  )
        34           S   tau(  34) = (  -0.0369143   0.9691952   3.1753744  )
        35           S   tau(  35) = (   0.5558405   0.0559488  -0.0389426  )
        36           S   tau(  36) = (   0.0559413   0.4091905   0.0588245  )

     number of k points=     4  Marzari-Vanderbilt smearing, width (Ry)=  0.0200
                       cart. coord. in units 2pi/alat
        k(    1) = (   0.0000000   0.0000000   0.0000000), wk =   0.3333333
        k(    2) = (   0.0000000  -0.2805252  -0.0255085), wk =   0.3333333
        k(    3) = (   0.3333333   0.0002745   0.0521928), wk =   0.6666667
        k(    4) = (   0.3333333  -0.2802507   0.0266843), wk =   0.6666667

     Initial potential from superposition of free atoms

     starting charge  215.98107, renormalised to  216.00000

     negative rho (up, down):  1.542E-03 0.000E+00
     Starting wfcs are  204 randomized atomic wfcs

     Self-consistent Calculation

     iteration #  1     ecut=    45.00 Ry     beta= 0.70
     Davidson diagonalization with overlap
     ethr =  1.00E-02,  avg # of iterations =  2.5

     negative rho (up, down):  2.044E-03 0.000E+00

     total energy              =    -843.23639066 Ry
     Harris-Foulkes estimate   =    -846.28282748 Ry
     estimated scf accuracy    <       9.34876572 Ry

[...]

     total energy              =    -844.79364721 Ry
     Harris-Foulkes estimate   =    -844.79364753 Ry
     estimated scf accuracy    <       0.00000106 Ry

     iteration # 19     ecut=    45.00 Ry     beta= 0.70
     Davidson diagonalization with overlap
     ethr =  4.93E-10,  avg # of iterations =  2.2

[...]

     End of self-consistent calculation

          k = 0.0000 0.0000 0.0000 ( 73297 PWs)   bands (ev):

   -16.4991 -15.7433 -15.5684 -15.2645 -15.0836 -14.8622 -14.8554 -14.7063
   -14.5154 -14.3982 -14.3812 -14.2776 -14.2384 -14.1603 -14.1398 -14.1236
   -14.0764 -14.0302 -13.3965 -13.3903 -13.3491 -13.3399 -13.0693 -12.6305
    -8.3972  -8.1938  -8.0332  -7.8875  -7.4939  -7.3922  -7.3271  -7.1947
    -7.1549  -7.1539  -6.9357  -6.9284  -6.9181  -6.7317  -6.6132  -6.5426
    -6.1705  -6.1321  -6.0225  -6.0187  -5.9670  -5.9134  -5.7163  -5.6766
    -5.6506  -5.5949  -5.5821  -5.4427  -5.3155  -5.2970  -5.2279  -5.1168
    -5.0453  -4.9826  -4.9226  -4.9171  -4.8758  -4.8285  -4.8165  -4.7801
    -4.7044  -4.6268  -4.6089  -4.5567  -4.5276  -4.5097  -4.4140  -4.3064
    -4.2306  -4.1838  -4.0857  -3.9437  -3.9397  -3.9353  -3.8588  -3.8169
    -3.7765  -3.6965  -3.6596  -3.5380  -3.4981  -3.4766  -3.4298  -3.2780
    -3.1583  -3.0430  -2.9446  -2.9345  -2.9235  -2.9196  -2.9162  -2.8976
    -2.8634  -2.8362  -2.7062  -2.4793  -2.4078  -2.2582  -2.1425  -1.3586
    -1.3543  -1.3537  -1.2329  -1.0837  -0.9927  -0.6401  -0.5585  -0.5115
    -0.3280  -0.3150  -0.3084  -0.2649  -0.1846  -0.1505  -0.1061   0.0215
     0.0481   0.1525   0.1842   0.2992   0.3052   0.3103   0.3137   0.3290
     0.3325   0.3556

[...]

          k = 0.3333-0.2803 0.0267 ( 73455 PWs)   bands (ev):

   -16.2104 -15.7049 -15.6303 -15.1846 -15.1325 -14.9319 -14.8063 -14.6861
   -14.6079 -14.5571 -14.3895 -14.3614 -14.3241 -14.2616 -14.1591 -14.0908
   -13.9547 -13.8549 -13.5707 -13.5108 -13.3896 -13.3847 -12.9605 -12.7395
    -7.9429  -7.8958  -7.7598  -7.4848  -7.2886  -7.2792  -7.1571  -7.1552
    -7.1036  -7.0751  -6.8801  -6.8661  -6.6660  -6.6212  -6.6024  -6.2193
    -6.1334  -6.1099  -5.9722  -5.9141  -5.8993  -5.7933  -5.6598  -5.6513
    -5.6008  -5.4802  -5.4759  -5.3706  -5.3533  -5.3013  -5.2781  -5.1383
    -5.1141  -5.0714  -5.0537  -4.9946  -4.9306  -4.8874  -4.8864  -4.8695
    -4.7196  -4.7052  -4.6541  -4.6249  -4.4736  -4.4394  -4.4321  -4.3829
    -4.3646  -4.3112  -4.2732  -4.2472  -4.2389  -4.1762  -4.0638  -4.0338
    -4.0236  -3.9267  -3.8375  -3.7085  -3.6714  -3.6465  -3.5497  -3.4340
    -3.4225  -3.3322  -3.2868  -3.2306  -3.0993  -3.0784  -3.0126  -2.9872
    -2.8777  -2.8580  -2.6460  -2.6189  -2.5526  -2.5196  -2.0037  -1.4804
    -1.3735  -1.2046  -1.0149  -0.9717  -0.8268  -0.7036  -0.6497  -0.4263
    -0.3980  -0.3720  -0.3002  -0.2703  -0.2080  -0.1528  -0.1401  -0.0435
    -0.0218   0.0042   0.0260   0.0749   0.1699   0.2425   0.2668   0.2970
     0.3469   0.4666

     the Fermi energy is    -0.9289 ev

!    total energy              =    -844.79364752 Ry
     Harris-Foulkes estimate   =    -844.79364725 Ry
     estimated scf accuracy    <       0.00000054 Ry

     The total energy is the sum of the following terms:

     one-electron contribution =   -6908.84038851 Ry
     hartree contribution      =    3512.25894232 Ry
     xc contribution           =    -333.34014637 Ry
     ewald contribution        =    2885.12974428 Ry
     smearing contrib. (-TS)   =      -0.00179924 Ry

     convergence has been achieved in  19 iterations

     negative rho (up, down):  2.263E-03 0.000E+00

     Forces acting on atoms (cartesian axes, Ry/au):

     atom    1 type  1   force =    -0.00105570   -0.03664691    0.01471870
     atom    2 type  1   force =     0.00003373    0.00831265    0.01320759
     atom    3 type  1   force =     0.00123214   -0.03696556    0.01563832
     atom    4 type  1   force =     0.00027761    0.00874569    0.01322407
     atom    5 type  1   force =     0.00011558    0.03769771    0.01825255
     atom    6 type  1   force =     0.00011181    0.03727716    0.01820824
     atom    7 type  1   force =    -0.00088658   -0.00543747    0.04525637
     atom    8 type  1   force =     0.00095673   -0.00541576    0.04557844
     atom    9 type  1   force =     0.00008928   -0.00039225    0.00337947
     atom   10 type  1   force =    -0.00040056   -0.00101937    0.00324854
     atom   11 type  1   force =     0.00089741   -0.02995710   -0.06948097
     atom   12 type  1   force =    -0.00035874   -0.03036550   -0.07019808
     atom   13 type  2   force =     0.00028794    0.00100298   -0.01109067
     atom   14 type  2   force =    -0.00052612    0.01008682   -0.01195679
     atom   15 type  2   force =    -0.00049006    0.00080859   -0.01139988
     atom   16 type  2   force =    -0.00040719    0.01035633   -0.01202540
     atom   17 type  2   force =    -0.00062732    0.00087430    0.00827519
     atom   18 type  2   force =    -0.00027201   -0.00010546    0.00913556
     atom   19 type  2   force =     0.00083660    0.00655377   -0.00246332
     atom   20 type  2   force =    -0.00029744    0.04399755    0.00631077
     atom   21 type  2   force =     0.00064109    0.00648206   -0.00243136
     atom   22 type  2   force =    -0.00023784    0.04472175    0.00777990
     atom   23 type  2   force =    -0.00006409    0.02115160    0.02260907
     atom   24 type  2   force =    -0.00011590    0.02209063    0.02372215
     atom   25 type  2   force =     0.00039870   -0.00858884   -0.00811637
     atom   26 type  2   force =    -0.00020882   -0.00821851   -0.00778029
     atom   27 type  2   force =     0.00080399   -0.00597996   -0.00427458
     atom   28 type  2   force =     0.00031457   -0.00615383   -0.00416571
     atom   29 type  2   force =     0.00026681   -0.03706978   -0.00991817
     atom   30 type  2   force =    -0.00043728   -0.03695710   -0.00937189
     atom   31 type  2   force =    -0.00000503    0.01984573   -0.01288052
     atom   32 type  2   force =     0.00033421   -0.01149087   -0.02332642
     atom   33 type  2   force =    -0.00013421   -0.00543984   -0.01339408
     atom   34 type  2   force =    -0.00052009   -0.00591991   -0.01361582
     atom   35 type  2   force =    -0.00039801   -0.01890528    0.00979740
     atom   36 type  2   force =    -0.00015521    0.01102398    0.01954798

     Total force =     0.189487     Total SCF correction =     0.001515

     General routines

     Parallel routines

   This run was terminated on:  17:12:38   3Dec2021

   JOB DONE.