     Program PWSCF v.6.4 starts on  8Sep2021 at 11:56: 2

     R & G space division:  proc/nbgrp/npool/nimage =      40
     Waiting for input...
     Reading input from standard input
Warning: card    &IONS ignored
Warning: card      ION_DYNAMICS = 'BFGS' ignored
Warning: card   / ignored
Warning: card    &CELL ignored
Warning: card      CELL_DYNAMICS = 'BFGS', ignored
Warning: card    / ignored

     Current dimensions of program PWSCF are:
     Max number of different atomic species (ntypx) = 10
     Max number of k-points (npk) =  40000
     Max angular momentum in pseudopotentials (lmaxx) =  3

     bravais-lattice index     =            0
     lattice parameter (alat)  =      12.7783  a.u.
     unit-cell volume          =    6352.4878 (a.u.)^3
     number of atoms/cell      =           24
     number of atomic types    =            2
     number of electrons       =       144.00
     number of Kohn-Sham states=           86
     kinetic-energy cutoff     =      45.0000  Ry
     charge density cutoff     =     360.0000  Ry
     convergence threshold     =      1.0E-06
     mixing beta               =       0.7000
     number of iterations used =            8  local-TF  mixing
     Exchange-correlation      = SLA PW GGX GGC ( 1  4  2  2 0 0)

     celldm(1)=  12.778269  celldm(2)=   0.000000  celldm(3)=   0.000000
     celldm(4)=   0.000000  celldm(5)=   0.000000  celldm(6)=   0.000000

     crystal axes: (cart. coord. in units of alat)
               a(1) = (   0.999659  -0.010464  -0.023939 )
               a(2) = (  -0.545028   0.842814   0.011249 )
               a(3) = (  -0.084088  -0.281496   3.640887 )

     reciprocal axes: (cart. coord. in units 2 pi/alat)
               b(1) = (  1.008925  0.651465  0.073670 )
               b(2) = (  0.014727  1.194788  0.092716 )
               b(3) = (  0.006588  0.000592  0.274856 )

     PseudoPot. # 1 for Mo read from file:
     ~/pseudo/Mo.pw91-n-van.UPF
     MD5 check sum: Not computed, couldn't open file
     Pseudo is Ultrasoft + core correction, Zval =  6.0
     Generated by new atomic code, or converted to UPF format
     Using radial grid of  965 points,  3 beta functions with:
                l(1) =   1
                l(2) =   2
                l(3) =   2
     Q(r) pseudized with  8 coefficients,  rinner =    1.000   1.000   1.000
                                                       1.200   1.200

     PseudoPot. # 2 for S  read from file:
     ~/pseudo/S.pw91-van_ak.UPF
     MD5 check sum: Not computed, couldn't open file
     Pseudo is Ultrasoft, Zval =  6.0
     Generated by new atomic code, or converted to UPF format
     Using radial grid of  811 points,  6 beta functions with:
                l(1) =   0
                l(2) =   0
                l(3) =   1
                l(4) =   1
                l(5) =   2
                l(6) =   2
     Q(r) pseudized with  8 coefficients,  rinner =    1.100   1.100   1.100
                                                       1.100   1.100

     atomic species   valence    mass     pseudopotential
        Mo             6.00    95.50000     Mo( 1.00)
        S              6.00    32.06500     S ( 1.00)

     No symmetry found

   Cartesian axes

     site n.     atom                  positions (alat units)
         1           Mo  tau(   1) = (   0.2934916   0.0872463   0.6309472  )
         2           Mo  tau(   2) = (  -0.0479235   0.5411440   0.5209896  )
         3           Mo  tau(   3) = (   0.7248377   0.1155607   0.5033691  )
         4           Mo  tau(   4) = (   0.5180951   0.5008875   0.6245358  )
         5           Mo  tau(   5) = (  -0.1055342   0.0845752   3.0754831  )
         6           Mo  tau(   6) = (  -0.3289589   0.5161545   3.0626864  )
         7           Mo  tau(   7) = (   0.4128250   0.0312278   3.0469151  )
         8           Mo  tau(   8) = (   0.0933072   0.5150101   3.0540562  )
         9           S   tau(   9) = (  -0.0271855  -0.0099389   0.7713499  )
        10           S   tau(  10) = (  -0.1952499   0.6286146   0.8306758  )
        11           S   tau(  11) = (   0.5778227   0.2043926   0.8133387  )
        12           S   tau(  12) = (   0.1968806   0.4079686   0.7675696  )
        13           S   tau(  13) = (  -0.0681425  -0.2093352   3.2704234  )
        14           S   tau(  14) = (  -0.3448182   0.2212103   3.2906256  )
        15           S   tau(  15) = (   0.4348411  -0.2110252   3.3117271  )
        16           S   tau(  16) = (   0.1638524   0.2154991   3.2669950  )
        17           S   tau(  17) = (   0.0442260   0.2180192   0.3875004  )
        18           S   tau(  18) = (  -0.1039170   0.8424250   0.3323134  )
        19           S   tau(  19) = (   0.6683540   0.4148875   0.3142906  )
        20           S   tau(  20) = (   0.2696496   0.6338379   0.3802414  )
        21           S   tau(  21) = (   0.1512686  -0.0597439   2.8233103  )
        22           S   tau(  22) = (  -0.1207505   0.3514423   2.8210310  )
        23           S   tau(  23) = (   0.6576937  -0.0653748   2.8013351  )
        24           S   tau(  24) = (   0.3789721   0.3542772   2.8547870  )

     number of k points=     5  Marzari-Vanderbilt smearing, width (Ry)=  0.0200
                       cart. coord. in units 2pi/alat
        k(    1) = (   0.0000000   0.0000000   0.0000000), wk =   0.2222222
        k(    2) = (   0.0049091   0.3982626   0.0309052), wk =   0.4444444
        k(    3) = (   0.3363084   0.2171551   0.0245566), wk =   0.4444444
        k(    4) = (   0.3412175   0.6154177   0.0554618), wk =   0.4444444
        k(    5) = (   0.3313993  -0.1811075  -0.0063486), wk =   0.4444444

     Initial potential from superposition of free atoms

     starting charge  143.98738, renormalised to  144.00000

     negative rho (up, down):  7.200E-04 0.000E+00
     Starting wfcs are  136 randomized atomic wfcs

     Self-consistent Calculation

     iteration #  1     ecut=    45.00 Ry     beta= 0.70
     Davidson diagonalization with overlap
     ethr =  1.00E-02,  avg # of iterations =  2.2

     negative rho (up, down):  6.351E-05 0.000E+00

     total energy              =    -562.22988101 Ry
     Harris-Foulkes estimate   =    -564.17524824 Ry
     estimated scf accuracy    <       5.05914895 Ry

[...]

     total energy              =    -563.23297223 Ry
     Harris-Foulkes estimate   =    -563.23297288 Ry
     estimated scf accuracy    <       0.00000206 Ry

     iteration # 17     ecut=    45.00 Ry     beta= 0.70
     Davidson diagonalization with overlap
     ethr =  1.43E-09,  avg # of iterations =  3.4

[...]

     End of self-consistent calculation

          k = 0.0000 0.0000 0.0000 ( 32373 PWs)   bands (ev):

   -13.5982 -13.0434 -12.6257 -12.0695 -11.9467 -11.9452 -11.8404 -11.7614
   -11.7357 -11.6304 -11.6059 -11.4580 -11.4541 -11.3451 -11.1510 -10.6077
    -5.5631  -5.0817  -4.9052  -4.8970  -4.8669  -4.5358  -4.5175  -4.4173
    -4.3668  -4.3513  -4.2339  -3.6163  -3.5900  -3.4748  -3.4525  -3.4269
    -3.4143  -3.1265  -3.1038  -3.0623  -2.9990  -2.8580  -2.8333  -2.8241
    -2.6676  -2.6506  -2.2620  -2.2203  -2.1100  -2.1049  -2.0137  -1.7228
    -1.6044  -1.3702  -1.3170  -1.2987  -1.2475  -0.9588  -0.9160  -0.8570
    -0.8374  -0.8148  -0.7788  -0.4827  -0.3397  -0.3018  -0.2762   0.0445
     0.0705   0.0773   0.0990   0.1908   0.3614   0.5245   0.7257   0.7638
     0.9468   1.0029   1.1238   1.2627   1.9764   2.1617   2.3161   2.3544
     2.5817   2.8157   2.8347   2.9256   3.1054   3.1680

[...]

          k = 0.3314-0.1811-0.0063 ( 32351 PWs)   bands (ev):

   -13.2727 -12.7443 -12.6323 -12.2638 -12.1543 -12.1468 -12.1310 -11.8635
   -11.6510 -11.6379 -11.6059 -11.3924 -11.3458 -11.3274 -11.2706 -10.6564
    -5.0546  -5.0397  -4.8811  -4.6619  -4.4426  -4.3700  -4.3520  -4.1746
    -4.1567  -4.0463  -4.0098  -3.8191  -3.6999  -3.6799  -3.6722  -3.6646
    -3.5858  -3.1397  -3.0551  -3.0423  -2.8718  -2.7317  -2.7088  -2.6928
    -2.5093  -2.3951  -2.3035  -2.2902  -2.1844  -1.9902  -1.9319  -1.8963
    -1.5864  -1.5481  -1.5333  -1.5224  -1.5012  -1.3476  -1.2450  -1.2400
    -1.1671  -1.0921  -0.9602  -0.9325  -0.8105  -0.6166  -0.3348  -0.0231
    -0.0177   0.0079   0.0758   0.0985   0.2832   0.3957   0.5656   0.7019
     1.3046   1.4803   1.5158   1.9350   2.1489   2.2251   2.3187   2.5160
     2.5623   2.6585   2.7318   2.7496   3.0101   3.0852

     the Fermi energy is     0.8667 ev

!    total energy              =    -563.23297090 Ry
     Harris-Foulkes estimate   =    -563.23297272 Ry
     estimated scf accuracy    <       0.00000047 Ry

     The total energy is the sum of the following terms:

     one-electron contribution =   -2756.54433014 Ry
     hartree contribution      =    1430.00068085 Ry
     xc contribution           =    -222.43931654 Ry
     ewald contribution        =     985.74313335 Ry
     smearing contrib. (-TS)   =       0.00686158 Ry

     convergence has been achieved in  17 iterations

     negative rho (up, down):  1.025E-03 0.000E+00

     Forces acting on atoms (cartesian axes, Ry/au):

     atom    1 type  1   force =    -0.00169930   -0.00840569    0.00399265
     atom    2 type  1   force =    -0.00489610    0.00451921   -0.00172230
     atom    3 type  1   force =    -0.00246085   -0.00008955    0.00054270
     atom    4 type  1   force =     0.00444723   -0.00051505   -0.00172359
     atom    5 type  1   force =    -0.00322283    0.00085018   -0.00050066
     atom    6 type  1   force =    -0.00032062    0.00333907    0.00014604
     atom    7 type  1   force =    -0.00259872   -0.00128541    0.00015872
     atom    8 type  1   force =     0.00107791    0.00213731   -0.00047363
     atom    9 type  2   force =     0.00095251    0.00389314   -0.00059097
     atom   10 type  2   force =    -0.00458111    0.00507608    0.00129633
     atom   11 type  2   force =    -0.00224659   -0.00200624    0.00495507
     atom   12 type  2   force =     0.00580247   -0.00036502   -0.00261698
     atom   13 type  2   force =     0.00074655   -0.00353674    0.00114197
     atom   14 type  2   force =    -0.00330302   -0.00021036   -0.00029190
     atom   15 type  2   force =     0.00010080    0.00137148   -0.00766338
     atom   16 type  2   force =     0.00263702    0.00003076   -0.00474595
     atom   17 type  2   force =     0.00289617    0.00125292   -0.00079388
     atom   18 type  2   force =    -0.00039852   -0.00374450   -0.00271755
     atom   19 type  2   force =    -0.00189996   -0.00261149   -0.00254462
     atom   20 type  2   force =     0.00413639    0.00156124    0.00027674
     atom   21 type  2   force =     0.00410499   -0.00496572    0.00154453
     atom   22 type  2   force =     0.00028753    0.00297323   -0.00080570
     atom   23 type  2   force =    -0.00055252    0.00091553    0.00680983
     atom   24 type  2   force =     0.00099055   -0.00018436    0.00632653

     Total force =     0.025857     Total SCF correction =     0.001417

     General routines

     Parallel routines

   This run was terminated on:  11:57:28   8Sep2021

   JOB DONE.