     Program PWSCF v.6.4 starts on 19Nov2021 at 17:48: 7

     R & G space division:  proc/nbgrp/npool/nimage =      40
     Waiting for input...
     Reading input from standard input
Warning: card    &IONS ignored
Warning: card      ION_DYNAMICS = 'BFGS' ignored
Warning: card   / ignored
Warning: card    &CELL ignored
Warning: card      CELL_DYNAMICS = 'BFGS', ignored
Warning: card    / ignored

     Current dimensions of program PWSCF are:
     Max number of different atomic species (ntypx) = 10
     Max number of k-points (npk) =  40000
     Max angular momentum in pseudopotentials (lmaxx) =  3

     bravais-lattice index     =            0
     lattice parameter (alat)  =      12.2280  a.u.
     unit-cell volume          =    5956.7634 (a.u.)^3
     number of atoms/cell      =           36
     number of atomic types    =            2
     number of electrons       =       216.00
     number of Kohn-Sham states=          130
     kinetic-energy cutoff     =      45.0000  Ry
     charge density cutoff     =     360.0000  Ry
     convergence threshold     =      1.0E-06
     mixing beta               =       0.7000
     number of iterations used =            8  local-TF  mixing
     Exchange-correlation      = SLA PW GGX GGC ( 1  4  2  2 0 0)

     celldm(1)=  12.227994  celldm(2)=   0.000000  celldm(3)=   0.000000
     celldm(4)=   0.000000  celldm(5)=   0.000000  celldm(6)=   0.000000

     crystal axes: (cart. coord. in units of alat)
               a(1) = (   1.000000   0.000000   0.000000 )
               a(2) = (  -0.010008   1.683913   0.000000 )
               a(3) = (   0.339114   0.285453   1.934751 )

     reciprocal axes: (cart. coord. in units 2 pi/alat)
               b(1) = (  1.000000  0.005943 -0.176152 )
               b(2) = (  0.000000  0.593855 -0.087617 )
               b(3) = (  0.000000  0.000000  0.516862 )

     PseudoPot. # 1 for Mo read from file:
     ~/pseudo/Mo.pw91-n-van.UPF
     MD5 check sum: Not computed, couldn't open file
     Pseudo is Ultrasoft + core correction, Zval =  6.0
     Generated by new atomic code, or converted to UPF format
     Using radial grid of  965 points,  3 beta functions with:
                l(1) =   1
                l(2) =   2
                l(3) =   2
     Q(r) pseudized with  8 coefficients,  rinner =    1.000   1.000   1.000
                                                       1.200   1.200

     PseudoPot. # 2 for S  read from file:
     ~/pseudo/S.pw91-van_ak.UPF
     MD5 check sum: Not computed, couldn't open file
     Pseudo is Ultrasoft, Zval =  6.0
     Generated by new atomic code, or converted to UPF format
     Using radial grid of  811 points,  6 beta functions with:
                l(1) =   0
                l(2) =   0
                l(3) =   1
                l(4) =   1
                l(5) =   2
                l(6) =   2
     Q(r) pseudized with  8 coefficients,  rinner =    1.100   1.100   1.100
                                                       1.100   1.100

     atomic species   valence    mass     pseudopotential
        Mo             6.00    95.50000     Mo( 1.00)
        S              6.00    32.06500     S ( 1.00)

     No symmetry found

   Cartesian axes

     site n.     atom                  positions (alat units)
         1           Mo  tau(   1) = (   1.1752041   1.5888068   1.2759633  )
         2           Mo  tau(   2) = (   0.4187705   1.1735950   1.2803015  )
         3           Mo  tau(   3) = (   0.6646040   1.5910089   1.2771095  )
         4           Mo  tau(   4) = (   0.9194764   1.1711253   1.2860755  )
         5           Mo  tau(   5) = (   0.6687854   0.7484815   1.2945476  )
         6           Mo  tau(   6) = (   1.1713528   0.7489303   1.2950051  )
         7           Mo  tau(   7) = (   0.9222385   0.3285359   1.2983220  )
         8           Mo  tau(   8) = (   0.4233175   0.3259417   1.2914382  )
         9           Mo  tau(   9) = (   0.7068499   1.5828434   0.3675655  )
        10           Mo  tau(  10) = (   0.3411527   1.7145676   0.4877981  )
        11           Mo  tau(  11) = (   0.4662340   0.4969987   0.2842249  )
        12           Mo  tau(  12) = (   1.0503512   0.5091723   0.3413752  )
        13           S   tau(  13) = (   0.4192309   1.4550964   1.5298959  )
        14           S   tau(  14) = (   1.1632246   1.8656882   1.5342817  )
        15           S   tau(  15) = (   0.9188343   1.4621271   1.5243558  )
        16           S   tau(  16) = (   0.6621193   1.8677533   1.5373845  )
        17           S   tau(  17) = (   0.2995492   0.3969429   0.5905577  )
        18           S   tau(  18) = (   0.7712810   0.2952636   0.2800830  )
        19           S   tau(  19) = (   0.4281568   1.4454096   0.9940276  )
        20           S   tau(  20) = (   1.1684099   0.1989097   1.0428109  )
        21           S   tau(  21) = (   0.9231294   1.4495081   1.0369624  )
        22           S   tau(  22) = (   0.6787147   0.1998325   1.0444210  )
        23           S   tau(  23) = (   0.2314208   0.6821944   0.1095243  )
        24           S   tau(  24) = (   0.7513164   0.7170637   0.3535963  )
        25           S   tau(  25) = (   0.6659893   1.0362086   1.5341944  )
        26           S   tau(  26) = (   1.1699003   1.0362840   1.5327753  )
        27           S   tau(  27) = (   0.6728365   1.0260346   1.0413191  )
        28           S   tau(  28) = (   1.1669912   1.0266918   1.0417215  )
        29           S   tau(  29) = (   0.9218614   0.6098194   1.0493696  )
        30           S   tau(  30) = (   0.4209435   0.6103794   1.0464031  )
        31           S   tau(  31) = (   0.5339234   1.4859041   0.6908561  )
        32           S   tau(  32) = (   0.0618050   1.4930975   0.3797965  )
        33           S   tau(  33) = (   0.9184378   0.6116067   1.5424078  )
        34           S   tau(  34) = (   0.4199582   0.6076287   1.5394065  )
        35           S   tau(  35) = (   0.5130132   0.1477173   0.1694752  )
        36           S   tau(  36) = (   1.0312366   0.1262058   0.3538609  )

     number of k points=     8  Marzari-Vanderbilt smearing, width (Ry)=  0.0200
                       cart. coord. in units 2pi/alat
        k(    1) = (   0.0000000   0.0000000   0.0000000), wk =   0.1666667
        k(    2) = (   0.0000000   0.0000000  -0.2584312), wk =   0.1666667
        k(    3) = (   0.0000000  -0.2969275   0.0438086), wk =   0.1666667
        k(    4) = (   0.0000000  -0.2969275  -0.2146225), wk =   0.1666667
        k(    5) = (   0.3333333   0.0019811  -0.0587174), wk =   0.3333333
        k(    6) = (   0.3333333   0.0019811  -0.3171486), wk =   0.3333333
        k(    7) = (   0.3333333  -0.2949464  -0.0149088), wk =   0.3333333
        k(    8) = (   0.3333333  -0.2949464  -0.2733399), wk =   0.3333333

     Initial potential from superposition of free atoms

     starting charge  215.98107, renormalised to  216.00000
     Starting wfcs are  204 randomized atomic wfcs

     Self-consistent Calculation

     iteration #  1     ecut=    45.00 Ry     beta= 0.70
     Davidson diagonalization with overlap
     ethr =  1.00E-02,  avg # of iterations =  2.0

     total energy              =    -843.10984838 Ry
     Harris-Foulkes estimate   =    -845.48692588 Ry
     estimated scf accuracy    <       6.14277048 Ry

[...]

     total energy              =    -844.28383725 Ry
     Harris-Foulkes estimate   =    -844.28383965 Ry
     estimated scf accuracy    <       0.00000985 Ry

     iteration # 16     ecut=    45.00 Ry     beta= 0.70
     Davidson diagonalization with overlap
     ethr =  3.98E-09,  avg # of iterations =  2.0

     End of self-consistent calculation

          k = 0.0000 0.0000 0.0000 ( 30291 PWs)   bands (ev):

   -12.2350 -10.5331 -10.1853  -9.5079  -8.8215  -8.7349  -8.4589  -8.3938
    -8.0944  -8.0236  -7.9737  -7.8864  -7.8653  -7.8364  -7.7862  -7.7016
    -7.6507  -7.6382  -7.6159  -7.5622  -7.5077  -7.1494  -6.7786  -5.9161
    -2.4692  -1.9290  -1.6585  -1.3185  -1.2606  -1.2334  -1.0235  -0.8934
    -0.7364  -0.6029  -0.5428  -0.4972  -0.4369  -0.4303  -0.3895  -0.3387
    -0.3075  -0.2168  -0.0460   0.2193   0.3171   0.3531   0.3822   0.5402
     0.6976   0.7449   0.7891   0.8298   0.8743   0.9364   1.0002   1.0766
     1.1565   1.1788   1.2308   1.3185   1.3448   1.4565   1.4770   1.5100
     1.5637   1.5740   1.6854   1.7412   1.8514   1.8966   1.9289   1.9788
     2.0927   2.1270   2.3317   2.4535   2.4800   2.6444   2.6668   2.6786
     2.7151   2.7746   2.8543   2.9864   3.0665   3.1136   3.1782   3.2086
     3.3159   3.4337   3.4925   3.5972   3.6190   3.6963   3.7084   3.7480
     3.8042   3.8619   3.9803   4.0927   4.1639   4.2136   4.4089   4.6515
     4.7604   4.8225   5.0065   5.1197   5.4005   5.4997   5.6198   5.9622
     6.0442   6.2978   6.3628   6.4311   6.4651   6.4880   6.5218   6.5496
     6.5703   6.5968   6.6337   6.7518   6.8771   6.9563   6.9836   7.0090
     7.0300   7.0822

[...]

          k = 0.3333-0.2949-0.2733 ( 30410 PWs)   bands (ev):

   -12.1773 -10.6310 -10.1361  -9.1709  -9.0114  -8.5244  -8.4604  -8.4264
    -8.2764  -8.1497  -8.0059  -7.9682  -7.9271  -7.8836  -7.8195  -7.7283
    -7.6536  -7.6165  -7.5678  -7.5371  -7.5049  -7.1880  -6.7905  -5.7831
    -2.6425  -1.8346  -1.4593  -1.0233  -0.8753  -0.7788  -0.7529  -0.7174
    -0.7052  -0.6449  -0.6104  -0.5804  -0.5580  -0.5412  -0.3639  -0.2008
    -0.1659  -0.1399   0.2031   0.3279   0.4002   0.4352   0.4979   0.5559
     0.6106   0.6539   0.7167   0.7982   0.8587   0.9460   0.9713   1.0195
     1.0532   1.0862   1.1504   1.2130   1.2720   1.3622   1.3992   1.5126
     1.5963   1.6447   1.7430   1.7851   1.8034   1.8724   1.9191   1.9822
     2.0240   2.1219   2.2103   2.3335   2.3799   2.4577   2.4932   2.5490
     2.6201   2.6477   2.7885   2.8130   2.8797   2.8908   2.9958   3.0190
     3.0899   3.1780   3.3184   3.3940   3.5039   3.5128   3.7284   3.7884
     3.8117   3.8848   3.9425   4.0568   4.0778   4.2286   4.3840   4.5703
     4.6757   4.9454   5.0813   5.3366   5.4673   5.5852   5.7879   6.0015
     6.0898   6.2326   6.3177   6.3779   6.4534   6.4713   6.4804   6.4928
     6.5281   6.5504   6.6042   6.6239   6.7365   6.8053   6.8580   6.8956
     6.9229   6.9498

     the Fermi energy is     5.3408 ev

!    total energy              =    -844.28383783 Ry
     Harris-Foulkes estimate   =    -844.28383819 Ry
     estimated scf accuracy    <       0.00000044 Ry

     The total energy is the sum of the following terms:

     one-electron contribution =    -519.16022543 Ry
     hartree contribution      =     368.22036302 Ry
     xc contribution           =    -334.66665957 Ry
     ewald contribution        =    -358.67800668 Ry
     smearing contrib. (-TS)   =       0.00069082 Ry

     convergence has been achieved in  16 iterations

     Forces acting on atoms (cartesian axes, Ry/au):

     atom    1 type  1   force =    -0.00985481    0.01044224    0.01217491
     atom    2 type  1   force =     0.00588453   -0.00172913    0.00347005
     atom    3 type  1   force =    -0.00143074   -0.00220741   -0.00392543
     atom    4 type  1   force =    -0.00417710   -0.00106299    0.00476589
     atom    5 type  1   force =     0.00598342    0.00261439   -0.00650105
     atom    6 type  1   force =    -0.00492673   -0.00303276   -0.01015020
     atom    7 type  1   force =     0.00046273    0.00411545   -0.01618512
     atom    8 type  1   force =    -0.00514782    0.01391657   -0.00741330
     atom    9 type  1   force =     0.05428594    0.06070576    0.00194353
     atom   10 type  1   force =     0.01937136    0.02594690    0.02766309
     atom   11 type  1   force =     0.04228696   -0.02475137    0.05801149
     atom   12 type  1   force =    -0.03743563    0.01763348    0.07538582
     atom   13 type  2   force =     0.00149009   -0.00685253   -0.02466752
     atom   14 type  2   force =     0.00880988   -0.00487230   -0.00427728
     atom   15 type  2   force =     0.00291155   -0.01237058   -0.00806038
     atom   16 type  2   force =    -0.00173477   -0.00721041   -0.00945697
     atom   17 type  2   force =     0.01560862    0.00923349    0.03140748
     atom   18 type  2   force =    -0.05367772    0.08640960   -0.00788571
     atom   19 type  2   force =    -0.04035317    0.00141166    0.17566994
     atom   20 type  2   force =     0.01040395   -0.01217221    0.00878423
     atom   21 type  2   force =    -0.00547990    0.00269961   -0.00151576
     atom   22 type  2   force =    -0.00870633   -0.01004134    0.00077951
     atom   23 type  2   force =    -0.00504612    0.04927870   -0.10213479
     atom   24 type  2   force =    -0.00518736    0.03979712    0.00930447
     atom   25 type  2   force =     0.00253577    0.00508351   -0.01528947
     atom   26 type  2   force =     0.00532271    0.00469371   -0.00200669
     atom   27 type  2   force =    -0.00398027   -0.00152716    0.00601306
     atom   28 type  2   force =     0.00195359   -0.00049964    0.00326454
     atom   29 type  2   force =    -0.00265992    0.00261491    0.00896556
     atom   30 type  2   force =     0.00067135    0.00184905    0.01173303
     atom   31 type  2   force =     0.04739708    0.01182003   -0.14704516
     atom   32 type  2   force =     0.04313329   -0.16539910    0.01375314
     atom   33 type  2   force =     0.00577672    0.00266772   -0.00261380
     atom   34 type  2   force =     0.00099948   -0.00003169    0.00086756
     atom   35 type  2   force =    -0.14884076   -0.10395020   -0.08716633
     atom   36 type  2   force =     0.06335015    0.00477693    0.00233766

     Total force =     0.426661     Total SCF correction =     0.001413

     General routines

     Parallel routines

   This run was terminated on:  17:50:57  19Nov2021

   JOB DONE.