     Program PWSCF v.6.4 starts on  8Sep2021 at 11:15: 0

     R & G space division:  proc/nbgrp/npool/nimage =      40
     Waiting for input...
     Reading input from standard input
Warning: card    &IONS ignored
Warning: card      ION_DYNAMICS = 'BFGS' ignored
Warning: card   / ignored
Warning: card    &CELL ignored
Warning: card      CELL_DYNAMICS = 'BFGS', ignored
Warning: card    / ignored

     Current dimensions of program PWSCF are:
     Max number of different atomic species (ntypx) = 10
     Max number of k-points (npk) =  40000
     Max angular momentum in pseudopotentials (lmaxx) =  3

     bravais-lattice index     =            0
     lattice parameter (alat)  =      12.0392  a.u.
     unit-cell volume          =    1683.9129 (a.u.)^3
     number of atoms/cell      =           12
     number of atomic types    =            2
     number of electrons       =        72.00
     number of Kohn-Sham states=           43
     kinetic-energy cutoff     =      45.0000  Ry
     charge density cutoff     =     360.0000  Ry
     convergence threshold     =      1.0E-06
     mixing beta               =       0.7000
     number of iterations used =            8  local-TF  mixing
     Exchange-correlation      = SLA PW GGX GGC ( 1  4  2  2 0 0)

     celldm(1)=  12.039157  celldm(2)=   0.000000  celldm(3)=   0.000000
     celldm(4)=   0.000000  celldm(5)=   0.000000  celldm(6)=   0.000000

     crystal axes: (cart. coord. in units of alat)
               a(1) = (   0.997127  -0.048628  -0.058084 )
               a(2) = (  -0.569744   0.979464   0.045397 )
               a(3) = (   0.021432  -0.100394   1.014406 )

     reciprocal axes: (cart. coord. in units 2 pi/alat)
               b(1) = (  1.034324  0.599916  0.037520 )
               b(2) = (  0.057160  1.049458  0.102655 )
               b(3) = (  0.056666 -0.012615  0.983353 )

     PseudoPot. # 1 for Mo read from file:
     ~/pseudo/Mo.pw91-n-van.UPF
     MD5 check sum: Not computed, couldn't open file
     Pseudo is Ultrasoft + core correction, Zval =  6.0
     Generated by new atomic code, or converted to UPF format
     Using radial grid of  965 points,  3 beta functions with:
                l(1) =   1
                l(2) =   2
                l(3) =   2
     Q(r) pseudized with  8 coefficients,  rinner =    1.000   1.000   1.000
                                                       1.200   1.200

     PseudoPot. # 2 for S  read from file:
     ~/pseudo/S.pw91-van_ak.UPF
     MD5 check sum: Not computed, couldn't open file
     Pseudo is Ultrasoft, Zval =  6.0
     Generated by new atomic code, or converted to UPF format
     Using radial grid of  811 points,  6 beta functions with:
                l(1) =   0
                l(2) =   0
                l(3) =   1
                l(4) =   1
                l(5) =   2
                l(6) =   2
     Q(r) pseudized with  8 coefficients,  rinner =    1.100   1.100   1.100
                                                       1.100   1.100

     atomic species   valence    mass     pseudopotential
        Mo             6.00    95.50000     Mo( 1.00)
        S              6.00    32.06500     S ( 1.00)

     No symmetry found

   Cartesian axes

     site n.     atom                  positions (alat units)
         1           Mo  tau(   1) = (  -0.0484652  -0.0313569  -0.0025721  )
         2           Mo  tau(   2) = (  -0.3902192   0.5542513   0.0310216  )
         3           Mo  tau(   3) = (   0.4161765   0.0835428  -0.0288882  )
         4           Mo  tau(   4) = (   0.1604758   0.4249638  -0.0069850  )
         5           S   tau(   5) = (  -0.0965092   0.4554307   0.2580092  )
         6           S   tau(   6) = (  -0.3582417   0.8496412   0.2766117  )
         7           S   tau(   7) = (   0.4104397   0.3465502   0.2525503  )
         8           S   tau(   8) = (   0.1252822   0.9235090   0.2447532  )
         9           S   tau(   9) = (   0.1585527   0.0615619   0.7371477  )
        10           S   tau(  10) = (  -0.1257689   0.6503640   0.8155258  )
        11           S   tau(  11) = (   0.7026733   0.1205394   0.7508361  )
        12           S   tau(  12) = (   0.3442138   0.5338379   0.7450138  )

     number of k points=    19  Marzari-Vanderbilt smearing, width (Ry)=  0.0200
                       cart. coord. in units 2pi/alat
        k(    1) = (   0.0000000   0.0000000   0.0000000), wk =   0.0555556
        k(    2) = (   0.0141665  -0.0031538   0.2458382), wk =   0.1111111
        k(    3) = (  -0.0283330   0.0063076  -0.4916764), wk =   0.0555556
        k(    4) = (   0.0190533   0.3498193   0.0342183), wk =   0.1111111
        k(    5) = (   0.0332198   0.3466654   0.2800565), wk =   0.1111111
        k(    6) = (  -0.0092797   0.3561269  -0.4574580), wk =   0.1111111
        k(    7) = (   0.0048868   0.3529731  -0.2116198), wk =   0.1111111
        k(    8) = (   0.3447747   0.1999720   0.0125066), wk =   0.1111111
        k(    9) = (   0.3589412   0.1968182   0.2583448), wk =   0.1111111
        k(   10) = (   0.3164417   0.2062796  -0.4791697), wk =   0.1111111
        k(   11) = (   0.3306082   0.2031258  -0.2333315), wk =   0.1111111
        k(   12) = (   0.3638280   0.5497912   0.0467250), wk =   0.1111111
        k(   13) = (   0.3779945   0.5466374   0.2925632), wk =   0.1111111
        k(   14) = (   0.3354950   0.5560989  -0.4449514), wk =   0.1111111
        k(   15) = (   0.3496615   0.5529451  -0.1991132), wk =   0.1111111
        k(   16) = (   0.3257213  -0.1498473  -0.0217117), wk =   0.1111111
        k(   17) = (   0.3398878  -0.1530011   0.2241265), wk =   0.1111111
        k(   18) = (   0.2973883  -0.1435396  -0.5133880), wk =   0.1111111
        k(   19) = (   0.3115548  -0.1466935  -0.2675499), wk =   0.1111111

     Initial potential from superposition of free atoms

     starting charge   71.99369, renormalised to   72.00000
     Starting wfcs are   68 randomized atomic wfcs

     Self-consistent Calculation

     iteration #  1     ecut=    45.00 Ry     beta= 0.70
     Davidson diagonalization with overlap
     ethr =  1.00E-02,  avg # of iterations =  2.0

     total energy              =    -280.95712014 Ry
     Harris-Foulkes estimate   =    -281.95514970 Ry
     estimated scf accuracy    <       2.67637089 Ry

[...]

     total energy              =    -281.48765007 Ry
     Harris-Foulkes estimate   =    -281.48765022 Ry
     estimated scf accuracy    <       0.00000109 Ry

     iteration # 12     ecut=    45.00 Ry     beta= 0.70
     Davidson diagonalization with overlap
     ethr =  1.51E-09,  avg # of iterations =  2.9

     End of self-consistent calculation

          k = 0.0000 0.0000 0.0000 (  8587 PWs)   bands (ev):

    -7.5068  -6.5310  -6.2838  -6.0614  -5.7897  -5.6176  -5.4203  -5.2182
     0.7108   0.7850   0.8550   0.9745   1.8570   1.9418   2.0410   2.4436
     2.5083   2.9203   3.1082   3.1893   3.2433   3.3726   3.5555   3.6376
     3.9429   4.0288   4.5281   4.9274   4.9472   5.1523   5.5106   5.5684
     5.6910   5.8543   6.1989   6.3045   7.0168   7.3326   7.7435   8.0836
     8.1887   8.5237   8.6326

[...]

          k =-0.0283 0.0063-0.4917 (  8610 PWs)   bands (ev):

[...]

          k =-0.0093 0.3561-0.4575 (  8591 PWs)   bands (ev):

[...]

          k = 0.3116-0.1467-0.2675 (  8574 PWs)   bands (ev):

    -7.1591  -6.7008  -6.2444  -6.1321  -5.9791  -5.7737  -5.4482  -5.1741
     0.9965   1.1042   1.1729   1.4556   1.7355   1.8682   2.2092   2.3197
     2.4970   2.7119   2.8640   3.0541   3.2074   3.4391   3.6165   3.6725
     3.8185   4.0371   4.4737   4.6061   4.7964   4.9446   5.2365   5.3750
     5.6660   5.9367   6.2162   6.4004   6.8836   7.3474   7.7350   8.0026
     8.2049   8.4297   8.5763

     the Fermi energy is     6.5402 ev

!    total energy              =    -281.48765004 Ry
     Harris-Foulkes estimate   =    -281.48765016 Ry
     estimated scf accuracy    <       0.00000016 Ry

     The total energy is the sum of the following terms:

     one-electron contribution =      -4.86139839 Ry
     hartree contribution      =      43.52215570 Ry
     xc contribution           =    -111.16460277 Ry
     ewald contribution        =    -208.98650683 Ry
     smearing contrib. (-TS)   =       0.00270225 Ry

     convergence has been achieved in  12 iterations

     Forces acting on atoms (cartesian axes, Ry/au):

     atom    1 type  1   force =     0.00210175    0.02771253    0.00310168
     atom    2 type  1   force =    -0.01032487    0.00353503   -0.01469397
     atom    3 type  1   force =     0.01053840    0.00358523    0.01096743
     atom    4 type  1   force =    -0.02053518    0.04989655   -0.00188174
     atom    5 type  2   force =     0.01154355   -0.03524450   -0.00636631
     atom    6 type  2   force =    -0.00279855    0.00935375    0.00836502
     atom    7 type  2   force =    -0.01700446   -0.01223930    0.00511587
     atom    8 type  2   force =     0.01613252   -0.01452534   -0.00481352
     atom    9 type  2   force =    -0.00243971    0.01155674    0.00804892
     atom   10 type  2   force =     0.01316698   -0.03265979   -0.00359447
     atom   11 type  2   force =    -0.01049733   -0.01592441    0.00570095
     atom   12 type  2   force =     0.01011689    0.00495350   -0.00994986

     Total force =     0.094320     Total SCF correction =     0.000834

     General routines

     Parallel routines

   This run was terminated on:  11:15:35   8Sep2021

   JOB DONE.