     Program PWSCF v.6.4 starts on 24Dec2021 at  0:52:18

     R & G space division:  proc/nbgrp/npool/nimage =      40
     Waiting for input...
     Reading input from standard input
Warning: card    &IONS ignored
Warning: card      ION_DYNAMICS = 'BFGS' ignored
Warning: card   / ignored
Warning: card    &CELL ignored
Warning: card      CELL_DYNAMICS = 'BFGS', ignored
Warning: card    / ignored

     Current dimensions of program PWSCF are:
     Max number of different atomic species (ntypx) = 10
     Max number of k-points (npk) =  40000
     Max angular momentum in pseudopotentials (lmaxx) =  3

     bravais-lattice index     =            0
     lattice parameter (alat)  =      12.0885  a.u.
     unit-cell volume          =   26907.8138 (a.u.)^3
     number of atoms/cell      =           21
     number of atomic types    =            2
     number of electrons       =       126.00
     number of Kohn-Sham states=           76
     kinetic-energy cutoff     =      45.0000  Ry
     charge density cutoff     =     360.0000  Ry
     convergence threshold     =      1.0E-06
     mixing beta               =       0.7000
     number of iterations used =            8  local-TF  mixing
     Exchange-correlation      = SLA PW GGX GGC ( 1  4  2  2 0 0)

     celldm(1)=  12.088487  celldm(2)=   0.000000  celldm(3)=   0.000000
     celldm(4)=   0.000000  celldm(5)=   0.000000  celldm(6)=   0.000000

     crystal axes: (cart. coord. in units of alat)
               a(1) = (   1.000000   0.000000   0.000000 )
               a(2) = (   0.414489   2.602660   0.000000 )
               a(3) = (   0.124968   0.318675   5.852549 )

     reciprocal axes: (cart. coord. in units 2 pi/alat)
               b(1) = (  1.000000 -0.159256 -0.012681 )
               b(2) = (  0.000000  0.384222 -0.020921 )
               b(3) = (  0.000000  0.000000  0.170866 )

     PseudoPot. # 1 for Mo read from file:
     ~/pseudo/Mo.pw91-n-van.UPF
     MD5 check sum: Not computed, couldn't open file
     Pseudo is Ultrasoft + core correction, Zval =  6.0
     Generated by new atomic code, or converted to UPF format
     Using radial grid of  965 points,  3 beta functions with:
                l(1) =   1
                l(2) =   2
                l(3) =   2
     Q(r) pseudized with  8 coefficients,  rinner =    1.000   1.000   1.000
                                                       1.200   1.200

     PseudoPot. # 2 for S  read from file:
     ~/pseudo/S.pw91-van_ak.UPF
     MD5 check sum: Not computed, couldn't open file
     Pseudo is Ultrasoft, Zval =  6.0
     Generated by new atomic code, or converted to UPF format
     Using radial grid of  811 points,  6 beta functions with:
                l(1) =   0
                l(2) =   0
                l(3) =   1
                l(4) =   1
                l(5) =   2
                l(6) =   2
     Q(r) pseudized with  8 coefficients,  rinner =    1.100   1.100   1.100
                                                       1.100   1.100

     atomic species   valence    mass     pseudopotential
        Mo             6.00    95.50000     Mo( 1.00)
        S              6.00    32.06500     S ( 1.00)

     No symmetry found

   Cartesian axes

     site n.     atom                  positions (alat units)
         1           Mo  tau(   1) = (   0.9772812   2.5002979   3.5586084  )
         2           Mo  tau(   2) = (   0.8320140   0.2707131   3.7566392  )
         3           Mo  tau(   3) = (   1.2104528   2.1311209   3.3935843  )
         4           Mo  tau(   4) = (   0.7423374   2.1294620   3.3909295  )
         5           Mo  tau(   5) = (   0.4745455   2.4973480   3.5610681  )
         6           Mo  tau(   6) = (   0.3136922   0.3261095   3.7276180  )
         7           Mo  tau(   7) = (   0.6628630   0.6475580   3.7619548  )
         8           S   tau(   8) = (   0.9779366   1.8577202   3.2646432  )
         9           S   tau(   9) = (   0.5745881   0.3917477   3.9954070  )
        10           S   tau(  10) = (   0.9734209   2.1263709   3.6902944  )
        11           S   tau(  11) = (   1.0813593   0.3517713   4.0279289  )
        12           S   tau(  12) = (   1.2267722   2.5137962   3.8599376  )
        13           S   tau(  13) = (   0.7315203   2.5501025   3.8475333  )
        14           S   tau(  14) = (   0.4319403   0.6241910   3.4956886  )
        15           S   tau(  15) = (   0.4767619   2.3242965   3.2032601  )
        16           S   tau(  16) = (   0.6771109   0.9702663   3.9224780  )
        17           S   tau(  17) = (   0.9915983   0.5780659   3.6113000  )
        18           S   tau(  18) = (   0.9763901   2.3537544   3.1936431  )
        19           S   tau(  19) = (   1.2237347   2.7489935   3.3981353  )
        20           S   tau(  20) = (   0.4780077   2.1123784   3.6633951  )
        21           S   tau(  21) = (   0.7215839   2.7462413   3.3924382  )

     number of k points=     2  Marzari-Vanderbilt smearing, width (Ry)=  0.0200
                       cart. coord. in units 2pi/alat
        k(    1) = (   0.0000000   0.0000000   0.0000000), wk =   0.6666667
        k(    2) = (   0.3333333  -0.0530852  -0.0042271), wk =   1.3333333

     Initial potential from superposition of free atoms

     starting charge  125.98896, renormalised to  126.00000

     negative rho (up, down):  4.104E-03 0.000E+00
     Starting wfcs are  119 randomized atomic wfcs

     Self-consistent Calculation

     iteration #  1     ecut=    45.00 Ry     beta= 0.70
     Davidson diagonalization with overlap
     ethr =  1.00E-02,  avg # of iterations =  2.0

     negative rho (up, down):  3.491E-03 0.000E+00

     total energy              =    -491.56584437 Ry
     Harris-Foulkes estimate   =    -493.50645341 Ry
     estimated scf accuracy    <       5.46887978 Ry

[...]

     total energy              =    -492.58084146 Ry
     Harris-Foulkes estimate   =    -492.58083701 Ry
     estimated scf accuracy    <       0.00000146 Ry

     iteration # 22     ecut=    45.00 Ry     beta= 0.70
     Davidson diagonalization with overlap
     ethr =  1.16E-09,  avg # of iterations =  3.0

[...]

     End of self-consistent calculation

          k = 0.0000 0.0000 0.0000 (137097 PWs)   bands (ev):

   -18.3269 -17.7720 -17.4185 -17.3242 -17.0822 -16.9948 -16.9219 -16.9005
   -16.8841 -16.6091 -16.3882 -16.3670 -16.0336 -15.1574 -10.0100  -9.9786
    -9.8296  -9.8217  -9.4067  -9.3481  -9.2500  -9.1932  -8.9852  -8.9425
    -8.7902  -8.7273  -8.5423  -8.3837  -8.3417  -8.1758  -8.0691  -7.8860
    -7.7730  -7.6931  -7.6338  -7.5235  -7.4381  -7.4155  -7.2861  -7.2368
    -7.0611  -6.9295  -6.7636  -6.6525  -6.5902  -6.5729  -6.4570  -6.4214
    -6.3254  -6.2597  -6.0343  -5.8200  -5.7489  -5.7222  -5.5206  -5.4702
    -5.3444  -5.1394  -5.0587  -4.8799  -4.6976  -4.5636  -4.3345  -4.2941
    -4.0001  -3.8907  -3.6179  -3.3991  -3.2106  -2.8433  -2.7694  -2.6539
    -2.5984  -2.4543  -2.4115  -2.3885

          k = 0.3333-0.0531-0.0042 (137221 PWs)   bands (ev):

   -18.0680 -17.5847 -17.4418 -17.3210 -17.2679 -17.0538 -17.0244 -16.9439
   -16.8696 -16.7074 -16.4810 -16.3653 -16.0902 -15.1534  -9.7185  -9.5958
    -9.5145  -9.4538  -9.4134  -9.2448  -9.0447  -9.0376  -8.9423  -8.7785
    -8.7140  -8.6522  -8.4897  -8.4159  -8.2122  -8.1441  -8.0778  -7.9964
    -7.8596  -7.7775  -7.7541  -7.6487  -7.5277  -7.4583  -7.4202  -7.2996
    -7.2306  -7.1115  -7.0319  -6.9316  -6.7966  -6.7170  -6.5555  -6.4218
    -6.3361  -6.2270  -6.1418  -6.0199  -5.8525  -5.7864  -5.6690  -5.4797
    -5.3448  -5.2594  -5.1155  -4.8209  -4.7019  -4.6174  -4.3949  -4.2159
    -4.0374  -3.9999  -3.4024  -3.3566  -3.1946  -3.0383  -2.9305  -2.8897
    -2.6923  -2.5275  -2.4924  -2.3917

     the Fermi energy is    -4.3169 ev

!    total energy              =    -492.58084071 Ry
     Harris-Foulkes estimate   =    -492.58084156 Ry
     estimated scf accuracy    <       0.00000057 Ry

     The total energy is the sum of the following terms:

     one-electron contribution =   -5287.20128993 Ry
     hartree contribution      =    2664.97487611 Ry
     xc contribution           =    -193.87105537 Ry
     ewald contribution        =    2323.51404189 Ry
     smearing contrib. (-TS)   =       0.00258659 Ry

     convergence has been achieved in  22 iterations

     negative rho (up, down):  5.561E-03 0.000E+00

     Forces acting on atoms (cartesian axes, Ry/au):

     atom    1 type  1   force =     0.00160014    0.01247445    0.00147801
     atom    2 type  1   force =     0.04125286   -0.02693284    0.02069107
     atom    3 type  1   force =    -0.07822438   -0.04091969   -0.02042529
     atom    4 type  1   force =     0.07412949   -0.04812800   -0.02469576
     atom    5 type  1   force =     0.00949749    0.02863795    0.00922614
     atom    6 type  1   force =    -0.03402134    0.01582703    0.00886900
     atom    7 type  1   force =    -0.00488779    0.16147448   -0.01471229
     atom    8 type  2   force =    -0.00126815    0.01754204    0.00913330
     atom    9 type  2   force =    -0.02345930   -0.04150596    0.04329888
     atom   10 type  2   force =     0.00122674    0.04719739   -0.01282469
     atom   11 type  2   force =     0.00693114   -0.02993052   -0.02093249
     atom   12 type  2   force =     0.00465861   -0.00239996   -0.02064234
     atom   13 type  2   force =    -0.01130473    0.01378691   -0.03339931
     atom   14 type  2   force =     0.01065083   -0.00695205    0.01590037
     atom   15 type  2   force =    -0.00088470    0.00545169    0.02315662
     atom   16 type  2   force =    -0.00057380   -0.08752898   -0.03313206
     atom   17 type  2   force =    -0.00431236    0.00434972   -0.03029063
     atom   18 type  2   force =     0.00040446    0.01735348    0.04022187
     atom   19 type  2   force =     0.01555014   -0.03150985    0.02893849
     atom   20 type  2   force =    -0.00033092    0.02172628   -0.01413830
     atom   21 type  2   force =    -0.00663442   -0.03001356    0.02427941

     Total force =     0.274847     Total SCF correction =     0.001492

     General routines

     Parallel routines

   This run was terminated on:   1: 3:20  24Dec2021

   JOB DONE.