     Program PWSCF v.6.4 starts on 18Oct2021 at 17: 8:53

     R & G space division:  proc/nbgrp/npool/nimage =      40
     Waiting for input...
     Reading input from standard input
Warning: card    &IONS ignored
Warning: card      ION_DYNAMICS = 'BFGS' ignored
Warning: card   / ignored
Warning: card    &CELL ignored
Warning: card      CELL_DYNAMICS = 'BFGS', ignored
Warning: card    / ignored

     Current dimensions of program PWSCF are:
     Max number of different atomic species (ntypx) = 10
     Max number of k-points (npk) =  40000
     Max angular momentum in pseudopotentials (lmaxx) =  3

     bravais-lattice index     =            0
     lattice parameter (alat)  =      12.1100  a.u.
     unit-cell volume          =    8525.8364 (a.u.)^3
     number of atoms/cell      =           36
     number of atomic types    =            2
     number of electrons       =       216.00
     number of Kohn-Sham states=          130
     kinetic-energy cutoff     =      45.0000  Ry
     charge density cutoff     =     360.0000  Ry
     convergence threshold     =      1.0E-06
     mixing beta               =       0.7000
     number of iterations used =            8  local-TF  mixing
     Exchange-correlation      = SLA PW GGX GGC ( 1  4  2  2 0 0)

     celldm(1)=  12.109994  celldm(2)=   0.000000  celldm(3)=   0.000000
     celldm(4)=   0.000000  celldm(5)=   0.000000  celldm(6)=   0.000000

     crystal axes: (cart. coord. in units of alat)
               a(1) = (   0.999535  -0.029748   0.006707 )
               a(2) = (   0.531034   0.848994   0.008541 )
               a(3) = (  -0.040017  -0.387427   5.551318 )

     reciprocal axes: (cart. coord. in units 2 pi/alat)
               b(1) = (  0.982427 -0.614134 -0.035779 )
               b(2) = (  0.033858  1.155873  0.080913 )
               b(3) = ( -0.001239 -0.001036  0.180056 )

     PseudoPot. # 1 for Mo read from file:
     ~/pseudo/Mo.pw91-n-van.UPF
     MD5 check sum: Not computed, couldn't open file
     Pseudo is Ultrasoft + core correction, Zval =  6.0
     Generated by new atomic code, or converted to UPF format
     Using radial grid of  965 points,  3 beta functions with:
                l(1) =   1
                l(2) =   2
                l(3) =   2
     Q(r) pseudized with  8 coefficients,  rinner =    1.000   1.000   1.000
                                                       1.200   1.200

     PseudoPot. # 2 for S  read from file:
     ~/pseudo/S.pw91-van_ak.UPF
     MD5 check sum: Not computed, couldn't open file
     Pseudo is Ultrasoft, Zval =  6.0
     Generated by new atomic code, or converted to UPF format
     Using radial grid of  811 points,  6 beta functions with:
                l(1) =   0
                l(2) =   0
                l(3) =   1
                l(4) =   1
                l(5) =   2
                l(6) =   2
     Q(r) pseudized with  8 coefficients,  rinner =    1.100   1.100   1.100
                                                       1.100   1.100

     atomic species   valence    mass     pseudopotential
        Mo             6.00    95.50000     Mo( 1.00)
        S              6.00    32.06500     S ( 1.00)

     No symmetry found

   Cartesian axes

     site n.     atom                  positions (alat units)
         1           Mo  tau(   1) = (   0.2620415  -0.0178689   0.1681655  )
         2           Mo  tau(   2) = (   0.3432685  -0.0749000   5.3521123  )
         3           Mo  tau(   3) = (   1.0425056   0.3709905   0.1647972  )
         4           Mo  tau(   4) = (   1.1227681   0.3332307   5.3831349  )
         5           Mo  tau(   5) = (   0.5350636   0.2916525   1.2943709  )
         6           Mo  tau(   6) = (   0.7983464   0.7171590   1.2968055  )
         7           Mo  tau(   7) = (   1.2935341   0.7064234   1.3019375  )
         8           Mo  tau(   8) = (   1.0253890   0.2790597   1.2966314  )
         9           Mo  tau(   9) = (   0.2545316   0.0932377   4.2913258  )
        10           Mo  tau(  10) = (   0.5644243   0.5416805   4.2880073  )
        11           Mo  tau(  11) = (   1.0198534   0.5034916   4.2990941  )
        12           Mo  tau(  12) = (   0.7983274   0.1028269   4.2892736  )
        13           S   tau(  13) = (   0.7588868   0.4256133   5.3384669  )
        14           S   tau(  14) = (   1.2487365   0.3795042   5.0795066  )
        15           S   tau(  15) = (   0.9828794  -0.0063306   5.3426043  )
        16           S   tau(  16) = (   0.5299409   0.0209012   5.0388884  )
        17           S   tau(  17) = (   1.0447201   0.5686722   1.0458207  )
        18           S   tau(  18) = (   0.7786774   0.1439274   1.0413227  )
        19           S   tau(  19) = (   0.2794735   0.1596553   1.0402370  )
        20           S   tau(  20) = (   0.5446815   0.5834465   1.0451991  )
        21           S   tau(  21) = (   0.7910740   0.3797446   4.0276049  )
        22           S   tau(  22) = (   0.5235584  -0.0452314   4.0425772  )
        23           S   tau(  23) = (   1.0242884  -0.0588834   4.0276289  )
        24           S   tau(  24) = (   1.2878238   0.3645324   4.0504167  )
        25           S   tau(  25) = (   0.6967627   0.7801727   0.4807818  )
        26           S   tau(  26) = (   0.8701856  -0.0029872   0.1074760  )
        27           S   tau(  27) = (   0.9126763   0.3790755   0.4693284  )
        28           S   tau(  28) = (   0.4193018   0.3288728   0.1754826  )
        29           S   tau(  29) = (   0.7820745   0.4287711   1.5489797  )
        30           S   tau(  30) = (   0.5161093   0.0038765   1.5449077  )
        31           S   tau(  31) = (   1.0162189  -0.0111726   1.5460779  )
        32           S   tau(  32) = (   1.2813884   0.4131827   1.5498108  )
        33           S   tau(  33) = (   0.5284631   0.2416530   4.5346127  )
        34           S   tau(  34) = (   0.2593936  -0.1860042   4.5527122  )
        35           S   tau(  35) = (   0.7642538  -0.1994882   4.5338162  )
        36           S   tau(  36) = (   1.0265488   0.2238566   4.5598740  )

     number of k points=     5  Marzari-Vanderbilt smearing, width (Ry)=  0.0200
                       cart. coord. in units 2pi/alat
        k(    1) = (   0.0000000   0.0000000   0.0000000), wk =   0.2222222
        k(    2) = (   0.0112861   0.3852908   0.0269709), wk =   0.4444444
        k(    3) = (   0.3274758  -0.2047115  -0.0119262), wk =   0.4444444
        k(    4) = (   0.3387619   0.1805794   0.0150446), wk =   0.4444444
        k(    5) = (   0.3161898  -0.5900023  -0.0388971), wk =   0.4444444

     Initial potential from superposition of free atoms

     starting charge  215.98107, renormalised to  216.00000

     negative rho (up, down):  9.278E-04 0.000E+00
     Starting wfcs are  204 randomized atomic wfcs

     Self-consistent Calculation

     iteration #  1     ecut=    45.00 Ry     beta= 0.70
     Davidson diagonalization with overlap
     ethr =  1.00E-02,  avg # of iterations =  2.0

     negative rho (up, down):  2.787E-04 0.000E+00

     total energy              =    -842.55490789 Ry
     Harris-Foulkes estimate   =    -845.81033293 Ry
     estimated scf accuracy    <      10.64643990 Ry

[...]

     iteration #  5     ecut=    45.00 Ry     beta= 0.70
     Davidson diagonalization with overlap
     c_bands:  2 eigenvalues not converged
     ethr =  6.02E-05,  avg # of iterations =  9.6

[...]

     total energy              =    -844.33220275 Ry
     Harris-Foulkes estimate   =    -844.33219951 Ry
     estimated scf accuracy    <       0.00000315 Ry

     iteration # 20     ecut=    45.00 Ry     beta= 0.70
     Davidson diagonalization with overlap
     ethr =  1.46E-09,  avg # of iterations =  1.0

[...]

     End of self-consistent calculation

          k = 0.0000 0.0000 0.0000 ( 43387 PWs)   bands (ev):

   -12.8493 -12.4882 -11.8916 -11.8241 -11.5726 -11.3218 -11.3051 -11.2967
   -11.2764 -10.9789 -10.9544 -10.9333 -10.8850 -10.8502 -10.6846 -10.6516
   -10.6408 -10.5373 -10.4904 -10.3712 -10.2878 -10.2643  -9.9472  -9.4086
    -4.8495  -4.8478  -4.8463  -4.4868  -4.4789  -4.4725  -4.3556  -3.9698
    -3.6381  -3.2558  -3.2465  -3.2356  -3.1517  -3.0889  -2.9652  -2.9594
    -2.9556  -2.8936  -2.8768  -2.8640  -2.8402  -2.7517  -2.6809  -2.5368
    -2.5303  -2.3357  -2.2669  -2.1807  -2.0459  -2.0129  -1.9346  -1.8922
    -1.8477  -1.8397  -1.7669  -1.7444  -1.6163  -1.5952  -1.5315  -1.5192
    -1.4927  -1.3713  -1.3698  -1.1680  -1.1151  -0.9614  -0.9100  -0.9072
    -0.8646  -0.8526  -0.8447  -0.6832  -0.6636  -0.6458  -0.5712  -0.5181
    -0.3245  -0.2296  -0.1948  -0.1852  -0.1133  -0.0697   0.0160   0.0639
     0.1003   0.1728   0.3392   0.4051   0.4215   0.4850   0.6186   0.6568
     0.7235   0.8112   0.9243   0.9445   1.0344   1.0436   1.0782   1.2137
     1.3513   1.4617   1.6141   1.6185   1.7420   1.8189   1.8723   1.9668
     2.1444   2.3859   2.5344   2.7682   2.8511   2.8617   2.8750   3.0470
     3.1925   3.2866   3.3056   3.3144   3.4773   3.5321   3.5460   3.5575
     3.5764   3.5924

[...]

          k = 0.3162-0.5900-0.0389 ( 43538 PWs)   bands (ev):

   -11.7892 -11.7753 -11.7485 -11.5503 -11.5432 -11.4351 -11.4271 -11.4161
   -11.3758 -11.3351 -11.3073 -11.2171 -11.1468 -11.1187 -10.8963 -10.7972
   -10.7955 -10.7926 -10.5475 -10.4873 -10.4295 -10.3729 -10.0830  -9.5290
    -3.5646  -3.5620  -3.4247  -3.3975  -3.3403  -3.3377  -3.3175  -3.3110
    -3.2834  -3.2544  -3.1897  -3.1358  -3.0357  -3.0087  -2.9925  -2.9704
    -2.9324  -2.8502  -2.8204  -2.7767  -2.6983  -2.6682  -2.6487  -2.6343
    -2.6281  -2.6191  -2.5678  -2.3327  -2.2841  -2.2021  -2.1843  -2.1680
    -1.9934  -1.9622  -1.9326  -1.8190  -1.7888  -1.7099  -1.6717  -1.6247
    -1.5854  -1.5757  -1.5437  -1.5228  -1.5100  -1.4186  -1.3220  -1.3184
    -1.2572  -1.2315  -1.2060  -1.1791  -1.1282  -1.0427  -0.9139  -0.8659
    -0.7858  -0.6479  -0.5360  -0.4969  -0.3902  -0.2055  -0.1947  -0.1593
    -0.0948  -0.0278   0.0164   0.1567   0.2318   0.2830   0.6065   0.7168
     0.8513   1.0965   1.1185   1.1388   1.1544   1.1784   1.2307   1.3217
     1.4570   1.4899   1.5700   1.8743   1.9150   1.9398   1.9522   1.9791
     2.1576   2.2351   2.2748   2.3315   2.3343   2.6326   2.6543   2.7660
     2.7881   2.9128   2.9646   2.9894   3.0250   3.0725   3.3180   3.3594
     3.4279   3.4584

     the Fermi energy is     1.7321 ev

!    total energy              =    -844.33220146 Ry
     Harris-Foulkes estimate   =    -844.33220292 Ry
     estimated scf accuracy    <       0.00000089 Ry

     The total energy is the sum of the following terms:

     one-electron contribution =   -5894.04627809 Ry
     hartree contribution      =    3030.85544684 Ry
     xc contribution           =    -332.91533650 Ry
     ewald contribution        =    2351.76126392 Ry
     smearing contrib. (-TS)   =       0.01270236 Ry

     convergence has been achieved in  20 iterations

     negative rho (up, down):  1.273E-03 0.000E+00

     Forces acting on atoms (cartesian axes, Ry/au):

     atom    1 type  1   force =     0.01142932    0.05634604   -0.10321600
     atom    2 type  1   force =     0.02471279    0.01460623   -0.06707166
     atom    3 type  1   force =     0.05173297   -0.05395290   -0.05031690
     atom    4 type  1   force =     0.00402184    0.02510415    0.03014507
     atom    5 type  1   force =     0.00943035   -0.00651949   -0.00240255
     atom    6 type  1   force =     0.00612905   -0.00434081   -0.00065329
     atom    7 type  1   force =    -0.00539101    0.00857282   -0.00018667
     atom    8 type  1   force =    -0.00904986    0.00150112    0.00094066
     atom    9 type  1   force =    -0.01067269   -0.00691308    0.00014508
     atom   10 type  1   force =     0.01251865    0.00535438    0.00131658
     atom   11 type  1   force =    -0.01390639   -0.00585084   -0.00002429
     atom   12 type  1   force =     0.00902266    0.00516277   -0.00225564
     atom   13 type  2   force =     0.00623787   -0.00984850   -0.02107852
     atom   14 type  2   force =     0.01322803    0.00499370   -0.00860001
     atom   15 type  2   force =    -0.00315653   -0.01181469   -0.03973928
     atom   16 type  2   force =    -0.05471006   -0.02813345    0.09678510
     atom   17 type  2   force =    -0.00155354   -0.00132384   -0.00146003
     atom   18 type  2   force =    -0.00263212   -0.00142297   -0.00893100
     atom   19 type  2   force =    -0.00334420    0.00058055    0.00288140
     atom   20 type  2   force =    -0.00474933   -0.00054188    0.00099766
     atom   21 type  2   force =    -0.00840368   -0.00290021   -0.00201395
     atom   22 type  2   force =    -0.00140142    0.00034957    0.03061926
     atom   23 type  2   force =    -0.00805969   -0.00269186   -0.00521116
     atom   24 type  2   force =     0.00032399   -0.00014985    0.02874005
     atom   25 type  2   force =    -0.01992304   -0.02231213    0.11349207
     atom   26 type  2   force =     0.01106308    0.02734310   -0.01013340
     atom   27 type  2   force =    -0.01631641    0.00765090    0.04935629
     atom   28 type  2   force =    -0.02759202   -0.00969509    0.01264418
     atom   29 type  2   force =     0.00247079    0.00197538    0.00637263
     atom   30 type  2   force =     0.00160871    0.00066395    0.00514165
     atom   31 type  2   force =     0.00426905    0.00027804    0.00107366
     atom   32 type  2   force =     0.00316664   -0.00001513   -0.00407462
     atom   33 type  2   force =     0.00049579   -0.00248030   -0.02741169
     atom   34 type  2   force =     0.01165247    0.00453559   -0.00136003
     atom   35 type  2   force =    -0.00220107    0.00037776   -0.02665590
     atom   36 type  2   force =     0.00954904    0.00551096    0.00214524

     Total force =     0.261260     Total SCF correction =     0.002319

     General routines

     Parallel routines

   This run was terminated on:  17:11:31  18Oct2021

   JOB DONE.