     Program PWSCF v.6.4 starts on  8Sep2021 at 12: 7: 7

     R & G space division:  proc/nbgrp/npool/nimage =      40
     Waiting for input...
     Reading input from standard input
Warning: card    &IONS ignored
Warning: card      ION_DYNAMICS = 'BFGS' ignored
Warning: card   / ignored
Warning: card    &CELL ignored
Warning: card      CELL_DYNAMICS = 'BFGS', ignored
Warning: card    / ignored

     Current dimensions of program PWSCF are:
     Max number of different atomic species (ntypx) = 10
     Max number of k-points (npk) =  40000
     Max angular momentum in pseudopotentials (lmaxx) =  3

     bravais-lattice index     =            0
     lattice parameter (alat)  =      12.3158  a.u.
     unit-cell volume          =    4341.9724 (a.u.)^3
     number of atoms/cell      =           12
     number of atomic types    =            2
     number of electrons       =        72.00
     number of Kohn-Sham states=           43
     kinetic-energy cutoff     =      45.0000  Ry
     charge density cutoff     =     360.0000  Ry
     convergence threshold     =      1.0E-06
     mixing beta               =       0.7000
     number of iterations used =            8  local-TF  mixing
     Exchange-correlation      = SLA PW GGX GGC ( 1  4  2  2 0 0)

     celldm(1)=  12.315805  celldm(2)=   0.000000  celldm(3)=   0.000000
     celldm(4)=   0.000000  celldm(5)=   0.000000  celldm(6)=   0.000000

     crystal axes: (cart. coord. in units of alat)
               a(1) = (   0.999085   0.042550   0.004210 )
               a(2) = (  -0.525703   0.850715  -0.000783 )
               a(3) = (   0.231476   0.102287   2.665715 )

     reciprocal axes: (cart. coord. in units 2 pi/alat)
               b(1) = (  0.975696  0.602836 -0.107856 )
               b(2) = ( -0.048614  1.145404 -0.039729 )
               b(3) = ( -0.001555 -0.000616  0.375293 )

     PseudoPot. # 1 for Mo read from file:
     ~/pseudo/Mo.pw91-n-van.UPF
     MD5 check sum: Not computed, couldn't open file
     Pseudo is Ultrasoft + core correction, Zval =  6.0
     Generated by new atomic code, or converted to UPF format
     Using radial grid of  965 points,  3 beta functions with:
                l(1) =   1
                l(2) =   2
                l(3) =   2
     Q(r) pseudized with  8 coefficients,  rinner =    1.000   1.000   1.000
                                                       1.200   1.200

     PseudoPot. # 2 for S  read from file:
     ~/pseudo/S.pw91-van_ak.UPF
     MD5 check sum: Not computed, couldn't open file
     Pseudo is Ultrasoft, Zval =  6.0
     Generated by new atomic code, or converted to UPF format
     Using radial grid of  811 points,  6 beta functions with:
                l(1) =   0
                l(2) =   0
                l(3) =   1
                l(4) =   1
                l(5) =   2
                l(6) =   2
     Q(r) pseudized with  8 coefficients,  rinner =    1.100   1.100   1.100
                                                       1.100   1.100

     atomic species   valence    mass     pseudopotential
        Mo             6.00    95.50000     Mo( 1.00)
        S              6.00    32.06500     S ( 1.00)

     No symmetry found

   Cartesian axes

     site n.     atom                  positions (alat units)
         1           Mo  tau(   1) = (  -0.0074290  -0.1187156  -0.0057985  )
         2           Mo  tau(   2) = (  -0.2861803   0.3730156  -0.0116666  )
         3           Mo  tau(   3) = (   0.5364550  -0.0745290   0.0049061  )
         4           Mo  tau(   4) = (   0.2383645   0.4113580   0.0069049  )
         5           S   tau(   5) = (  -0.0174354   0.5143356   0.2498172  )
         6           S   tau(   6) = (  -0.2772776   0.9316949   0.2175213  )
         7           S   tau(   7) = (   0.4867598   0.5079147   0.2634988  )
         8           S   tau(   8) = (   0.2333028   0.9636611   0.2325431  )
         9           S   tau(   9) = (   0.2337547   0.3119630   2.4503258  )
        10           S   tau(  10) = (  -0.0231853   0.7597105   2.4186832  )
        11           S   tau(  11) = (   0.7280213   0.3472913   2.4316329  )
        12           S   tau(  12) = (   0.4686102   0.7619954   2.3986326  )

     number of k points=     5  Marzari-Vanderbilt smearing, width (Ry)=  0.0200
                       cart. coord. in units 2pi/alat
        k(    1) = (   0.0000000   0.0000000   0.0000000), wk =   0.2222222
        k(    2) = (  -0.0162048   0.3818014  -0.0132431), wk =   0.4444444
        k(    3) = (   0.3252318   0.2009455  -0.0359519), wk =   0.4444444
        k(    4) = (   0.3090271   0.5827469  -0.0491950), wk =   0.4444444
        k(    5) = (   0.3414366  -0.1808560  -0.0227088), wk =   0.4444444

     Initial potential from superposition of free atoms

     starting charge   71.99369, renormalised to   72.00000

     negative rho (up, down):  6.835E-04 0.000E+00
     Starting wfcs are   68 randomized atomic wfcs

     Self-consistent Calculation

     iteration #  1     ecut=    45.00 Ry     beta= 0.70
     Davidson diagonalization with overlap
     ethr =  1.00E-02,  avg # of iterations =  2.0

     negative rho (up, down):  6.434E-05 0.000E+00

     total energy              =    -281.13616344 Ry
     Harris-Foulkes estimate   =    -282.12585334 Ry
     estimated scf accuracy    <       2.59908608 Ry

[...]

     total energy              =    -281.64605218 Ry
     Harris-Foulkes estimate   =    -281.64605194 Ry
     estimated scf accuracy    <       0.00000189 Ry

     iteration # 15     ecut=    45.00 Ry     beta= 0.70
     Davidson diagonalization with overlap
     ethr =  2.62E-09,  avg # of iterations =  1.2

[...]

     End of self-consistent calculation

          k = 0.0000 0.0000 0.0000 ( 22115 PWs)   bands (ev):

   -15.0463 -14.0840 -13.7573 -13.6144 -13.4352 -13.1990 -12.9493 -12.7405
    -7.0421  -6.9876  -6.9223  -6.4364  -5.6285  -5.5424  -5.4845  -5.2121
    -5.0359  -4.9676  -4.6076  -4.4207  -4.0828  -4.0247  -3.8762  -3.4248
    -3.4128  -3.3139  -3.1362  -2.7736  -2.6095  -2.4175  -2.1896  -2.0342
    -1.9343  -1.4745  -1.3079  -1.1014  -0.8685  -0.7719   0.2577   0.5821
     0.9064   1.1401   1.3369

          k =-0.0162 0.3818-0.0132 ( 22119 PWs)   bands (ev):

[...]

          k = 0.3414-0.1809-0.0227 ( 22186 PWs)   bands (ev):

   -14.6873 -13.9718 -13.8805 -13.6775 -13.5580 -13.3646 -13.1308 -12.8346
    -6.5965  -6.2993  -6.1153  -6.0141  -5.7740  -5.6766  -5.4548  -5.1177
    -4.9591  -4.7995  -4.6288  -4.5683  -4.3913  -4.2499  -3.9595  -3.8244
    -3.6471  -3.5177  -3.3274  -3.1350  -2.8048  -2.5536  -2.3289  -2.1479
    -2.0517  -1.8351  -1.5660  -1.3058  -1.0047  -0.3925   0.2846   0.4313
     0.7553   1.1174   1.1558

     the Fermi energy is    -1.0813 ev

!    total energy              =    -281.64605264 Ry
     Harris-Foulkes estimate   =    -281.64605227 Ry
     estimated scf accuracy    <       0.00000044 Ry

     The total energy is the sum of the following terms:

     one-electron contribution =   -1348.77562770 Ry
     hartree contribution      =     695.47481279 Ry
     xc contribution           =    -111.18567718 Ry
     ewald contribution        =     482.83768774 Ry
     smearing contrib. (-TS)   =       0.00275171 Ry

     convergence has been achieved in  15 iterations

     negative rho (up, down):  9.487E-04 0.000E+00

     Forces acting on atoms (cartesian axes, Ry/au):

     atom    1 type  1   force =     0.00908183    0.00193929    0.00279362
     atom    2 type  1   force =     0.01340596    0.00098867    0.00399193
     atom    3 type  1   force =    -0.00856711    0.00454343   -0.00614770
     atom    4 type  1   force =     0.00348393   -0.00261228    0.00241977
     atom    5 type  2   force =    -0.00330415   -0.01188683    0.00849790
     atom    6 type  2   force =    -0.00265761    0.00072812   -0.01597116
     atom    7 type  2   force =    -0.00357412    0.01635429    0.01302919
     atom    8 type  2   force =     0.00214014   -0.00850155   -0.00173507
     atom    9 type  2   force =    -0.00023228    0.00330176    0.00530410
     atom   10 type  2   force =    -0.00350838   -0.00410915    0.00018549
     atom   11 type  2   force =    -0.00546675   -0.01205495   -0.00462682
     atom   12 type  2   force =    -0.00080146    0.01130920   -0.00774124

     Total force =     0.043791     Total SCF correction =     0.001398

     General routines

     Parallel routines

   This run was terminated on:  12: 7:37   8Sep2021

   JOB DONE.