     Program PWSCF v.6.4 starts on 23Dec2021 at 22:58:25

     R & G space division:  proc/nbgrp/npool/nimage =      40
     Waiting for input...
     Reading input from standard input
Warning: card    &IONS ignored
Warning: card      ION_DYNAMICS = 'BFGS' ignored
Warning: card   / ignored
Warning: card    &CELL ignored
Warning: card      CELL_DYNAMICS = 'BFGS', ignored
Warning: card    / ignored

     Current dimensions of program PWSCF are:
     Max number of different atomic species (ntypx) = 10
     Max number of k-points (npk) =  40000
     Max angular momentum in pseudopotentials (lmaxx) =  3

     bravais-lattice index     =            0
     lattice parameter (alat)  =      10.5892  a.u.
     unit-cell volume          =    2883.4759 (a.u.)^3
     number of atoms/cell      =           21
     number of atomic types    =            2
     number of electrons       =       126.00
     number of Kohn-Sham states=           76
     kinetic-energy cutoff     =      45.0000  Ry
     charge density cutoff     =     360.0000  Ry
     convergence threshold     =      1.0E-06
     mixing beta               =       0.7000
     number of iterations used =            8  local-TF  mixing
     Exchange-correlation      = SLA PW GGX GGC ( 1  4  2  2 0 0)

     celldm(1)=  10.589175  celldm(2)=   0.000000  celldm(3)=   0.000000
     celldm(4)=   0.000000  celldm(5)=   0.000000  celldm(6)=   0.000000

     crystal axes: (cart. coord. in units of alat)
               a(1) = (   1.000000   0.000000   0.000000 )
               a(2) = (   0.001637   1.201193   0.000000 )
               a(3) = (   0.499902   0.012086   2.021702 )

     reciprocal axes: (cart. coord. in units 2 pi/alat)
               b(1) = (  1.000000 -0.001363 -0.247259 )
               b(2) = (  0.000000  0.832506 -0.004977 )
               b(3) = (  0.000000  0.000000  0.494633 )

     PseudoPot. # 1 for Mo read from file:
     ~/pseudo/Mo.pw91-n-van.UPF
     MD5 check sum: Not computed, couldn't open file
     Pseudo is Ultrasoft + core correction, Zval =  6.0
     Generated by new atomic code, or converted to UPF format
     Using radial grid of  965 points,  3 beta functions with:
                l(1) =   1
                l(2) =   2
                l(3) =   2
     Q(r) pseudized with  8 coefficients,  rinner =    1.000   1.000   1.000
                                                       1.200   1.200

     PseudoPot. # 2 for S  read from file:
     ~/pseudo/S.pw91-van_ak.UPF
     MD5 check sum: Not computed, couldn't open file
     Pseudo is Ultrasoft, Zval =  6.0
     Generated by new atomic code, or converted to UPF format
     Using radial grid of  811 points,  6 beta functions with:
                l(1) =   0
                l(2) =   0
                l(3) =   1
                l(4) =   1
                l(5) =   2
                l(6) =   2
     Q(r) pseudized with  8 coefficients,  rinner =    1.100   1.100   1.100
                                                       1.100   1.100

     atomic species   valence    mass     pseudopotential
        Mo             6.00    95.50000     Mo( 1.00)
        S              6.00    32.06500     S ( 1.00)

     No symmetry found

   Cartesian axes

     site n.     atom                  positions (alat units)
         1           Mo  tau(   1) = (   0.7261132   0.9246838   0.4169987  )
         2           Mo  tau(   2) = (   0.7254995   0.9272266   0.9942520  )
         3           Mo  tau(   3) = (   1.2257671   0.9297697   1.2833382  )
         4           Mo  tau(   4) = (   1.2263332   0.9343785   1.8612791  )
         5           Mo  tau(   5) = (   0.2263371   0.9232787   0.1281079  )
         6           Mo  tau(   6) = (   0.2254222   0.9251632   0.7055923  )
         7           Mo  tau(   7) = (   0.7261125   0.9323332   1.5720032  )
         8           S   tau(   8) = (   1.0594461   0.6526790   1.5746114  )
         9           S   tau(   9) = (   0.5583666   1.2053095   0.7041532  )
        10           S   tau(  10) = (   0.5594989   0.6543453   1.8623064  )
        11           S   tau(  11) = (   0.5592113   0.6501451   1.2853421  )
        12           S   tau(  12) = (   1.0580157   0.0029565   0.4155200  )
        13           S   tau(  13) = (   0.5583703   0.0125743   1.8594219  )
        14           S   tau(  14) = (   0.5591432   0.6459792   0.7067140  )
        15           S   tau(  15) = (   0.5575997   0.0082657   1.2809239  )
        16           S   tau(  16) = (   1.0586778   1.2068184   0.9924129  )
        17           S   tau(  17) = (   1.0589448   0.6475488   0.9966567  )
        18           S   tau(  18) = (   0.5598708   0.6437873   0.1296381  )
        19           S   tau(  19) = (   1.0591539   0.6444195   0.4177075  )
        20           S   tau(  20) = (   1.0581085   0.0107368   1.5704189  )
        21           S   tau(  21) = (   0.5580428   0.0021804   0.1270218  )

     number of k points=    10  Marzari-Vanderbilt smearing, width (Ry)=  0.0200
                       cart. coord. in units 2pi/alat
        k(    1) = (   0.0000000   0.0000000   0.0000000), wk =   0.1111111
        k(    2) = (   0.0000000   0.0000000  -0.2473163), wk =   0.1111111
        k(    3) = (   0.0000000   0.2775019  -0.0016589), wk =   0.2222222
        k(    4) = (   0.0000000   0.2775019  -0.2489752), wk =   0.2222222
        k(    5) = (   0.3333333  -0.0004544  -0.0824198), wk =   0.2222222
        k(    6) = (   0.3333333  -0.0004544  -0.3297362), wk =   0.2222222
        k(    7) = (   0.3333333   0.2770475  -0.0840787), wk =   0.2222222
        k(    8) = (   0.3333333   0.2770475  -0.3313951), wk =   0.2222222
        k(    9) = (   0.3333333  -0.2779562  -0.0807609), wk =   0.2222222
        k(   10) = (   0.3333333  -0.2779562  -0.3280773), wk =   0.2222222

     Initial potential from superposition of free atoms

     starting charge  125.98896, renormalised to  126.00000
     Starting wfcs are  119 randomized atomic wfcs

     Self-consistent Calculation

     iteration #  1     ecut=    45.00 Ry     beta= 0.70
     Davidson diagonalization with overlap
     ethr =  1.00E-02,  avg # of iterations =  2.3

     total energy              =    -492.44444855 Ry
     Harris-Foulkes estimate   =    -493.99691524 Ry
     estimated scf accuracy    <       3.96306798 Ry

[...]

     iteration #  6     ecut=    45.00 Ry     beta= 0.70
     Davidson diagonalization with overlap
     c_bands:  1 eigenvalues not converged
     c_bands:  3 eigenvalues not converged
     c_bands:  1 eigenvalues not converged
     ethr =  7.53E-07,  avg # of iterations = 11.5

[...]

     total energy              =    -493.21684757 Ry
     Harris-Foulkes estimate   =    -493.21684959 Ry
     estimated scf accuracy    <       0.00000994 Ry

     iteration # 11     ecut=    45.00 Ry     beta= 0.70
     Davidson diagonalization with overlap
     ethr =  7.89E-09,  avg # of iterations =  3.0

     End of self-consistent calculation

          k = 0.0000 0.0000 0.0000 ( 14749 PWs)   bands (ev):

    -7.5194  -6.7867  -6.7866  -6.1748  -5.8461  -5.8450  -5.7551  -5.7540
    -5.6842  -5.6828  -5.3873  -5.3846  -5.3345  -5.3328   0.7846   1.1353
     1.1385   1.4579   1.4598   1.4766   1.4768   1.6487   1.6519   1.7008
     1.7048   2.3901   2.3920   2.6602   2.6629   2.6773   2.6787   3.0939
     3.1001   3.3831   3.3844   3.4647   3.4697   3.6299   3.6338   3.7322
     3.7332   3.8437   3.8483   4.3386   4.3432   4.4860   4.4868   4.9041
     4.9047   4.9685   4.9721   5.0196   5.0235   5.6324   5.7366   5.7378
     5.9112   5.9114   6.0321   6.0365   6.1949   6.1970   6.1981   8.1848
     8.1854   8.2050   8.2071   8.4014   8.4091   8.7039   8.7043   9.0444
     9.0522   9.1226   9.1845   9.1861

[...]

          k = 0.3333-0.2780-0.3281 ( 14689 PWs)   bands (ev):

    -7.0153  -6.7873  -6.2610  -6.1022  -6.0836  -5.9743  -5.9731  -5.8301
    -5.7989  -5.7265  -5.6563  -5.5789  -5.5267  -5.4961   1.0748   1.2785
     1.3689   1.4532   1.5444   1.6108   1.7239   1.7492   1.8523   2.0226
     2.1806   2.3791   2.6471   2.7217   2.7598   2.7792   2.7985   2.9098
     3.0458   3.2026   3.2755   3.3290   3.3679   3.5360   3.5526   3.5888
     3.8944   4.0130   4.1221   4.1949   4.3085   4.5273   4.5490   4.6525
     4.6940   4.7856   4.9386   4.9949   5.1276   5.1990   5.2260   5.3605
     5.6779   5.6983   5.8264   5.9736   6.0015   6.0034   6.2995   8.4890
     8.5059   8.5162   8.5478   8.5865   8.6443   8.6664   8.7995   8.8107
     8.8197   8.8636   8.8692   8.9702

     the Fermi energy is     6.9512 ev

!    total energy              =    -493.21684812 Ry
     Harris-Foulkes estimate   =    -493.21684858 Ry
     estimated scf accuracy    <       0.00000052 Ry

     The total energy is the sum of the following terms:

     one-electron contribution =     -32.09683122 Ry
     hartree contribution      =      88.78211322 Ry
     xc contribution           =    -194.90258126 Ry
     ewald contribution        =    -355.00285624 Ry
     smearing contrib. (-TS)   =       0.00330738 Ry

     convergence has been achieved in  11 iterations

     Forces acting on atoms (cartesian axes, Ry/au):

     atom    1 type  1   force =     0.00045408   -0.00037908    0.00007503
     atom    2 type  1   force =     0.00038644    0.00001907   -0.00034775
     atom    3 type  1   force =    -0.00011179   -0.00027398    0.00120326
     atom    4 type  1   force =    -0.00040369   -0.00065893   -0.00148735
     atom    5 type  1   force =    -0.00093447   -0.00039641    0.00021717
     atom    6 type  1   force =    -0.00062568    0.00035504   -0.00065576
     atom    7 type  1   force =    -0.00030758   -0.00060286    0.00038044
     atom    8 type  2   force =     0.00046079   -0.00030633   -0.00067606
     atom    9 type  2   force =     0.00070196    0.00029559    0.00011144
     atom   10 type  2   force =    -0.00015300    0.00020897    0.00021541
     atom   11 type  2   force =     0.00000619   -0.00006603    0.00082872
     atom   12 type  2   force =    -0.00047341    0.00013955    0.00069530
     atom   13 type  2   force =    -0.00047033    0.00022722   -0.00013157
     atom   14 type  2   force =     0.00018753   -0.00008945    0.00014267
     atom   15 type  2   force =    -0.00012333   -0.00009139   -0.00016295
     atom   16 type  2   force =     0.00054708    0.00073278   -0.00036266
     atom   17 type  2   force =     0.00046284    0.00040405   -0.00000744
     atom   18 type  2   force =     0.00006079    0.00003696   -0.00015143
     atom   19 type  2   force =     0.00003674    0.00073032    0.00072001
     atom   20 type  2   force =     0.00003592    0.00012930   -0.00048807
     atom   21 type  2   force =     0.00026293   -0.00041440   -0.00011840

     Total force =     0.003719     Total SCF correction =     0.001566
     SCF correction compared to forces is large: reduce conv_thr to get better values

     General routines

     Parallel routines

   This run was terminated on:  22:59: 8  23Dec2021

   JOB DONE.