     Program PWSCF v.6.4 starts on 10Nov2021 at 18: 5:18

     R & G space division:  proc/nbgrp/npool/nimage =      40
     Waiting for input...
     Reading input from standard input
Warning: card    &IONS ignored
Warning: card      ION_DYNAMICS = 'BFGS' ignored
Warning: card   / ignored
Warning: card    &CELL ignored
Warning: card      CELL_DYNAMICS = 'BFGS', ignored
Warning: card    / ignored

     Current dimensions of program PWSCF are:
     Max number of different atomic species (ntypx) = 10
     Max number of k-points (npk) =  40000
     Max angular momentum in pseudopotentials (lmaxx) =  3

     bravais-lattice index     =            0
     lattice parameter (alat)  =       6.1000  a.u.
     unit-cell volume          =    1289.6838 (a.u.)^3
     number of atoms/cell      =            9
     number of atomic types    =            2
     number of electrons       =        54.00
     number of Kohn-Sham states=           32
     kinetic-energy cutoff     =      45.0000  Ry
     charge density cutoff     =     360.0000  Ry
     convergence threshold     =      1.0E-06
     mixing beta               =       0.7000
     number of iterations used =            8  local-TF  mixing
     Exchange-correlation      = SLA PW GGX GGC ( 1  4  2  2 0 0)

     celldm(1)=   6.099962  celldm(2)=   0.000000  celldm(3)=   0.000000
     celldm(4)=   0.000000  celldm(5)=   0.000000  celldm(6)=   0.000000

     crystal axes: (cart. coord. in units of alat)
               a(1) = (   1.000000   0.000000   0.000000 )
               a(2) = (   0.498740   0.862705   0.000000 )
               a(3) = (   0.304174   0.051641   6.586266 )

     reciprocal axes: (cart. coord. in units 2 pi/alat)
               b(1) = (  1.000000 -0.578111 -0.041650 )
               b(2) = (  0.000000  1.159144 -0.009089 )
               b(3) = (  0.000000  0.000000  0.151831 )

     PseudoPot. # 1 for Mo read from file:
     ~/pseudo/Mo.pw91-n-van.UPF
     MD5 check sum: Not computed, couldn't open file
     Pseudo is Ultrasoft + core correction, Zval =  6.0
     Generated by new atomic code, or converted to UPF format
     Using radial grid of  965 points,  3 beta functions with:
                l(1) =   1
                l(2) =   2
                l(3) =   2
     Q(r) pseudized with  8 coefficients,  rinner =    1.000   1.000   1.000
                                                       1.200   1.200

     PseudoPot. # 2 for S  read from file:
     ~/pseudo/S.pw91-van_ak.UPF
     MD5 check sum: Not computed, couldn't open file
     Pseudo is Ultrasoft, Zval =  6.0
     Generated by new atomic code, or converted to UPF format
     Using radial grid of  811 points,  6 beta functions with:
                l(1) =   0
                l(2) =   0
                l(3) =   1
                l(4) =   1
                l(5) =   2
                l(6) =   2
     Q(r) pseudized with  8 coefficients,  rinner =    1.100   1.100   1.100
                                                       1.100   1.100

     atomic species   valence    mass     pseudopotential
        Mo             6.00    95.50000     Mo( 1.00)
        S              6.00    32.06500     S ( 1.00)

     No symmetry found

   Cartesian axes

     site n.     atom                  positions (alat units)
         1           Mo  tau(   1) = (   1.0155181   0.6443882   2.2312194  )
         2           Mo  tau(   2) = (   0.5568631   0.4183278   4.2013288  )
         3           Mo  tau(   3) = (   0.7302537   0.7163180   0.1493433  )
         4           S   tau(   4) = (   0.7233813   0.1460808   0.6391236  )
         5           S   tau(   5) = (   1.0206603   0.0635192   1.7454322  )
         6           S   tau(   6) = (   1.0128477   0.0751599   2.7190263  )
         7           S   tau(   7) = (   1.0622750   0.7100845   3.7093698  )
         8           S   tau(   8) = (   1.0517459   0.7005177   4.6855542  )
         9           S   tau(   9) = (   1.0363128   0.1854493   6.2515689  )

     number of k points=    20  Marzari-Vanderbilt smearing, width (Ry)=  0.0200
                       cart. coord. in units 2pi/alat
        k(    1) = (   0.0000000   0.0000000   0.0000000), wk =   0.0555556
        k(    2) = (   0.0000000   0.1931907  -0.0015148), wk =   0.1111111
        k(    3) = (   0.0000000   0.3863814  -0.0030295), wk =   0.1111111
        k(    4) = (   0.0000000  -0.5795721   0.0045443), wk =   0.0555556
        k(    5) = (   0.1666667  -0.0963519  -0.0069417), wk =   0.1111111
        k(    6) = (   0.1666667   0.0968388  -0.0084565), wk =   0.1111111
        k(    7) = (   0.1666667   0.2900295  -0.0099712), wk =   0.1111111
        k(    8) = (   0.1666667  -0.6759240  -0.0023974), wk =   0.1111111
        k(    9) = (   0.1666667  -0.4827333  -0.0039122), wk =   0.1111111
        k(   10) = (   0.1666667  -0.2895426  -0.0054269), wk =   0.1111111
        k(   11) = (   0.3333333  -0.1927038  -0.0138834), wk =   0.1111111
        k(   12) = (   0.3333333   0.0004869  -0.0153982), wk =   0.1111111
        k(   13) = (   0.3333333   0.1936777  -0.0169129), wk =   0.1111111
        k(   14) = (   0.3333333  -0.7722759  -0.0093391), wk =   0.1111111
        k(   15) = (   0.3333333  -0.5790852  -0.0108539), wk =   0.1111111
        k(   16) = (   0.3333333  -0.3858945  -0.0123686), wk =   0.1111111
        k(   17) = (  -0.5000000   0.2890556   0.0208251), wk =   0.0555556
        k(   18) = (  -0.5000000   0.4822463   0.0193103), wk =   0.1111111
        k(   19) = (  -0.5000000   0.6754371   0.0177956), wk =   0.1111111
        k(   20) = (  -0.5000000  -0.2905165   0.0253694), wk =   0.0555556

     Initial potential from superposition of free atoms

     starting charge   53.99527, renormalised to   54.00000
     Starting wfcs are   51 randomized atomic wfcs

     Self-consistent Calculation

     iteration #  1     ecut=    45.00 Ry     beta= 0.70
     Davidson diagonalization with overlap
     ethr =  1.00E-02,  avg # of iterations =  2.0

     total energy              =    -211.05292033 Ry
     Harris-Foulkes estimate   =    -211.71016297 Ry
     estimated scf accuracy    <       1.67949112 Ry

[...]

     iteration #  6     ecut=    45.00 Ry     beta= 0.70
     Davidson diagonalization with overlap
     c_bands:  1 eigenvalues not converged
     ethr =  1.88E-06,  avg # of iterations =  8.1

[...]

     total energy              =    -211.38242106 Ry
     Harris-Foulkes estimate   =    -211.38242107 Ry
     estimated scf accuracy    <       0.00000113 Ry

     iteration # 14     ecut=    45.00 Ry     beta= 0.70
     Davidson diagonalization with overlap
     ethr =  2.05E-09,  avg # of iterations =  1.0

     End of self-consistent calculation

          k = 0.0000 0.0000 0.0000 (  6647 PWs)   bands (ev):

    -8.1275  -8.0225  -7.9994  -6.9429  -6.8097  -6.7571   0.2002   0.4954
     0.6853   3.2670   3.3108   3.3310   3.3400   3.3793   3.3844   3.7432
     4.2252   4.3966   4.4148   4.4316   4.4581   4.4930   4.5297   4.9261
     5.7160   6.1355   6.3359   8.5391   8.5923   8.6085   8.6255   8.6557

[...]

          k = 0.3333-0.3859-0.0124 (  6543 PWs)   bands (ev):

[...]

          k =-0.5000 0.2891 0.0208 (  6526 PWs)   bands (ev):

[...]

          k =-0.5000-0.2905 0.0254 (  6518 PWs)   bands (ev):

    -6.3807  -6.3098  -6.2917  -6.0961  -6.0314  -6.0221   0.2642   0.3395
     0.3544   1.2035   1.2852   1.3249   1.8647   1.9833   2.0190   2.7809
     2.8558   2.8792   3.9647   4.1217   4.2352   4.9215   5.0161   5.0205
     5.2328   5.3115   5.3570   7.9178   7.9696   7.9729   8.4230   8.4906

     the Fermi energy is     6.1530 ev

!    total energy              =    -211.38242014 Ry
     Harris-Foulkes estimate   =    -211.38242107 Ry
     estimated scf accuracy    <       0.00000100 Ry

     The total energy is the sum of the following terms:

     one-electron contribution =     -77.97256316 Ry
     hartree contribution      =      69.07251692 Ry
     xc contribution           =     -83.55433320 Ry
     ewald contribution        =    -118.93210383 Ry
     smearing contrib. (-TS)   =       0.00406312 Ry

     convergence has been achieved in  14 iterations

     Forces acting on atoms (cartesian axes, Ry/au):

     atom    1 type  1   force =     0.00116953    0.00121220    0.00348094
     atom    2 type  1   force =     0.00036484   -0.00084998   -0.01557993
     atom    3 type  1   force =    -0.00837108   -0.00238104    0.01103821
     atom    4 type  2   force =     0.00835749   -0.00572287   -0.00315379
     atom    5 type  2   force =    -0.00441222    0.00610715   -0.00404631
     atom    6 type  2   force =     0.00465177   -0.00727774   -0.00014287
     atom    7 type  2   force =    -0.00675348   -0.00525695    0.00881819
     atom    8 type  2   force =     0.00586658    0.00564451    0.00943444
     atom    9 type  2   force =    -0.00087343    0.00852472   -0.00984889

     Total force =     0.034542     Total SCF correction =     0.002203

     General routines

     Parallel routines

   This run was terminated on:  18: 5:41  10Nov2021

   JOB DONE.