     Program PWSCF v.6.4 starts on  3Dec2021 at 15: 7:57

     R & G space division:  proc/nbgrp/npool/nimage =      40
     Waiting for input...
     Reading input from standard input
Warning: card    &IONS ignored
Warning: card      ION_DYNAMICS = 'BFGS' ignored
Warning: card   / ignored
Warning: card    &CELL ignored
Warning: card      CELL_DYNAMICS = 'BFGS', ignored
Warning: card    / ignored

     Current dimensions of program PWSCF are:
     Max number of different atomic species (ntypx) = 10
     Max number of k-points (npk) =  40000
     Max angular momentum in pseudopotentials (lmaxx) =  3

     bravais-lattice index     =            0
     lattice parameter (alat)  =      11.7493  a.u.
     unit-cell volume          =   21646.0207 (a.u.)^3
     number of atoms/cell      =           36
     number of atomic types    =            2
     number of electrons       =       216.00
     number of Kohn-Sham states=          130
     kinetic-energy cutoff     =      45.0000  Ry
     charge density cutoff     =     360.0000  Ry
     convergence threshold     =      1.0E-06
     mixing beta               =       0.7000
     number of iterations used =            8  local-TF  mixing
     Exchange-correlation      = SLA PW GGX GGC ( 1  4  2  2 0 0)

     celldm(1)=  11.749330  celldm(2)=   0.000000  celldm(3)=   0.000000
     celldm(4)=   0.000000  celldm(5)=   0.000000  celldm(6)=   0.000000

     crystal axes: (cart. coord. in units of alat)
               a(1) = (   1.000000   0.000000   0.000000 )
               a(2) = (  -0.020255   1.897529   0.000000 )
               a(3) = (  -0.045353   0.593455   7.033157 )

     reciprocal axes: (cart. coord. in units 2 pi/alat)
               b(1) = (  1.000000  0.010674  0.005548 )
               b(2) = (  0.000000  0.527001 -0.044468 )
               b(3) = (  0.000000  0.000000  0.142184 )

     PseudoPot. # 1 for Mo read from file:
     ~/pseudo/Mo.pw91-n-van.UPF
     MD5 check sum: Not computed, couldn't open file
     Pseudo is Ultrasoft + core correction, Zval =  6.0
     Generated by new atomic code, or converted to UPF format
     Using radial grid of  965 points,  3 beta functions with:
                l(1) =   1
                l(2) =   2
                l(3) =   2
     Q(r) pseudized with  8 coefficients,  rinner =    1.000   1.000   1.000
                                                       1.200   1.200

     PseudoPot. # 2 for S  read from file:
     ~/pseudo/S.pw91-van_ak.UPF
     MD5 check sum: Not computed, couldn't open file
     Pseudo is Ultrasoft, Zval =  6.0
     Generated by new atomic code, or converted to UPF format
     Using radial grid of  811 points,  6 beta functions with:
                l(1) =   0
                l(2) =   0
                l(3) =   1
                l(4) =   1
                l(5) =   2
                l(6) =   2
     Q(r) pseudized with  8 coefficients,  rinner =    1.100   1.100   1.100
                                                       1.100   1.100

     atomic species   valence    mass     pseudopotential
        Mo             6.00    95.50000     Mo( 1.00)
        S              6.00    32.06500     S ( 1.00)

     No symmetry found

   Cartesian axes

     site n.     atom                  positions (alat units)
         1           Mo  tau(   1) = (  -0.0302156   2.1803907   5.1812790  )
         2           Mo  tau(   2) = (   0.2192064   1.7278063   5.1078554  )
         3           Mo  tau(   3) = (   0.4697652   2.1803658   5.1812911  )
         4           Mo  tau(   4) = (   0.7192374   1.7280948   5.1078550  )
         5           Mo  tau(   5) = (   0.4669662   1.2919064   5.0323484  )
         6           Mo  tau(   6) = (   0.9684478   1.2920284   5.0323532  )
         7           Mo  tau(   7) = (   0.7374804   0.6899463   5.2401171  )
         8           Mo  tau(   8) = (   0.2374912   0.6904889   5.2401410  )
         9           Mo  tau(   9) = (   0.9135974   1.4350755   6.5063084  )
        10           Mo  tau(  10) = (   0.4140992   1.4353114   6.5061233  )
        11           Mo  tau(  11) = (   0.7876555   0.8326609   1.3030011  )
        12           Mo  tau(  12) = (   0.2872934   0.8327961   1.3040959  )
        13           S   tau(  13) = (   0.2200211   1.9852049   5.4084854  )
        14           S   tau(  14) = (  -0.0113532   0.5458302   5.4936079  )
        15           S   tau(  15) = (   0.7200493   1.9853157   5.4084902  )
        16           S   tau(  16) = (   0.4883747   0.5458071   5.4936007  )
        17           S   tau(  17) = (   0.5044236   0.5896915   1.4261983  )
        18           S   tau(  18) = (   0.0715430   0.7097773   1.0603613  )
        19           S   tau(  19) = (   0.2199848   2.0660826   4.9065369  )
        20           S   tau(  20) = (  -0.0119812   0.6211165   4.9628486  )
        21           S   tau(  21) = (   0.7199884   2.0663231   4.9065654  )
        22           S   tau(  22) = (   0.4878382   0.6210325   4.9628273  )
        23           S   tau(  23) = (   0.5039240   1.0763814   1.1821625  )
        24           S   tau(  24) = (   0.0700056   0.9549204   1.5472064  )
        25           S   tau(  25) = (   0.4692821   1.5289091   5.3328195  )
        26           S   tau(  26) = (  -0.0309290   1.5289706   5.3329725  )
        27           S   tau(  27) = (   0.4690459   1.6147805   4.8314415  )
        28           S   tau(  28) = (  -0.0310502   1.6148733   4.8314142  )
        29           S   tau(  29) = (   0.7170455   1.1695292   4.7725304  )
        30           S   tau(  30) = (   0.2169869   1.1636010   4.7750301  )
        31           S   tau(  31) = (   0.6635965   1.4688896   6.7884101  )
        32           S   tau(  32) = (   0.1641400   1.1533613   6.5359770  )
        33           S   tau(  33) = (   0.7187450   1.0684916   5.2571630  )
        34           S   tau(  34) = (   0.2186436   1.0686421   5.2613922  )
        35           S   tau(  35) = (   0.6640477   1.4007879   6.2241949  )
        36           S   tau(  36) = (   0.1635619   1.7163889   6.4701684  )

     number of k points=     4  Marzari-Vanderbilt smearing, width (Ry)=  0.0200
                       cart. coord. in units 2pi/alat
        k(    1) = (   0.0000000   0.0000000   0.0000000), wk =   0.3333333
        k(    2) = (   0.0000000  -0.2635006   0.0222341), wk =   0.3333333
        k(    3) = (   0.3333333   0.0035580   0.0018493), wk =   0.6666667
        k(    4) = (   0.3333333  -0.2599425   0.0240833), wk =   0.6666667

     Initial potential from superposition of free atoms

     starting charge  215.98107, renormalised to  216.00000

     negative rho (up, down):  2.724E-03 0.000E+00
     Starting wfcs are  204 randomized atomic wfcs

     Self-consistent Calculation

     iteration #  1     ecut=    45.00 Ry     beta= 0.70
     Davidson diagonalization with overlap
     ethr =  1.00E-02,  avg # of iterations =  2.5

     negative rho (up, down):  6.893E-04 0.000E+00

     total energy              =    -843.24520500 Ry
     Harris-Foulkes estimate   =    -845.98527076 Ry
     estimated scf accuracy    <       7.12505869 Ry

[...]

     total energy              =    -844.63627253 Ry
     Harris-Foulkes estimate   =    -844.63627433 Ry
     estimated scf accuracy    <       0.00000327 Ry

     iteration # 23     ecut=    45.00 Ry     beta= 0.70
     Davidson diagonalization with overlap
     ethr =  1.04E-09,  avg # of iterations =  1.0

[...]

     End of self-consistent calculation

          k = 0.0000 0.0000 0.0000 (110413 PWs)   bands (ev):

   -17.1972 -16.6891 -16.3274 -16.0684 -15.9040 -15.7497 -15.6472 -15.5719
   -15.5375 -15.5125 -15.4298 -15.3450 -15.2559 -15.2512 -15.2261 -15.1416
   -15.0992 -15.0548 -15.0526 -14.9510 -14.7745 -14.7695 -14.6800 -14.4696
    -8.8690  -8.8324  -8.7701  -8.6050  -8.5353  -8.3381  -8.1970  -8.1746
    -8.1578  -8.1174  -8.0366  -7.7757  -7.7177  -7.5638  -7.4744  -7.3112
    -7.2421  -7.1826  -7.1238  -7.0918  -7.0646  -7.0070  -6.8237  -6.6829
    -6.6800  -6.5320  -6.5287  -6.5006  -6.4198  -6.3815  -6.3161  -6.3020
    -6.2581  -6.2498  -6.2398  -6.1141  -6.0726  -6.0699  -5.9997  -5.9028
    -5.8935  -5.8624  -5.7440  -5.6574  -5.6476  -5.6274  -5.6191  -5.4808
    -5.4614  -5.4543  -5.3382  -5.2379  -5.2029  -5.1584  -5.0892  -5.0337
    -5.0042  -4.9040  -4.8400  -4.6903  -4.5583  -4.5551  -4.4722  -4.4469
    -4.4316  -4.4233  -4.3109  -4.2403  -4.0703  -4.0344  -3.9553  -3.9062
    -3.8120  -3.8039  -3.7458  -3.6417  -3.5602  -3.4875  -3.1784  -2.8664
    -2.8556  -2.8196  -2.8128  -2.8013  -2.7777  -2.7406  -2.3884  -2.3616
    -2.2966  -1.9824  -1.6350  -1.3750  -1.3675  -1.2280  -1.2106  -1.1920
    -1.0463  -1.0022  -0.8206  -0.7959  -0.7453  -0.7145  -0.6987  -0.5559
    -0.5418  -0.5188

[...]

          k = 0.3333-0.2599 0.0241 (110322 PWs)   bands (ev):

   -16.8422 -16.5835 -16.1197 -15.9372 -15.9098 -15.8624 -15.7954 -15.6981
   -15.6304 -15.4984 -15.4946 -15.4417 -15.4259 -15.3656 -15.2102 -15.1062
   -15.0905 -15.0490 -15.0468 -14.9495 -14.8197 -14.7696 -14.7626 -14.6310
    -8.4393  -8.3961  -8.3531  -8.3433  -8.2394  -8.1979  -8.1544  -7.9445
    -7.9118  -7.8455  -7.7249  -7.6525  -7.4725  -7.3457  -7.1885  -7.1108
    -7.0696  -6.9900  -6.9828  -6.9378  -6.8725  -6.7806  -6.7129  -6.7023
    -6.5872  -6.5514  -6.5487  -6.5290  -6.4520  -6.4260  -6.3704  -6.3106
    -6.2717  -6.2321  -6.2067  -6.1328  -6.1176  -6.0983  -6.0317  -6.0278
    -5.9861  -5.9084  -5.8956  -5.8594  -5.8176  -5.8132  -5.7680  -5.7462
    -5.6939  -5.6497  -5.6397  -5.5899  -5.4792  -5.4539  -5.3592  -5.1290
    -5.0928  -5.0464  -5.0429  -4.9343  -4.9084  -4.8912  -4.8836  -4.7349
    -4.7329  -4.6567  -4.6479  -4.6461  -4.6294  -4.3082  -4.2347  -4.1399
    -4.0213  -3.9848  -3.6706  -3.6543  -3.5038  -3.4824  -3.3925  -2.8893
    -2.7960  -2.7736  -2.7667  -2.7298  -2.3076  -2.2861  -2.1715  -1.9735
    -1.9191  -1.9072  -1.6872  -1.4018  -1.2719  -1.1477  -1.1355  -1.1234
    -1.1213  -1.1001  -1.0842  -1.0811  -1.0004  -0.8906  -0.8701  -0.8547
    -0.8284  -0.7765

     the Fermi energy is    -2.6092 ev

!    total energy              =    -844.63627730 Ry
     Harris-Foulkes estimate   =    -844.63627257 Ry
     estimated scf accuracy    <       0.00000045 Ry

     The total energy is the sum of the following terms:

     one-electron contribution =   -9349.44301794 Ry
     hartree contribution      =    4723.51123340 Ry
     xc contribution           =    -333.25244048 Ry
     ewald contribution        =    4114.55310710 Ry
     smearing contrib. (-TS)   =      -0.00515938 Ry

     convergence has been achieved in  23 iterations

     negative rho (up, down):  3.956E-03 0.000E+00

     Forces acting on atoms (cartesian axes, Ry/au):

     atom    1 type  1   force =     0.00026863   -0.01561241    0.00742013
     atom    2 type  1   force =    -0.00129074    0.00248840    0.01620238
     atom    3 type  1   force =    -0.00017922   -0.01565424    0.00731652
     atom    4 type  1   force =    -0.00140553    0.00103543    0.01629585
     atom    5 type  1   force =     0.00532908   -0.07162989    0.00086246
     atom    6 type  1   force =     0.00024912   -0.07162396    0.00103104
     atom    7 type  1   force =     0.00111779    0.06803529    0.03535238
     atom    8 type  1   force =     0.00103096    0.06594415    0.03606880
     atom    9 type  1   force =    -0.00076342   -0.00065110   -0.00121048
     atom   10 type  1   force =     0.00038081   -0.00059974   -0.00155845
     atom   11 type  1   force =     0.00041020   -0.00030242    0.00185758
     atom   12 type  1   force =     0.00065238   -0.00016109    0.00120099
     atom   13 type  2   force =    -0.00070862   -0.00137612   -0.00491240
     atom   14 type  2   force =    -0.00215810   -0.02883172   -0.01153144
     atom   15 type  2   force =    -0.00074247   -0.00131559   -0.00445418
     atom   16 type  2   force =    -0.00216332   -0.02876076   -0.01145274
     atom   17 type  2   force =     0.10865039   -0.05819836    0.02902425
     atom   18 type  2   force =    -0.10926713   -0.02914210   -0.05881313
     atom   19 type  2   force =    -0.00050189   -0.00222735   -0.00523548
     atom   20 type  2   force =    -0.00108224   -0.02342611   -0.01681828
     atom   21 type  2   force =    -0.00057348   -0.00234301   -0.00575676
     atom   22 type  2   force =    -0.00127806   -0.02345667   -0.01668150
     atom   23 type  2   force =     0.10877863    0.05828601   -0.02973486
     atom   24 type  2   force =    -0.10843103    0.02894165    0.05739881
     atom   25 type  2   force =    -0.00069847    0.02745675    0.02000051
     atom   26 type  2   force =    -0.00035839    0.02740236    0.01959467
     atom   27 type  2   force =    -0.00071006    0.03021927   -0.01377426
     atom   28 type  2   force =     0.00044016    0.03014080   -0.01381450
     atom   29 type  2   force =     0.00094472    0.00014628   -0.00804378
     atom   30 type  2   force =     0.00086392    0.00302851   -0.01043806
     atom   31 type  2   force =     0.00025843   -0.00347195   -0.02955009
     atom   32 type  2   force =    -0.00051117    0.02820588   -0.00089149
     atom   33 type  2   force =     0.00158171    0.01469753   -0.01887321
     atom   34 type  2   force =     0.00201423    0.01687404   -0.02006762
     atom   35 type  2   force =    -0.00044892    0.00403902    0.02926139
     atom   36 type  2   force =     0.00030109   -0.02815681    0.00472495

     Total force =     0.316675     Total SCF correction =     0.000846

     General routines

     Parallel routines

   This run was terminated on:  15:19:30   3Dec2021

   JOB DONE.