     Program PWSCF v.6.4 starts on 14Oct2021 at 10:53:18

     R & G space division:  proc/nbgrp/npool/nimage =      40
     Waiting for input...
     Reading input from standard input
Warning: card    &IONS ignored
Warning: card      ION_DYNAMICS = 'BFGS' ignored
Warning: card   / ignored
Warning: card    &CELL ignored
Warning: card      CELL_DYNAMICS = 'BFGS', ignored
Warning: card    / ignored

     Current dimensions of program PWSCF are:
     Max number of different atomic species (ntypx) = 10
     Max number of k-points (npk) =  40000
     Max angular momentum in pseudopotentials (lmaxx) =  3

     bravais-lattice index     =            0
     lattice parameter (alat)  =      12.2180  a.u.
     unit-cell volume          =    6978.1796 (a.u.)^3
     number of atoms/cell      =           36
     number of atomic types    =            2
     number of electrons       =       216.00
     number of Kohn-Sham states=          130
     kinetic-energy cutoff     =      45.0000  Ry
     charge density cutoff     =     360.0000  Ry
     convergence threshold     =      1.0E-06
     mixing beta               =       0.7000
     number of iterations used =            8  local-TF  mixing
     Exchange-correlation      = SLA PW GGX GGC ( 1  4  2  2 0 0)

     celldm(1)=  12.217952  celldm(2)=   0.000000  celldm(3)=   0.000000
     celldm(4)=   0.000000  celldm(5)=   0.000000  celldm(6)=   0.000000

     crystal axes: (cart. coord. in units of alat)
               a(1) = (   1.000000   0.000000   0.000000 )
               a(2) = (  -0.499141   0.865450   0.000000 )
               a(3) = (  -0.210726  -0.829821   4.420842 )

     reciprocal axes: (cart. coord. in units 2 pi/alat)
               b(1) = (  1.000000  0.576742  0.155925 )
               b(2) = (  0.000000  1.155469  0.216889 )
               b(3) = (  0.000000  0.000000  0.226201 )

     PseudoPot. # 1 for Mo read from file:
     ~/pseudo/Mo.pw91-n-van.UPF
     MD5 check sum: Not computed, couldn't open file
     Pseudo is Ultrasoft + core correction, Zval =  6.0
     Generated by new atomic code, or converted to UPF format
     Using radial grid of  965 points,  3 beta functions with:
                l(1) =   1
                l(2) =   2
                l(3) =   2
     Q(r) pseudized with  8 coefficients,  rinner =    1.000   1.000   1.000
                                                       1.200   1.200

     PseudoPot. # 2 for S  read from file:
     ~/pseudo/S.pw91-van_ak.UPF
     MD5 check sum: Not computed, couldn't open file
     Pseudo is Ultrasoft, Zval =  6.0
     Generated by new atomic code, or converted to UPF format
     Using radial grid of  811 points,  6 beta functions with:
                l(1) =   0
                l(2) =   0
                l(3) =   1
                l(4) =   1
                l(5) =   2
                l(6) =   2
     Q(r) pseudized with  8 coefficients,  rinner =    1.100   1.100   1.100
                                                       1.100   1.100

     atomic species   valence    mass     pseudopotential
        Mo             6.00    95.50000     Mo( 1.00)
        S              6.00    32.06500     S ( 1.00)

     No symmetry found

   Cartesian axes

     site n.     atom                  positions (alat units)
         1           Mo  tau(   1) = (   0.4913384  -0.1371355   2.5161630  )
         2           Mo  tau(   2) = (  -0.2449968   0.2929047   2.5069891  )
         3           Mo  tau(   3) = (  -0.0090754  -0.1362531   2.5123097  )
         4           Mo  tau(   4) = (   0.2557664   0.2973472   2.4992154  )
         5           Mo  tau(   5) = (  -0.4973641   0.4666186   1.6018377  )
         6           Mo  tau(   6) = (   0.2395097   0.0314062   1.5912906  )
         7           Mo  tau(   7) = (  -0.0181707   0.4713676   1.6201553  )
         8           Mo  tau(   8) = (  -0.2559822   0.0382627   1.6255794  )
         9           Mo  tau(   9) = (   0.0532108   0.1404028   0.2993287  )
        10           Mo  tau(  10) = (   0.3145004   0.5675994   0.3002577  )
        11           Mo  tau(  11) = (   0.5457593   0.1336572   0.3106953  )
        12           Mo  tau(  12) = (  -0.2050905   0.5757845   0.3076599  )
        13           S   tau(  13) = (  -0.4476513   0.7207211   0.0499015  )
        14           S   tau(  14) = (   0.3027298   0.2776147   0.0547614  )
        15           S   tau(  15) = (   0.0516635   0.7069609   0.0682942  )
        16           S   tau(  16) = (  -0.2128276   0.2840869   0.0683009  )
        17           S   tau(  17) = (   0.2422417   0.0097158   2.7514883  )
        18           S   tau(  18) = (   0.5103415   0.4350725   2.7467870  )
        19           S   tau(  19) = (  -0.2590832   0.0049750   2.7567213  )
        20           S   tau(  20) = (   0.0126889   0.4309459   2.7474112  )
        21           S   tau(  21) = (   0.2363241   0.0015322   2.2620926  )
        22           S   tau(  22) = (   0.5062681   0.4421718   2.2586937  )
        23           S   tau(  23) = (   0.7304588   0.0017310   2.2675384  )
        24           S   tau(  24) = (  -0.0013273   0.4445840   2.2632813  )
        25           S   tau(  25) = (   0.2360436  -0.2442869   1.8539057  )
        26           S   tau(  26) = (   0.4770342   0.1748377   1.8468916  )
        27           S   tau(  27) = (   0.7606994  -0.2636002   1.8603390  )
        28           S   tau(  28) = (   0.0040697   0.1796651   1.8634568  )
        29           S   tau(  29) = (   0.2399826  -0.2593626   1.3519865  )
        30           S   tau(  30) = (   0.5017332   0.1737763   1.3627406  )
        31           S   tau(  31) = (   0.7352194  -0.2484950   1.3859030  )
        32           S   tau(  32) = (  -0.0254363   0.1891692   1.3709332  )
        33           S   tau(  33) = (  -0.4442490   0.7281452   0.5528078  )
        34           S   tau(  34) = (   0.3025523   0.2837692   0.5507183  )
        35           S   tau(  35) = (   0.0625561   0.7050352   0.5470001  )
        36           S   tau(  36) = (  -0.1982028   0.2845528   0.5464147  )

     number of k points=     5  Marzari-Vanderbilt smearing, width (Ry)=  0.0200
                       cart. coord. in units 2pi/alat
        k(    1) = (   0.0000000   0.0000000   0.0000000), wk =   0.2222222
        k(    2) = (   0.0000000   0.3851562   0.0722963), wk =   0.4444444
        k(    3) = (   0.3333333   0.1922473   0.0519749), wk =   0.4444444
        k(    4) = (   0.3333333   0.5774035   0.1242712), wk =   0.4444444
        k(    5) = (   0.3333333  -0.1929089  -0.0203214), wk =   0.4444444

     Initial potential from superposition of free atoms

     starting charge  215.98107, renormalised to  216.00000

     negative rho (up, down):  4.202E-04 0.000E+00
     Starting wfcs are  204 randomized atomic wfcs

     Self-consistent Calculation

     iteration #  1     ecut=    45.00 Ry     beta= 0.70
     Davidson diagonalization with overlap
     ethr =  1.00E-02,  avg # of iterations =  2.0

     negative rho (up, down):  1.061E-05 0.000E+00

     total energy              =    -844.12241351 Ry
     Harris-Foulkes estimate   =    -846.77629311 Ry
     estimated scf accuracy    <       6.78827337 Ry

[...]

     total energy              =    -845.44747774 Ry
     Harris-Foulkes estimate   =    -845.44747800 Ry
     estimated scf accuracy    <       0.00000142 Ry

     iteration # 69     ecut=    45.00 Ry     beta= 0.70
     Davidson diagonalization with overlap
     ethr =  6.58E-10,  avg # of iterations =  3.8

[...]

     End of self-consistent calculation

          k = 0.0000 0.0000 0.0000 ( 35501 PWs)   bands (ev):

   -11.4145 -11.0763 -11.0192 -10.2404  -9.8398  -9.8267  -9.6260  -9.6042
    -9.5752  -9.4799  -9.4396  -9.4298  -9.3777  -9.3288  -9.2991  -9.2726
    -9.2648  -9.2232  -9.1762  -9.1288  -9.0923  -9.0891  -9.0343  -8.9894
    -3.1483  -2.9822  -2.9632  -2.9449  -2.8385  -2.7899  -2.7810  -2.6678
    -2.6354  -2.6293  -2.4915  -2.3331  -2.1402  -2.0649  -1.9903  -1.8966
    -1.8288  -1.7919  -1.7378  -1.7047  -1.6776  -1.3433  -1.3293  -1.1856
    -1.0883  -1.0670  -1.0462  -0.9963  -0.9868  -0.9793  -0.4038  -0.3830
    -0.3517  -0.2907  -0.2655  -0.2411  -0.1624  -0.1494  -0.1425   0.1661
     0.1849   0.2069   0.2295   0.3282   0.3480   0.3715   0.6493   0.6803
     0.8508   0.9191   1.0246   1.0613   1.1899   1.2158   1.2447   1.2502
     1.2898   1.3279   1.3335   1.3999   1.4415   1.4863   1.5627   1.6480
     1.7134   1.8044   1.8384   1.8728   1.8944   1.9279   1.9358   2.0319
     2.0816   2.1513   2.1888   2.2172   2.2329   2.2655   2.2667   2.2933
     2.3607   2.6665   2.9211   3.4396   4.6390   4.6658   4.7480   4.7804
     4.7874   4.7992   4.8512   4.8659   4.9595   5.1211   5.1650   5.1906
     5.2137   5.2708   5.3143   5.3281   5.3514   5.3551   5.3823   5.4127
     5.4525   5.5142

[...]

          k = 0.3333-0.1929-0.0203 ( 35560 PWs)   bands (ev):

   -11.0614 -10.7297 -10.6642 -10.2425 -10.0336  -9.8760  -9.8472  -9.6771
    -9.6558  -9.6444  -9.6036  -9.5341  -9.4714  -9.4504  -9.4010  -9.3108
    -9.2942  -9.2623  -9.2539  -9.2396  -9.1506  -9.0906  -9.0646  -8.9584
    -2.7686  -2.6101  -2.5598  -2.5255  -2.3850  -2.3253  -2.2558  -2.2017
    -2.1694  -2.1369  -2.0732  -2.0568  -2.0128  -1.9769  -1.9295  -1.9048
    -1.7972  -1.7500  -1.5618  -1.3299  -1.2217  -1.1286  -1.1170  -1.0708
    -0.9549  -0.9320  -0.8542  -0.8419  -0.8140  -0.7924  -0.5348  -0.5056
    -0.4711  -0.4149  -0.3407  -0.2916  -0.2435  -0.2343  -0.1448  -0.1142
    -0.0924   0.0264   0.1305   0.2006   0.2182   0.2989   0.3431   0.4818
     0.5108   0.5767   0.6167   0.6853   0.6874   0.7098   0.7747   0.8162
     0.8675   0.9086   0.9533   1.0747   1.1264   1.2102   1.2865   1.2985
     1.3756   1.3803   1.4736   1.5126   1.5267   1.5845   1.8274   1.8981
     1.9504   1.9919   2.0858   2.1282   2.1958   2.3302   2.3493   2.4441
     2.5023   2.6189   2.6494   2.6881   4.5034   4.6268   4.7023   4.7127
     4.7532   4.8103   4.8459   4.8701   4.8899   4.9314   4.9500   5.0422
     5.0514   5.1162   5.1738   5.2037   5.2345   5.2552   5.2871   5.3071
     5.3479   5.3708

     the Fermi energy is     3.0269 ev

!    total energy              =    -845.44747727 Ry
     Harris-Foulkes estimate   =    -845.44747801 Ry
     estimated scf accuracy    <       0.00000061 Ry

     The total energy is the sum of the following terms:

     one-electron contribution =   -3457.19336883 Ry
     hartree contribution      =    1824.15398097 Ry
     xc contribution           =    -334.05054688 Ry
     ewald contribution        =    1121.62330011 Ry
     smearing contrib. (-TS)   =       0.01915737 Ry

     convergence has been achieved in  69 iterations

     negative rho (up, down):  6.127E-04 0.000E+00

     Forces acting on atoms (cartesian axes, Ry/au):

     atom    1 type  1   force =    -0.00401211   -0.01255696   -0.03062779
     atom    2 type  1   force =    -0.01138218   -0.00199564   -0.00948615
     atom    3 type  1   force =     0.00566852   -0.01108296   -0.02851766
     atom    4 type  1   force =    -0.00736350   -0.01775668    0.00571123
     atom    5 type  1   force =    -0.04380666   -0.01304102    0.03270393
     atom    6 type  1   force =    -0.01441125    0.02011969    0.04761778
     atom    7 type  1   force =     0.05192652   -0.00627303   -0.00643673
     atom    8 type  1   force =    -0.00469080   -0.01914869   -0.01303537
     atom    9 type  1   force =    -0.01777016    0.01022989    0.01276510
     atom   10 type  1   force =    -0.03104931    0.00893228    0.01439571
     atom   11 type  1   force =     0.01959474   -0.00163664   -0.01223659
     atom   12 type  1   force =     0.02658696   -0.01509170   -0.00485106
     atom   13 type  2   force =     0.00630709   -0.00372354    0.01913974
     atom   14 type  2   force =     0.00713286    0.00476978    0.01155783
     atom   15 type  2   force =     0.00336448    0.01082242   -0.00954486
     atom   16 type  2   force =     0.01690648   -0.00019266   -0.00966284
     atom   17 type  2   force =    -0.00171854    0.00774051    0.00345787
     atom   18 type  2   force =    -0.01907323    0.00755856    0.00887181
     atom   19 type  2   force =     0.00801593    0.00670023    0.00140637
     atom   20 type  2   force =    -0.01705718    0.01184148    0.01143134
     atom   21 type  2   force =     0.01589914    0.01300273    0.03161230
     atom   22 type  2   force =    -0.00113571    0.00077871    0.02788742
     atom   23 type  2   force =     0.02709824    0.01023199    0.01507161
     atom   24 type  2   force =     0.00577127   -0.00367401    0.01683818
     atom   25 type  2   force =     0.00282482   -0.00915301   -0.02445497
     atom   26 type  2   force =     0.02260620    0.00695100   -0.00830113
     atom   27 type  2   force =    -0.03410295    0.01425818   -0.02606242
     atom   28 type  2   force =    -0.01809292   -0.00071548   -0.03811471
     atom   29 type  2   force =     0.01253706    0.00944269    0.00867979
     atom   30 type  2   force =    -0.00424548    0.00223812   -0.00006112
     atom   31 type  2   force =     0.00690190   -0.00432745   -0.02639670
     atom   32 type  2   force =     0.02196477   -0.01100273   -0.00065905
     atom   33 type  2   force =    -0.00881110   -0.01552574   -0.01469854
     atom   34 type  2   force =    -0.00417968   -0.00188851   -0.00834774
     atom   35 type  2   force =    -0.01313303    0.00716497    0.00056068
     atom   36 type  2   force =    -0.00507121   -0.00399682    0.00178673

     Total force =     0.170968     Total SCF correction =     0.002142

     General routines

     Parallel routines

   This run was terminated on:  11: 1:41  14Oct2021

   JOB DONE.