     Program PWSCF v.6.4 starts on  4Aug2021 at 13:59: 4

     R & G space division:  proc/nbgrp/npool/nimage =      40
     Waiting for input...
     Reading input from standard input
Warning: card    &IONS ignored
Warning: card      ION_DYNAMICS = 'BFGS' ignored
Warning: card   / ignored
Warning: card    &CELL ignored
Warning: card      CELL_DYNAMICS = 'BFGS', ignored
Warning: card    / ignored

     Current dimensions of program PWSCF are:
     Max number of different atomic species (ntypx) = 10
     Max number of k-points (npk) =  40000
     Max angular momentum in pseudopotentials (lmaxx) =  3

     bravais-lattice index     =            0
     lattice parameter (alat)  =      12.4339  a.u.
     unit-cell volume          =    3358.0575 (a.u.)^3
     number of atoms/cell      =           24
     number of atomic types    =            2
     number of electrons       =       144.00
     number of Kohn-Sham states=           86
     kinetic-energy cutoff     =      45.0000  Ry
     charge density cutoff     =     360.0000  Ry
     convergence threshold     =      1.0E-06
     mixing beta               =       0.7000
     number of iterations used =            8  local-TF  mixing
     Exchange-correlation      = SLA PW GGX GGC ( 1  4  2  2 0 0)

     celldm(1)=  12.433910  celldm(2)=   0.000000  celldm(3)=   0.000000
     celldm(4)=   0.000000  celldm(5)=   0.000000  celldm(6)=   0.000000

     crystal axes: (cart. coord. in units of alat)
               a(1) = (   0.998985   0.001281  -0.045027 )
               a(2) = (  -0.497030   0.864163   0.032567 )
               a(3) = (  -0.119022  -0.076249   2.026513 )

     reciprocal axes: (cart. coord. in units 2 pi/alat)
               b(1) = (  1.003911  0.574371  0.080573 )
               b(2) = (  0.000480  1.155825  0.043517 )
               b(3) = (  0.022298 -0.005813  0.494549 )

     PseudoPot. # 1 for Mo read from file:
     ~/pseudo/Mo.pw91-n-van.UPF
     MD5 check sum: Not computed, couldn't open file
     Pseudo is Ultrasoft + core correction, Zval =  6.0
     Generated by new atomic code, or converted to UPF format
     Using radial grid of  965 points,  3 beta functions with:
                l(1) =   1
                l(2) =   2
                l(3) =   2
     Q(r) pseudized with  8 coefficients,  rinner =    1.000   1.000   1.000
                                                       1.200   1.200

     PseudoPot. # 2 for S  read from file:
     ~/pseudo/S.pw91-van_ak.UPF
     MD5 check sum: Not computed, couldn't open file
     Pseudo is Ultrasoft, Zval =  6.0
     Generated by new atomic code, or converted to UPF format
     Using radial grid of  811 points,  6 beta functions with:
                l(1) =   0
                l(2) =   0
                l(3) =   1
                l(4) =   1
                l(5) =   2
                l(6) =   2
     Q(r) pseudized with  8 coefficients,  rinner =    1.100   1.100   1.100
                                                       1.100   1.100

     atomic species   valence    mass     pseudopotential
        Mo             6.00    95.50000     Mo( 1.00)
        S              6.00    32.06500     S ( 1.00)

     No symmetry found

   Cartesian axes

     site n.     atom                  positions (alat units)
         1           Mo  tau(   1) = (  -0.0587037  -0.0570323   1.4599492  )
         2           Mo  tau(   2) = (  -0.3014658   0.3535180   1.5581164  )
         3           Mo  tau(   3) = (   0.4432208  -0.0315347   1.4957593  )
         4           Mo  tau(   4) = (   0.1613431   0.3295387   1.5894616  )
         5           Mo  tau(   5) = (  -0.0609256  -0.0020202   0.5047668  )
         6           Mo  tau(   6) = (  -0.3025207   0.4160700   0.5097754  )
         7           Mo  tau(   7) = (   0.4255284  -0.0117804   0.4799536  )
         8           Mo  tau(   8) = (   0.1997120   0.4310944   0.4913497  )
         9           S   tau(   9) = (   0.1597822   0.0163015   1.7464730  )
        10           S   tau(  10) = (  -0.0888742   0.5044636   1.8216796  )
        11           S   tau(  11) = (   0.7290952   0.0488865   1.7075067  )
        12           S   tau(  12) = (   0.4419546   0.4547962   1.7729670  )
        13           S   tau(  13) = (  -0.0463272   0.2618058   0.2541642  )
        14           S   tau(  14) = (  -0.3305558   0.7235605   0.2861888  )
        15           S   tau(  15) = (   0.4398759   0.2636374   0.2263725  )
        16           S   tau(  16) = (   0.1748155   0.7292948   0.2531610  )
        17           S   tau(  17) = (  -0.0437478   0.3056101   0.7425386  )
        18           S   tau(  18) = (  -0.3087410   0.6906699   0.7710104  )
        19           S   tau(  19) = (   0.4538067   0.2837024   0.7172147  )
        20           S   tau(  20) = (   0.1832429   0.7119579   0.7458526  )
        21           S   tau(  21) = (   0.2017467   0.1490155   1.2794929  )
        22           S   tau(  22) = (  -0.0542738   0.5247247   1.3223943  )
        23           S   tau(  23) = (   0.6902066   0.1046311   1.2165057  )
        24           S   tau(  24) = (   0.4795350   0.5127275   1.2413426  )

     number of k points=    10  Marzari-Vanderbilt smearing, width (Ry)=  0.0200
                       cart. coord. in units 2pi/alat
        k(    1) = (   0.0000000   0.0000000   0.0000000), wk =   0.1111111
        k(    2) = (  -0.0111491   0.0029064  -0.2472747), wk =   0.1111111
        k(    3) = (   0.0001599   0.3852751   0.0145056), wk =   0.2222222
        k(    4) = (  -0.0109892   0.3881815  -0.2327690), wk =   0.2222222
        k(    5) = (   0.3346371   0.1914572   0.0268577), wk =   0.2222222
        k(    6) = (   0.3234881   0.1943635  -0.2204170), wk =   0.2222222
        k(    7) = (   0.3347970   0.5767323   0.0413633), wk =   0.2222222
        k(    8) = (   0.3236480   0.5796386  -0.2059114), wk =   0.2222222
        k(    9) = (   0.3344772  -0.1938180   0.0123521), wk =   0.2222222
        k(   10) = (   0.3233282  -0.1909116  -0.2349226), wk =   0.2222222

     Initial potential from superposition of free atoms

     starting charge  143.98738, renormalised to  144.00000
     Starting wfcs are  136 randomized atomic wfcs

     Self-consistent Calculation

     iteration #  1     ecut=    45.00 Ry     beta= 0.70
     Davidson diagonalization with overlap
     ethr =  1.00E-02,  avg # of iterations =  2.0

     total energy              =    -562.19600014 Ry
     Harris-Foulkes estimate   =    -564.25587275 Ry
     estimated scf accuracy    <       5.43686038 Ry

[...]

     total energy              =    -563.26506145 Ry
     Harris-Foulkes estimate   =    -563.26506391 Ry
     estimated scf accuracy    <       0.00000476 Ry

     iteration # 15     ecut=    45.00 Ry     beta= 0.70
     Davidson diagonalization with overlap
     ethr =  3.30E-09,  avg # of iterations =  6.4

     End of self-consistent calculation

          k = 0.0000 0.0000 0.0000 ( 17085 PWs)   bands (ev):

    -7.5573  -7.3842  -6.6304  -6.3724  -6.1013  -5.9002  -5.8670  -5.8549
    -5.8146  -5.7669  -5.5869  -5.5712  -5.5339  -5.5065  -5.3812  -5.2256
     0.6037   0.8259   0.9518   0.9615   1.0036   1.0733   1.1597   1.3849
     1.5927   1.6936   1.7580   1.8157   1.9816   2.0626   2.3491   2.4755
     2.5298   2.5385   2.6174   2.9434   3.0603   3.3028   3.3595   3.3686
     3.4350   3.4470   3.6712   3.7818   3.8245   3.8765   3.9304   4.0197
     4.1455   4.2569   4.4825   4.5949   4.6593   4.7064   4.7315   4.9187
     4.9549   5.1408   5.3068   5.3736   5.4117   5.4747   5.5227   5.6619
     5.7079   5.7320   5.8380   5.9399   6.0163   6.2096   6.2552   6.6455
     6.9896   7.4556   7.6578   7.9404   8.0447   8.0907   8.1424   8.2101
     8.4811   8.5421   8.5527   8.5789   8.5992   8.6983

          k =-0.0111 0.0029-0.2473 ( 17110 PWs)   bands (ev):

[...]

          k =-0.0110 0.3882-0.2328 ( 17129 PWs)   bands (ev):

[...]

          k = 0.3233-0.1909-0.2349 ( 17126 PWs)   bands (ev):

    -7.2406  -7.0899  -6.5746  -6.3937  -6.3623  -6.1952  -6.0614  -5.9640
    -5.8005  -5.7326  -5.6788  -5.6178  -5.5811  -5.4800  -5.3960  -5.2745
     1.1253   1.2708   1.3098   1.3715   1.4448   1.4572   1.5016   1.6096
     1.6953   1.7629   1.7896   1.8470   2.2468   2.3266   2.4387   2.5557
     2.6087   2.6966   2.7486   2.8478   3.0447   3.0652   3.1494   3.2277
     3.3021   3.4296   3.4823   3.5452   3.6589   3.7033   3.7953   3.9849
     4.1194   4.1559   4.2697   4.3032   4.4413   4.4926   4.5803   4.6582
     4.6890   4.7324   4.8535   4.9536   5.0569   5.1886   5.2380   5.3780
     5.5024   5.6028   5.8119   5.8970   5.9879   6.1241   6.1910   6.5022
     7.0602   7.6048   7.7373   7.9914   8.0374   8.0799   8.1185   8.1662
     8.2809   8.3188   8.3567   8.4647   8.5188   8.5768

     the Fermi energy is     6.8670 ev

!    total energy              =    -563.26506185 Ry
     Harris-Foulkes estimate   =    -563.26506250 Ry
     estimated scf accuracy    <       0.00000081 Ry

     The total energy is the sum of the following terms:

     one-electron contribution =      -7.79643653 Ry
     hartree contribution      =      86.17891727 Ry
     xc contribution           =    -221.81139479 Ry
     ewald contribution        =    -419.83869053 Ry
     smearing contrib. (-TS)   =       0.00254273 Ry

     convergence has been achieved in  15 iterations

     Forces acting on atoms (cartesian axes, Ry/au):

     atom    1 type  1   force =     0.02348287   -0.05391180    0.05100087
     atom    2 type  1   force =    -0.01411019    0.01996796   -0.04276737
     atom    3 type  1   force =    -0.01637117   -0.07384518    0.01452555
     atom    4 type  1   force =     0.02938100    0.11523504   -0.05792639
     atom    5 type  1   force =    -0.02634076   -0.02317622    0.04313380
     atom    6 type  1   force =    -0.01763189    0.02156473   -0.02103933
     atom    7 type  1   force =     0.02929767    0.01291585    0.01267911
     atom    8 type  1   force =    -0.01162436   -0.00720524   -0.03302957
     atom    9 type  2   force =     0.03061472    0.00691477    0.00547134
     atom   10 type  2   force =     0.04622801   -0.00030119   -0.05783044
     atom   11 type  2   force =    -0.02292637    0.00367846   -0.00197983
     atom   12 type  2   force =    -0.00313272    0.02121327   -0.02510378
     atom   13 type  2   force =    -0.02387052    0.05623305    0.03530710
     atom   14 type  2   force =     0.01086245   -0.03790181    0.00645291
     atom   15 type  2   force =    -0.01144987    0.03602835    0.05121181
     atom   16 type  2   force =     0.01096111   -0.01910388    0.05070985
     atom   17 type  2   force =     0.01086755   -0.05319105   -0.02059103
     atom   18 type  2   force =     0.00331555    0.02882375   -0.04775556
     atom   19 type  2   force =    -0.00270229   -0.01757989   -0.02566645
     atom   20 type  2   force =     0.03121039    0.00741953   -0.04263366
     atom   21 type  2   force =    -0.02883555   -0.05491619   -0.00471655
     atom   22 type  2   force =    -0.00135944   -0.00712323    0.03624175
     atom   23 type  2   force =    -0.01957436    0.00116154    0.04102124
     atom   24 type  2   force =    -0.02629184    0.01709940    0.03328462

     Total force =     0.283218     Total SCF correction =     0.001582

     General routines

     Parallel routines

   This run was terminated on:  14: 0:15   4Aug2021

   JOB DONE.