     Program PWSCF v.6.4 starts on  8Sep2021 at 12: 9: 1

     R & G space division:  proc/nbgrp/npool/nimage =      40
     Waiting for input...
     Reading input from standard input
Warning: card    &IONS ignored
Warning: card      ION_DYNAMICS = 'BFGS' ignored
Warning: card   / ignored
Warning: card    &CELL ignored
Warning: card      CELL_DYNAMICS = 'BFGS', ignored
Warning: card    / ignored

     Current dimensions of program PWSCF are:
     Max number of different atomic species (ntypx) = 10
     Max number of k-points (npk) =  40000
     Max angular momentum in pseudopotentials (lmaxx) =  3

     bravais-lattice index     =            0
     lattice parameter (alat)  =      10.3765  a.u.
     unit-cell volume          =    3260.5896 (a.u.)^3
     number of atoms/cell      =           27
     number of atomic types    =            2
     number of electrons       =       162.00
     number of Kohn-Sham states=           97
     kinetic-energy cutoff     =      45.0000  Ry
     charge density cutoff     =     360.0000  Ry
     convergence threshold     =      1.0E-06
     mixing beta               =       0.7000
     number of iterations used =            8  local-TF  mixing
     Exchange-correlation      = SLA PW GGX GGC ( 1  4  2  2 0 0)

     celldm(1)=  10.376543  celldm(2)=   0.000000  celldm(3)=   0.000000
     celldm(4)=   0.000000  celldm(5)=   0.000000  celldm(6)=   0.000000

     crystal axes: (cart. coord. in units of alat)
               a(1) = (   0.999998   0.001633   0.000868 )
               a(2) = (   0.013161   1.618472   0.075497 )
               a(3) = (   0.004217   0.319736   1.818098 )

     reciprocal axes: (cart. coord. in units 2 pi/alat)
               b(1) = (  1.000016 -0.008090 -0.000897 )
               b(2) = ( -0.000922  0.622985 -0.109558 )
               b(3) = ( -0.000439 -0.025866  0.554575 )

     PseudoPot. # 1 for Mo read from file:
     ~/pseudo/Mo.pw91-n-van.UPF
     MD5 check sum: Not computed, couldn't open file
     Pseudo is Ultrasoft + core correction, Zval =  6.0
     Generated by new atomic code, or converted to UPF format
     Using radial grid of  965 points,  3 beta functions with:
                l(1) =   1
                l(2) =   2
                l(3) =   2
     Q(r) pseudized with  8 coefficients,  rinner =    1.000   1.000   1.000
                                                       1.200   1.200

     PseudoPot. # 2 for S  read from file:
     ~/pseudo/S.pw91-van_ak.UPF
     MD5 check sum: Not computed, couldn't open file
     Pseudo is Ultrasoft, Zval =  6.0
     Generated by new atomic code, or converted to UPF format
     Using radial grid of  811 points,  6 beta functions with:
                l(1) =   0
                l(2) =   0
                l(3) =   1
                l(4) =   1
                l(5) =   2
                l(6) =   2
     Q(r) pseudized with  8 coefficients,  rinner =    1.100   1.100   1.100
                                                       1.100   1.100

     atomic species   valence    mass     pseudopotential
        Mo             6.00    95.50000     Mo( 1.00)
        S              6.00    32.06500     S ( 1.00)

     No symmetry found

   Cartesian axes

     site n.     atom                  positions (alat units)
         1           Mo  tau(   1) = (   0.9551229   1.0509975   0.8269219  )
         2           Mo  tau(   2) = (   0.9770692   1.0293829   0.2227867  )
         3           Mo  tau(   3) = (   0.9646309   0.5419942   0.6467557  )
         4           Mo  tau(   4) = (   0.9569563   1.7429162   1.6635732  )
         5           Mo  tau(   5) = (   0.9562973   0.6118298   1.1649654  )
         6           Mo  tau(   6) = (   0.9794023   1.7211161   1.0600363  )
         7           Mo  tau(   7) = (   0.4625857   0.7359168   1.8144838  )
         8           Mo  tau(   8) = (   0.4644556   1.1671267   1.4549292  )
         9           Mo  tau(   9) = (   0.4690287   1.6034839   0.4308870  )
        10           S   tau(  10) = (   0.6552382   0.3995188   0.9190425  )
        11           S   tau(  11) = (   0.2116422   1.3253205   1.1015406  )
        12           S   tau(  12) = (   0.7656306   1.0666238   1.7437319  )
        13           S   tau(  13) = (   0.2294208   0.2822318   1.2775260  )
        14           S   tau(  14) = (   0.6868127   0.9589901   1.1478593  )
        15           S   tau(  15) = (   0.7225586   1.4452318   0.7838388  )
        16           S   tau(  16) = (   0.6651739   1.3281983   0.1548439  )
        17           S   tau(  17) = (   0.1697758   0.8610052   1.4989171  )
        18           S   tau(  18) = (   0.2298433   0.6623982   0.2834291  )
        19           S   tau(  19) = (   0.2004983   1.2474084   0.5042643  )
        20           S   tau(  20) = (   0.2343197   0.1928980   0.6626349  )
        21           S   tau(  21) = (   0.2689384   1.4422179   1.7307390  )
        22           S   tau(  22) = (   0.6918299   0.8700079   0.5330908  )
        23           S   tau(  23) = (   0.7332410   1.5229098   1.3813153  )
        24           S   tau(  24) = (   0.1554168   0.0852889   0.0665110  )
        25           S   tau(  25) = (   0.2657961   0.7530168   0.8913820  )
        26           S   tau(  26) = (   0.6911377   0.4902931   1.5266491  )
        27           S   tau(  27) = (   0.7514577   0.2911372   0.3116827  )

     number of k points=     8  Marzari-Vanderbilt smearing, width (Ry)=  0.0200
                       cart. coord. in units 2pi/alat
        k(    1) = (   0.0000000   0.0000000   0.0000000), wk =   0.1666667
        k(    2) = (   0.0002195   0.0129329  -0.2772876), wk =   0.1666667
        k(    3) = (   0.0004612  -0.3114925   0.0547789), wk =   0.1666667
        k(    4) = (   0.0006807  -0.2985595  -0.2225087), wk =   0.1666667
        k(    5) = (   0.3333386  -0.0026968  -0.0002989), wk =   0.3333333
        k(    6) = (   0.3335581   0.0102361  -0.2775865), wk =   0.3333333
        k(    7) = (   0.3337998  -0.3141892   0.0544800), wk =   0.3333333
        k(    8) = (   0.3340193  -0.3012563  -0.2228077), wk =   0.3333333

     Program PWSCF v.6.4 starts on  8Sep2021 at 12:19:27

     R & G space division:  proc/nbgrp/npool/nimage =      40
     Waiting for input...
     Reading input from standard input
Warning: card    &IONS ignored
Warning: card      ION_DYNAMICS = 'BFGS' ignored
Warning: card   / ignored
Warning: card    &CELL ignored
Warning: card      CELL_DYNAMICS = 'BFGS', ignored
Warning: card    / ignored

     Current dimensions of program PWSCF are:
     Max number of different atomic species (ntypx) = 10
     Max number of k-points (npk) =  40000
     Max angular momentum in pseudopotentials (lmaxx) =  3

     bravais-lattice index     =            0
     lattice parameter (alat)  =      10.3765  a.u.
     unit-cell volume          =    3260.5896 (a.u.)^3
     number of atoms/cell      =           27
     number of atomic types    =            2
     number of electrons       =       162.00
     number of Kohn-Sham states=           97
     kinetic-energy cutoff     =      45.0000  Ry
     charge density cutoff     =     360.0000  Ry
     convergence threshold     =      1.0E-06
     mixing beta               =       0.7000
     number of iterations used =            8  local-TF  mixing
     Exchange-correlation      = SLA PW GGX GGC ( 1  4  2  2 0 0)

     celldm(1)=  10.376543  celldm(2)=   0.000000  celldm(3)=   0.000000
     celldm(4)=   0.000000  celldm(5)=   0.000000  celldm(6)=   0.000000

     crystal axes: (cart. coord. in units of alat)
               a(1) = (   0.999998   0.001633   0.000868 )
               a(2) = (   0.013161   1.618472   0.075497 )
               a(3) = (   0.004217   0.319736   1.818098 )

     reciprocal axes: (cart. coord. in units 2 pi/alat)
               b(1) = (  1.000016 -0.008090 -0.000897 )
               b(2) = ( -0.000922  0.622985 -0.109558 )
               b(3) = ( -0.000439 -0.025866  0.554575 )

     PseudoPot. # 1 for Mo read from file:
     ~/pseudo/Mo.pw91-n-van.UPF
     MD5 check sum: Not computed, couldn't open file
     Pseudo is Ultrasoft + core correction, Zval =  6.0
     Generated by new atomic code, or converted to UPF format
     Using radial grid of  965 points,  3 beta functions with:
                l(1) =   1
                l(2) =   2
                l(3) =   2
     Q(r) pseudized with  8 coefficients,  rinner =    1.000   1.000   1.000
                                                       1.200   1.200

     PseudoPot. # 2 for S  read from file:
     ~/pseudo/S.pw91-van_ak.UPF
     MD5 check sum: Not computed, couldn't open file
     Pseudo is Ultrasoft, Zval =  6.0
     Generated by new atomic code, or converted to UPF format
     Using radial grid of  811 points,  6 beta functions with:
                l(1) =   0
                l(2) =   0
                l(3) =   1
                l(4) =   1
                l(5) =   2
                l(6) =   2
     Q(r) pseudized with  8 coefficients,  rinner =    1.100   1.100   1.100
                                                       1.100   1.100

     atomic species   valence    mass     pseudopotential
        Mo             6.00    95.50000     Mo( 1.00)
        S              6.00    32.06500     S ( 1.00)

     No symmetry found

   Cartesian axes

     site n.     atom                  positions (alat units)
         1           Mo  tau(   1) = (   0.9551229   1.0509975   0.8269219  )
         2           Mo  tau(   2) = (   0.9770692   1.0293829   0.2227867  )
         3           Mo  tau(   3) = (   0.9646309   0.5419942   0.6467557  )
         4           Mo  tau(   4) = (   0.9569563   1.7429162   1.6635732  )
         5           Mo  tau(   5) = (   0.9562973   0.6118298   1.1649654  )
         6           Mo  tau(   6) = (   0.9794023   1.7211161   1.0600363  )
         7           Mo  tau(   7) = (   0.4625857   0.7359168   1.8144838  )
         8           Mo  tau(   8) = (   0.4644556   1.1671267   1.4549292  )
         9           Mo  tau(   9) = (   0.4690287   1.6034839   0.4308870  )
        10           S   tau(  10) = (   0.6552382   0.3995188   0.9190425  )
        11           S   tau(  11) = (   0.2116422   1.3253205   1.1015406  )
        12           S   tau(  12) = (   0.7656306   1.0666238   1.7437319  )
        13           S   tau(  13) = (   0.2294208   0.2822318   1.2775260  )
        14           S   tau(  14) = (   0.6868127   0.9589901   1.1478593  )
        15           S   tau(  15) = (   0.7225586   1.4452318   0.7838388  )
        16           S   tau(  16) = (   0.6651739   1.3281983   0.1548439  )
        17           S   tau(  17) = (   0.1697758   0.8610052   1.4989171  )
        18           S   tau(  18) = (   0.2298433   0.6623982   0.2834291  )
        19           S   tau(  19) = (   0.2004983   1.2474084   0.5042643  )
        20           S   tau(  20) = (   0.2343197   0.1928980   0.6626349  )
        21           S   tau(  21) = (   0.2689384   1.4422179   1.7307390  )
        22           S   tau(  22) = (   0.6918299   0.8700079   0.5330908  )
        23           S   tau(  23) = (   0.7332410   1.5229098   1.3813153  )
        24           S   tau(  24) = (   0.1554168   0.0852889   0.0665110  )
        25           S   tau(  25) = (   0.2657961   0.7530168   0.8913820  )
        26           S   tau(  26) = (   0.6911377   0.4902931   1.5266491  )
        27           S   tau(  27) = (   0.7514577   0.2911372   0.3116827  )

     number of k points=     8  Marzari-Vanderbilt smearing, width (Ry)=  0.0200
                       cart. coord. in units 2pi/alat
        k(    1) = (   0.0000000   0.0000000   0.0000000), wk =   0.1666667
        k(    2) = (   0.0002195   0.0129329  -0.2772876), wk =   0.1666667
        k(    3) = (   0.0004612  -0.3114925   0.0547789), wk =   0.1666667
        k(    4) = (   0.0006807  -0.2985595  -0.2225087), wk =   0.1666667
        k(    5) = (   0.3333386  -0.0026968  -0.0002989), wk =   0.3333333
        k(    6) = (   0.3335581   0.0102361  -0.2775865), wk =   0.3333333
        k(    7) = (   0.3337998  -0.3141892   0.0544800), wk =   0.3333333
        k(    8) = (   0.3340193  -0.3012563  -0.2228077), wk =   0.3333333

     Initial potential from superposition of free atoms

     starting charge  161.98581, renormalised to  162.00000
     Starting wfcs are  153 randomized atomic wfcs

     Self-consistent Calculation

     iteration #  1     ecut=    45.00 Ry     beta= 0.70
     Davidson diagonalization with overlap
     ethr =  1.00E-02,  avg # of iterations =  2.0

     total energy              =    -632.38141577 Ry
     Harris-Foulkes estimate   =    -634.58245181 Ry
     estimated scf accuracy    <       5.51718093 Ry

[...]

     total energy              =    -633.56309817 Ry
     Harris-Foulkes estimate   =    -633.56309869 Ry
     estimated scf accuracy    <       0.00000280 Ry

     iteration # 12     ecut=    45.00 Ry     beta= 0.70
     Davidson diagonalization with overlap
     ethr =  1.73E-09,  avg # of iterations =  2.9

     End of self-consistent calculation

          k = 0.0000 0.0000 0.0000 ( 16589 PWs)   bands (ev):

    -6.0006  -5.1596  -5.0098  -4.8298  -4.7560  -4.5013  -4.4769  -4.1483
    -4.1389  -4.0331  -4.0102  -3.9571  -3.8998  -3.8657  -3.7608  -3.6925
    -3.6204  -3.3158   2.1435   2.8020   2.9538   3.0134   3.0561   3.0579
     3.1243   3.2372   3.2404   3.4177   3.4704   3.5685   3.7002   3.7310
     3.8059   3.9393   3.9971   4.1239   4.1451   4.1483   4.2346   4.3193
     4.4327   4.5808   4.7452   4.8562   4.8843   4.9402   4.9487   5.0532
     5.0943   5.2446   5.2709   5.4607   5.5423   5.5852   5.6869   5.8554
     5.9577   6.0119   6.0556   6.1202   6.2816   6.3264   6.4417   6.5990
     6.6482   6.7135   6.7617   7.1082   7.2562   7.4430   7.6825   7.7313
     7.7473   7.8168   7.9453   8.0782   8.1745   8.2213   8.3896   8.4232
     8.6204   8.8957   9.0635   9.0749   9.1466   9.4024   9.6525   9.7194
     9.8076   9.8782   9.8833   9.9797  10.2355  10.2997  10.3955  10.4473
    10.5942

[...]

          k = 0.3340-0.3013-0.2228 ( 16620 PWs)   bands (ev):

    -5.2679  -5.2358  -5.1802  -4.8813  -4.6172  -4.5763  -4.4105  -4.3597
    -4.2857  -4.2210  -4.0671  -4.0477  -3.9400  -3.8678  -3.7603  -3.7392
    -3.5724  -3.4324   2.5232   2.6595   2.6985   2.8551   2.8711   2.9132
     2.9785   3.0271   3.2760   3.2848   3.3792   3.4791   3.5595   3.6024
     3.8183   3.9754   4.1238   4.2566   4.3536   4.4736   4.5372   4.6049
     4.6596   4.8100   4.8330   4.8962   4.9933   5.0691   5.1499   5.2514
     5.3414   5.3655   5.4103   5.4800   5.5384   5.5728   5.7394   5.8357
     5.8990   6.0656   6.1112   6.2346   6.4186   6.4718   6.4972   6.5193
     6.7330   6.7907   6.8586   6.9402   7.0364   7.2214   7.3931   7.5130
     7.5428   7.6843   7.7646   7.9068   8.0021   8.2045   8.3964   8.4524
     8.7275   8.7606   8.8056   9.0515   9.2852   9.3446   9.4438   9.6316
     9.7997   9.9211  10.0767  10.1250  10.2517  10.3029  10.4186  10.5670
    10.6561

     the Fermi energy is     8.7457 ev

!    total energy              =    -633.56309837 Ry
     Harris-Foulkes estimate   =    -633.56309855 Ry
     estimated scf accuracy    <       0.00000022 Ry

     The total energy is the sum of the following terms:

     one-electron contribution =     111.27355342 Ry
     hartree contribution      =      48.08244903 Ry
     xc contribution           =    -250.57245682 Ry
     ewald contribution        =    -542.34722166 Ry
     smearing contrib. (-TS)   =       0.00057766 Ry

     convergence has been achieved in  12 iterations

     Forces acting on atoms (cartesian axes, Ry/au):

     atom    1 type  1   force =     0.00582633    0.00541761   -0.01442998
     atom    2 type  1   force =    -0.00045939   -0.00104900   -0.00408622
     atom    3 type  1   force =     0.00781886   -0.00407565    0.00392180
     atom    4 type  1   force =    -0.00052745    0.00071565    0.00334651
     atom    5 type  1   force =    -0.00649046    0.00397490   -0.00529251
     atom    6 type  1   force =    -0.00634362   -0.00485062    0.01468388
     atom    7 type  1   force =    -0.00042937    0.00013814   -0.00041557
     atom    8 type  1   force =     0.00147218   -0.00928555   -0.01062540
     atom    9 type  1   force =    -0.00002531    0.00906306    0.01057013
     atom   10 type  2   force =     0.00596542    0.00421959    0.00325584
     atom   11 type  2   force =    -0.00106975   -0.00395319    0.00636118
     atom   12 type  2   force =    -0.00469926   -0.00341871    0.00524605
     atom   13 type  2   force =     0.01834961    0.01239138   -0.00157618
     atom   14 type  2   force =    -0.00258649   -0.00341338   -0.00410235
     atom   15 type  2   force =     0.00166088    0.00405585   -0.00573308
     atom   16 type  2   force =     0.00481063    0.00138646    0.00129532
     atom   17 type  2   force =    -0.00826524   -0.00600594   -0.00281347
     atom   18 type  2   force =    -0.00003725   -0.00752783    0.00245615
     atom   19 type  2   force =     0.01133063    0.00105008    0.00589704
     atom   20 type  2   force =     0.00229452    0.00452080    0.00388795
     atom   21 type  2   force =    -0.00554769   -0.00068081   -0.00105546
     atom   22 type  2   force =    -0.01870260   -0.01227158    0.00132327
     atom   23 type  2   force =    -0.01043951    0.00015347   -0.00564172
     atom   24 type  2   force =     0.00384377    0.00388547   -0.00537532
     atom   25 type  2   force =    -0.00519057   -0.00560250   -0.00259280
     atom   26 type  2   force =     0.00009538    0.00621012   -0.00118995
     atom   27 type  2   force =     0.00734574    0.00495217    0.00268490

     Total force =     0.057006     Total SCF correction =     0.000681

     General routines

     Parallel routines

   This run was terminated on:  12:20:22   8Sep2021

   JOB DONE.