     Program PWSCF v.6.4 starts on  3Dec2021 at 23:20:38

     R & G space division:  proc/nbgrp/npool/nimage =      40
     Waiting for input...
     Reading input from standard input
Warning: card    &IONS ignored
Warning: card      ION_DYNAMICS = 'BFGS' ignored
Warning: card   / ignored
Warning: card    &CELL ignored
Warning: card      CELL_DYNAMICS = 'BFGS', ignored
Warning: card    / ignored

     Current dimensions of program PWSCF are:
     Max number of different atomic species (ntypx) = 10
     Max number of k-points (npk) =  40000
     Max angular momentum in pseudopotentials (lmaxx) =  3

     bravais-lattice index     =            0
     lattice parameter (alat)  =      11.7664  a.u.
     unit-cell volume          =   21614.5665 (a.u.)^3
     number of atoms/cell      =           36
     number of atomic types    =            2
     number of electrons       =       216.00
     number of Kohn-Sham states=          130
     kinetic-energy cutoff     =      45.0000  Ry
     charge density cutoff     =     360.0000  Ry
     convergence threshold     =      1.0E-06
     mixing beta               =       0.7000
     number of iterations used =            8  local-TF  mixing
     Exchange-correlation      = SLA PW GGX GGC ( 1  4  2  2 0 0)

     celldm(1)=  11.766444  celldm(2)=   0.000000  celldm(3)=   0.000000
     celldm(4)=   0.000000  celldm(5)=   0.000000  celldm(6)=   0.000000

     crystal axes: (cart. coord. in units of alat)
               a(1) = (   1.000000   0.000000   0.000000 )
               a(2) = (   0.573303   1.909127   0.000000 )
               a(3) = (   0.346416   0.902375   6.949859 )

     reciprocal axes: (cart. coord. in units 2 pi/alat)
               b(1) = (  1.000000 -0.300296 -0.010854 )
               b(2) = (  0.000000  0.523800 -0.068011 )
               b(3) = (  0.000000  0.000000  0.143888 )

     PseudoPot. # 1 for Mo read from file:
     ~/pseudo/Mo.pw91-n-van.UPF
     MD5 check sum: Not computed, couldn't open file
     Pseudo is Ultrasoft + core correction, Zval =  6.0
     Generated by new atomic code, or converted to UPF format
     Using radial grid of  965 points,  3 beta functions with:
                l(1) =   1
                l(2) =   2
                l(3) =   2
     Q(r) pseudized with  8 coefficients,  rinner =    1.000   1.000   1.000
                                                       1.200   1.200

     PseudoPot. # 2 for S  read from file:
     ~/pseudo/S.pw91-van_ak.UPF
     MD5 check sum: Not computed, couldn't open file
     Pseudo is Ultrasoft, Zval =  6.0
     Generated by new atomic code, or converted to UPF format
     Using radial grid of  811 points,  6 beta functions with:
                l(1) =   0
                l(2) =   0
                l(3) =   1
                l(4) =   1
                l(5) =   2
                l(6) =   2
     Q(r) pseudized with  8 coefficients,  rinner =    1.100   1.100   1.100
                                                       1.100   1.100

     atomic species   valence    mass     pseudopotential
        Mo             6.00    95.50000     Mo( 1.00)
        S              6.00    32.06500     S ( 1.00)

     No symmetry found

   Cartesian axes

     site n.     atom                  positions (alat units)
         1           Mo  tau(   1) = (   1.5234027   2.1801376   5.0804300  )
         2           Mo  tau(   2) = (   0.7726279   1.7514233   5.0165565  )
         3           Mo  tau(   3) = (   1.0224435   2.1803989   5.0806500  )
         4           Mo  tau(   4) = (   1.2730569   1.7503400   5.0171663  )
         5           Mo  tau(   5) = (   0.4489209   1.1622338   5.1788630  )
         6           Mo  tau(   6) = (   0.9484958   1.1621240   5.1785039  )
         7           Mo  tau(   7) = (   0.6956246   0.7288774   5.1407562  )
         8           Mo  tau(   8) = (   1.1949556   0.7287953   5.1409997  )
         9           Mo  tau(   9) = (   0.8668915   1.7515906   6.3927585  )
        10           Mo  tau(  10) = (   1.3657923   1.7516811   6.3944371  )
        11           Mo  tau(  11) = (   1.0030495   1.7901406   1.2186836  )
        12           Mo  tau(  12) = (   1.5023468   1.7918324   1.2198597  )
        13           S   tau(  13) = (   0.7732865   1.9966735   5.3175344  )
        14           S   tau(  14) = (   1.5191387   2.4455580   5.3707310  )
        15           S   tau(  15) = (   1.2729494   1.9973043   5.3168555  )
        16           S   tau(  16) = (   1.0194022   2.4467581   5.3706295  )
        17           S   tau(  17) = (   0.7508100   1.5307910   1.2887300  )
        18           S   tau(  18) = (   1.2514301   1.8552741   1.4815921  )
        19           S   tau(  19) = (   0.7743179   2.0748635   4.8031421  )
        20           S   tau(  20) = (   1.5192000   2.5113322   4.8714434  )
        21           S   tau(  21) = (   1.2738960   2.0741829   4.8045861  )
        22           S   tau(  22) = (   1.0189087   2.5120024   4.8718207  )
        23           S   tau(  23) = (   0.7544438   2.0522179   1.1524089  )
        24           S   tau(  24) = (   1.2537350   1.7255505   0.9571453  )
        25           S   tau(  25) = (   1.0219364   1.5332270   5.2416888  )
        26           S   tau(  26) = (   0.5223737   1.5333985   5.2434271  )
        27           S   tau(  27) = (   1.0246541   1.6306080   4.7506118  )
        28           S   tau(  28) = (   1.5245733   1.6263988   4.7522652  )
        29           S   tau(  29) = (   0.6948639   1.0555741   4.9089220  )
        30           S   tau(  30) = (   1.1951954   1.0552144   4.9094736  )
        31           S   tau(  31) = (   0.6174715   1.6939083   6.6567436  )
        32           S   tau(  32) = (   1.1165548   2.0125564   6.4643457  )
        33           S   tau(  33) = (   0.6961325   1.0025711   5.4274060  )
        34           S   tau(  34) = (   1.1956925   1.0029351   5.4272339  )
        35           S   tau(  35) = (   0.6154494   1.8101208   6.1306405  )
        36           S   tau(  36) = (   1.1163381   1.4897835   6.3250160  )

     number of k points=     4  Marzari-Vanderbilt smearing, width (Ry)=  0.0200
                       cart. coord. in units 2pi/alat
        k(    1) = (   0.0000000   0.0000000   0.0000000), wk =   0.3333333
        k(    2) = (   0.0000000  -0.2618998   0.0340053), wk =   0.3333333
        k(    3) = (   0.3333333  -0.1000986  -0.0036181), wk =   0.6666667
        k(    4) = (   0.3333333  -0.3619984   0.0303872), wk =   0.6666667

     Initial potential from superposition of free atoms

     starting charge  215.98107, renormalised to  216.00000

     negative rho (up, down):  2.774E-03 0.000E+00
     Starting wfcs are  204 randomized atomic wfcs

     Self-consistent Calculation

     iteration #  1     ecut=    45.00 Ry     beta= 0.70
     Davidson diagonalization with overlap
     ethr =  1.00E-02,  avg # of iterations =  2.5

     negative rho (up, down):  7.700E-04 0.000E+00

     total energy              =    -843.38473703 Ry
     Harris-Foulkes estimate   =    -846.07238646 Ry
     estimated scf accuracy    <       6.99765691 Ry

[...]

     iteration #  9     ecut=    45.00 Ry     beta= 0.70
     Davidson diagonalization with overlap
     c_bands:  1 eigenvalues not converged
     c_bands:  1 eigenvalues not converged
     ethr =  1.27E-05,  avg # of iterations = 10.5

[...]

     total energy              =    -844.73064452 Ry
     Harris-Foulkes estimate   =    -844.73064160 Ry
     estimated scf accuracy    <       0.00000165 Ry

     iteration # 22     ecut=    45.00 Ry     beta= 0.70
     Davidson diagonalization with overlap
     ethr =  7.63E-10,  avg # of iterations =  2.5

[...]

     End of self-consistent calculation

          k = 0.0000 0.0000 0.0000 (110245 PWs)   bands (ev):

   -17.1461 -16.6052 -16.2591 -16.0316 -15.8517 -15.6671 -15.6565 -15.6547
   -15.4879 -15.4623 -15.4209 -15.3718 -15.3570 -15.1837 -15.1387 -15.0750
   -15.0564 -15.0499 -15.0419 -15.0333 -14.9437 -14.9422 -14.8724 -14.2212
    -8.7732  -8.7445  -8.6583  -8.5502  -8.5124  -8.1997  -8.1802  -8.0993
    -8.0336  -8.0311  -8.0182  -7.6858  -7.6837  -7.6304  -7.5390  -7.2661
    -7.2168  -7.1526  -7.0576  -7.0353  -6.9605  -6.9379  -6.6630  -6.5956
    -6.5615  -6.5589  -6.5515  -6.5482  -6.5183  -6.5152  -6.4473  -6.3899
    -6.2834  -6.2784  -6.2269  -6.1334  -6.0825  -6.0721  -6.0476  -6.0376
    -6.0370  -6.0276  -5.9663  -5.8846  -5.5822  -5.4381  -5.4215  -5.3695
    -5.3668  -5.3435  -5.3199  -5.2852  -5.1862  -5.1400  -4.9311  -4.8633
    -4.8479  -4.7832  -4.7791  -4.7018  -4.6913  -4.5892  -4.5760  -4.5640
    -4.5562  -4.4656  -4.2717  -4.1387  -4.1202  -4.0353  -4.0112  -3.9985
    -3.8158  -3.7759  -3.6211  -3.5698  -3.4417  -3.2635  -2.9574  -2.9502
    -2.9468  -2.9453  -2.9241  -2.7523  -2.7024  -2.6986  -2.4350  -2.3321
    -2.0818  -1.8940  -1.4137  -1.2974  -1.2576  -1.2210  -1.1859  -1.1732
    -0.9917  -0.9295  -0.8451  -0.8382  -0.8325  -0.6687  -0.6220  -0.5533
    -0.5497  -0.5117

[...]

          k = 0.3333-0.3620 0.0304 (110195 PWs)   bands (ev):

   -16.8198 -16.4542 -16.1024 -15.9189 -15.8614 -15.7768 -15.7287 -15.5657
   -15.5588 -15.5039 -15.4720 -15.4704 -15.4195 -15.3571 -15.2330 -15.1199
   -15.1154 -15.1136 -15.0450 -15.0420 -15.0369 -15.0319 -14.7181 -14.3901
    -8.4110  -8.3681  -8.2947  -8.2803  -8.2567  -8.0318  -7.9777  -7.8818
    -7.8093  -7.6716  -7.6311  -7.5281  -7.4142  -7.2148  -7.2127  -7.1253
    -7.0075  -6.9720  -6.9377  -6.8869  -6.8523  -6.7744  -6.6646  -6.5634
    -6.5615  -6.4779  -6.4727  -6.4710  -6.4586  -6.4499  -6.4465  -6.3939
    -6.3937  -6.3785  -6.3211  -6.2508  -6.2077  -6.1414  -6.1086  -6.0172
    -6.0170  -5.9441  -5.9224  -5.9027  -5.8825  -5.8801  -5.8144  -5.7586
    -5.7355  -5.7307  -5.6079  -5.4899  -5.3991  -5.3608  -5.3370  -5.1850
    -5.1536  -5.1115  -5.0936  -5.0776  -5.0644  -4.8988  -4.8884  -4.8868
    -4.8702  -4.7614  -4.6126  -4.5601  -4.5141  -4.2378  -4.1748  -3.9182
    -3.8751  -3.7801  -3.5708  -3.5279  -3.5201  -3.4260  -3.2366  -2.8335
    -2.8317  -2.7983  -2.6986  -2.6959  -2.2822  -2.2148  -2.0165  -1.9350
    -1.9333  -1.8288  -1.5341  -1.3568  -1.2478  -1.1812  -1.0348  -0.9768
    -0.9540  -0.9529  -0.9374  -0.9261  -0.9034  -0.8942  -0.8439  -0.7888
    -0.7151  -0.6972

     the Fermi energy is    -2.6077 ev

!    total energy              =    -844.73064998 Ry
     Harris-Foulkes estimate   =    -844.73064460 Ry
     estimated scf accuracy    <       0.00000041 Ry

     The total energy is the sum of the following terms:

     one-electron contribution =   -9482.52816753 Ry
     hartree contribution      =    4790.23729786 Ry
     xc contribution           =    -333.33142484 Ry
     ewald contribution        =    4180.88846354 Ry
     smearing contrib. (-TS)   =       0.00318099 Ry

     convergence has been achieved in  22 iterations

     negative rho (up, down):  4.050E-03 0.000E+00

     Forces acting on atoms (cartesian axes, Ry/au):

     atom    1 type  1   force =    -0.00153408    0.02738153    0.01723398
     atom    2 type  1   force =     0.00499987   -0.06855290   -0.01650140
     atom    3 type  1   force =     0.00133710    0.02815504    0.01685946
     atom    4 type  1   force =     0.00396847   -0.06586760   -0.01765336
     atom    5 type  1   force =    -0.00308418    0.02589504    0.02268232
     atom    6 type  1   force =    -0.00233967    0.02632380    0.02358616
     atom    7 type  1   force =    -0.00202218   -0.02592911   -0.00578784
     atom    8 type  1   force =     0.00008928   -0.02557124   -0.00581205
     atom    9 type  1   force =     0.00078942    0.00045304    0.00226513
     atom   10 type  1   force =     0.00048421   -0.00206059   -0.00035141
     atom   11 type  1   force =    -0.00009387   -0.00186533    0.00225415
     atom   12 type  1   force =    -0.00014633    0.00268650    0.00101402
     atom   13 type  2   force =    -0.00072994    0.00796512    0.00164557
     atom   14 type  2   force =    -0.00010234    0.01016380    0.00388033
     atom   15 type  2   force =     0.00016962    0.00683264    0.00266892
     atom   16 type  2   force =    -0.00092610    0.00820711    0.00416230
     atom   17 type  2   force =     0.00274959   -0.03031757    0.00588031
     atom   18 type  2   force =     0.00115519    0.00796232    0.02751537
     atom   19 type  2   force =    -0.00373712    0.00006914   -0.00002174
     atom   20 type  2   force =    -0.00054488    0.00746403   -0.00551893
     atom   21 type  2   force =    -0.00228677    0.00058683   -0.00223016
     atom   22 type  2   force =    -0.00024537    0.00641643   -0.00577431
     atom   23 type  2   force =    -0.00247351    0.02850212   -0.00714208
     atom   24 type  2   force =    -0.00045145   -0.00789475   -0.02879692
     atom   25 type  2   force =    -0.01026595    0.02036059   -0.00642270
     atom   26 type  2   force =    -0.01016823    0.02069265   -0.00560586
     atom   27 type  2   force =    -0.00214314    0.00597426    0.00339398
     atom   28 type  2   force =    -0.00250167    0.00879009    0.00228604
     atom   29 type  2   force =     0.00927760   -0.00866595   -0.00032877
     atom   30 type  2   force =     0.00905708   -0.00832739   -0.00120674
     atom   31 type  2   force =    -0.00018929   -0.01031007    0.02824145
     atom   32 type  2   force =    -0.00094515    0.02942464    0.00313338
     atom   33 type  2   force =     0.00589927   -0.00327631   -0.01276798
     atom   34 type  2   force =     0.00668674   -0.00360244   -0.01226037
     atom   35 type  2   force =    -0.00025464    0.01025293   -0.03000723
     atom   36 type  2   force =     0.00052240   -0.02831841   -0.00451303

     Total force =     0.159133     Total SCF correction =     0.000938

     General routines

     Parallel routines

   This run was terminated on:  23:32:32   3Dec2021

   JOB DONE.