     Program PWSCF v.6.4 starts on  8Sep2021 at 11:55:52

     R & G space division:  proc/nbgrp/npool/nimage =      40
     Waiting for input...
     Reading input from standard input
Warning: card    &IONS ignored
Warning: card      ION_DYNAMICS = 'BFGS' ignored
Warning: card   / ignored
Warning: card    &CELL ignored
Warning: card      CELL_DYNAMICS = 'BFGS', ignored
Warning: card    / ignored

     Current dimensions of program PWSCF are:
     Max number of different atomic species (ntypx) = 10
     Max number of k-points (npk) =  40000
     Max angular momentum in pseudopotentials (lmaxx) =  3

     bravais-lattice index     =            0
     lattice parameter (alat)  =      12.6632  a.u.
     unit-cell volume          =    3460.6609 (a.u.)^3
     number of atoms/cell      =           24
     number of atomic types    =            2
     number of electrons       =       144.00
     number of Kohn-Sham states=           86
     kinetic-energy cutoff     =      45.0000  Ry
     charge density cutoff     =     360.0000  Ry
     convergence threshold     =      1.0E-06
     mixing beta               =       0.7000
     number of iterations used =            8  local-TF  mixing
     Exchange-correlation      = SLA PW GGX GGC ( 1  4  2  2 0 0)

     celldm(1)=  12.663212  celldm(2)=   0.000000  celldm(3)=   0.000000
     celldm(4)=   0.000000  celldm(5)=   0.000000  celldm(6)=   0.000000

     crystal axes: (cart. coord. in units of alat)
               a(1) = (   0.999440  -0.021094   0.025966 )
               a(2) = (  -0.456702   0.863117  -0.032586 )
               a(3) = (   0.077054  -0.108237   2.002511 )

     reciprocal axes: (cart. coord. in units 2 pi/alat)
               b(1) = (  1.012116  0.535164 -0.010019 )
               b(2) = (  0.023137  1.173194  0.062522 )
               b(3) = ( -0.012747  0.012151  0.500520 )

     PseudoPot. # 1 for Mo read from file:
     ~/pseudo/Mo.pw91-n-van.UPF
     MD5 check sum: Not computed, couldn't open file
     Pseudo is Ultrasoft + core correction, Zval =  6.0
     Generated by new atomic code, or converted to UPF format
     Using radial grid of  965 points,  3 beta functions with:
                l(1) =   1
                l(2) =   2
                l(3) =   2
     Q(r) pseudized with  8 coefficients,  rinner =    1.000   1.000   1.000
                                                       1.200   1.200

     PseudoPot. # 2 for S  read from file:
     ~/pseudo/S.pw91-van_ak.UPF
     MD5 check sum: Not computed, couldn't open file
     Pseudo is Ultrasoft, Zval =  6.0
     Generated by new atomic code, or converted to UPF format
     Using radial grid of  811 points,  6 beta functions with:
                l(1) =   0
                l(2) =   0
                l(3) =   1
                l(4) =   1
                l(5) =   2
                l(6) =   2
     Q(r) pseudized with  8 coefficients,  rinner =    1.100   1.100   1.100
                                                       1.100   1.100

     atomic species   valence    mass     pseudopotential
        Mo             6.00    95.50000     Mo( 1.00)
        S              6.00    32.06500     S ( 1.00)

     No symmetry found

   Cartesian axes

     site n.     atom                  positions (alat units)
         1           Mo  tau(   1) = (   0.1142372   0.2731719   0.5120993  )
         2           Mo  tau(   2) = (  -0.1368522   0.7215807   0.3612809  )
         3           Mo  tau(   3) = (   0.5959668   0.2528691   0.5461650  )
         4           Mo  tau(   4) = (   0.3737728   0.5902946   0.6905725  )
         5           Mo  tau(   5) = (   0.2456351   0.0620145   1.4853686  )
         6           Mo  tau(   6) = (   0.0149251   0.4904927   1.4681039  )
         7           Mo  tau(   7) = (   0.7579231   0.0472513   1.4671695  )
         8           Mo  tau(   8) = (   0.5285818   0.4751286   1.4518963  )
         9           S   tau(   9) = (   0.3385199   0.0477935   0.6918331  )
        10           S   tau(  10) = (   0.0934463   0.4517616   0.8277949  )
        11           S   tau(  11) = (   0.8476880   0.0778574   0.7226581  )
        12           S   tau(  12) = (   0.6243088   0.4386369   0.8590151  )
        13           S   tau(  13) = (  -0.0167900   0.2000035   1.7036945  )
        14           S   tau(  14) = (  -0.2426954   0.6279557   1.6886279  )
        15           S   tau(  15) = (   0.5171364   0.2010763   1.6945747  )
        16           S   tau(  16) = (   0.2849489   0.6293630   1.6662320  )
        17           S   tau(  17) = (   0.3516470   0.1525653   0.2323264  )
        18           S   tau(  18) = (   0.1744677   0.5919683   0.3574558  )
        19           S   tau(  19) = (   0.8573338   0.2273462   0.2821240  )
        20           S   tau(  20) = (   0.5578667   0.5527225   0.3635196  )
        21           S   tau(  21) = (   0.0161025   0.2128523   1.2352741  )
        22           S   tau(  22) = (  -0.2118662   0.6418005   1.2227600  )
        23           S   tau(  23) = (   0.5167335   0.1893125   1.2265373  )
        24           S   tau(  24) = (   0.3182521   0.6403560   1.1868788  )

     number of k points=    10  Marzari-Vanderbilt smearing, width (Ry)=  0.0200
                       cart. coord. in units 2pi/alat
        k(    1) = (   0.0000000   0.0000000   0.0000000), wk =   0.1111111
        k(    2) = (   0.0063737  -0.0060756  -0.2502601), wk =   0.1111111
        k(    3) = (   0.0077124   0.3910648   0.0208406), wk =   0.2222222
        k(    4) = (   0.0140861   0.3849892  -0.2294195), wk =   0.2222222
        k(    5) = (   0.3373719   0.1783880  -0.0033397), wk =   0.2222222
        k(    6) = (   0.3437456   0.1723123  -0.2535998), wk =   0.2222222
        k(    7) = (   0.3450843   0.5694528   0.0175009), wk =   0.2222222
        k(    8) = (   0.3514580   0.5633772  -0.2327592), wk =   0.2222222
        k(    9) = (   0.3296595  -0.2126768  -0.0241802), wk =   0.2222222
        k(   10) = (   0.3360332  -0.2187525  -0.2744403), wk =   0.2222222

     Initial potential from superposition of free atoms

     starting charge  143.98738, renormalised to  144.00000
     Starting wfcs are  136 randomized atomic wfcs

     Self-consistent Calculation

     iteration #  1     ecut=    45.00 Ry     beta= 0.70
     Davidson diagonalization with overlap
     ethr =  1.00E-02,  avg # of iterations =  2.0

     total energy              =    -562.05429440 Ry
     Harris-Foulkes estimate   =    -564.06344593 Ry
     estimated scf accuracy    <       5.19879878 Ry

[...]

     total energy              =    -563.09057757 Ry
     Harris-Foulkes estimate   =    -563.09057780 Ry
     estimated scf accuracy    <       0.00000130 Ry

     iteration # 15     ecut=    45.00 Ry     beta= 0.70
     Davidson diagonalization with overlap
     ethr =  9.03E-10,  avg # of iterations =  3.3

     End of self-consistent calculation

          k = 0.0000 0.0000 0.0000 ( 17637 PWs)   bands (ev):

    -7.9563  -7.8263  -7.0055  -6.7447  -6.5075  -6.4619  -6.4050  -6.3541
    -6.1034  -6.0820  -6.0246  -6.0206  -5.9795  -5.8853  -5.7026  -5.4184
     0.2576   0.3558   0.4403   0.5768   0.6133   0.7802   0.8848   1.3210
     1.3365   1.4062   1.4552   1.4840   1.5479   1.7741   1.9269   1.9862
     2.0190   2.1856   2.3497   2.5423   2.6190   2.6460   2.8316   2.8420
     2.9561   3.0738   3.2273   3.2854   3.3378   3.4886   3.5020   3.6201
     3.7237   3.9301   4.0595   4.1390   4.2102   4.2772   4.3500   4.4518
     4.6013   4.6642   4.7480   4.7570   4.8060   5.0311   5.1164   5.2345
     5.3493   5.3957   5.4277   5.5729   5.6468   6.0944   6.2747   6.7130
     7.2000   7.3262   7.4309   7.4553   7.5080   7.5861   7.6964   7.7890
     7.9548   7.9809   8.0482   8.0803   8.1043   8.2092

[...]

          k = 0.3360-0.2188-0.2744 ( 17657 PWs)   bands (ev):

    -7.6437  -7.5601  -6.9435  -6.8743  -6.6613  -6.6080  -6.4856  -6.4216
    -6.2858  -6.2098  -6.0733  -6.0425  -6.0144  -5.8942  -5.7214  -5.3857
     0.5857   0.7132   0.8784   0.8929   1.0182   1.0432   1.2143   1.2846
     1.3313   1.4200   1.4792   1.7169   1.8235   1.9228   1.9926   2.0230
     2.0819   2.1992   2.3364   2.4336   2.5038   2.5986   2.7418   2.7679
     2.8618   3.0221   3.1269   3.1889   3.3125   3.4411   3.4803   3.5333
     3.6141   3.6338   3.7163   3.8279   3.9583   4.0671   4.1789   4.2117
     4.3014   4.3580   4.4911   4.6164   4.7639   4.8909   5.1051   5.1451
     5.2211   5.3527   5.4509   5.6180   5.7779   6.1021   6.3391   6.4953
     6.7938   7.0992   7.3413   7.4432   7.4997   7.5508   7.5874   7.6744
     7.7678   7.9053   7.9808   8.0196   8.1412   8.2165

     the Fermi energy is     6.6709 ev

!    total energy              =    -563.09057739 Ry
     Harris-Foulkes estimate   =    -563.09057780 Ry
     estimated scf accuracy    <       0.00000047 Ry

     The total energy is the sum of the following terms:

     one-electron contribution =     -59.56606633 Ry
     hartree contribution      =     110.26080487 Ry
     xc contribution           =    -222.16934810 Ry
     ewald contribution        =    -391.61998491 Ry
     smearing contrib. (-TS)   =       0.00401708 Ry

     convergence has been achieved in  15 iterations

     Forces acting on atoms (cartesian axes, Ry/au):

     atom    1 type  1   force =     0.00231640   -0.00283802   -0.00177231
     atom    2 type  1   force =     0.00277681    0.01586669    0.01160008
     atom    3 type  1   force =    -0.02481355    0.01115234   -0.02607109
     atom    4 type  1   force =    -0.00586294   -0.00858708   -0.00457073
     atom    5 type  1   force =     0.01245647   -0.00936948   -0.02203183
     atom    6 type  1   force =     0.02228906   -0.00071386   -0.03496315
     atom    7 type  1   force =    -0.01209335    0.00503187    0.00123892
     atom    8 type  1   force =    -0.00657029    0.01465514   -0.00556409
     atom    9 type  2   force =    -0.00408837   -0.01922631    0.00699272
     atom   10 type  2   force =     0.00988291    0.01041414   -0.01663074
     atom   11 type  2   force =     0.01984703   -0.03318274    0.01997396
     atom   12 type  2   force =    -0.00038093   -0.00172369   -0.02281099
     atom   13 type  2   force =     0.02276738    0.02074748   -0.02305707
     atom   14 type  2   force =     0.01590442    0.02548055   -0.02480710
     atom   15 type  2   force =    -0.02345015   -0.00661534    0.00006093
     atom   16 type  2   force =    -0.01713827    0.00264969    0.01878737
     atom   17 type  2   force =     0.00062771    0.00098454    0.00734020
     atom   18 type  2   force =    -0.00663442    0.00162327   -0.00621387
     atom   19 type  2   force =     0.00031452   -0.00407012    0.00992518
     atom   20 type  2   force =     0.00301467    0.02144245   -0.00329166
     atom   21 type  2   force =     0.01906397   -0.00579540    0.00916104
     atom   22 type  2   force =     0.01889967    0.00135930    0.00906325
     atom   23 type  2   force =    -0.01705027   -0.01358182    0.03379705
     atom   24 type  2   force =    -0.03207849   -0.02570359    0.06384394

     Total force =     0.146598     Total SCF correction =     0.001698

     General routines

     Parallel routines

   This run was terminated on:  11:57: 2   8Sep2021

   JOB DONE.