     Program PWSCF v.6.4 starts on 10Nov2021 at 18: 6:51

     R & G space division:  proc/nbgrp/npool/nimage =      40
     Waiting for input...
     Reading input from standard input
Warning: card    &IONS ignored
Warning: card      ION_DYNAMICS = 'BFGS' ignored
Warning: card   / ignored
Warning: card    &CELL ignored
Warning: card      CELL_DYNAMICS = 'BFGS', ignored
Warning: card    / ignored

     Current dimensions of program PWSCF are:
     Max number of different atomic species (ntypx) = 10
     Max number of k-points (npk) =  40000
     Max angular momentum in pseudopotentials (lmaxx) =  3

     bravais-lattice index     =            0
     lattice parameter (alat)  =       6.1065  a.u.
     unit-cell volume          =    2522.2348 (a.u.)^3
     number of atoms/cell      =           12
     number of atomic types    =            2
     number of electrons       =        72.00
     number of Kohn-Sham states=           43
     kinetic-energy cutoff     =      45.0000  Ry
     charge density cutoff     =     360.0000  Ry
     convergence threshold     =      1.0E-06
     mixing beta               =       0.7000
     number of iterations used =            8  local-TF  mixing
     Exchange-correlation      = SLA PW GGX GGC ( 1  4  2  2 0 0)

     celldm(1)=   6.106504  celldm(2)=   0.000000  celldm(3)=   0.000000
     celldm(4)=   0.000000  celldm(5)=   0.000000  celldm(6)=   0.000000

     crystal axes: (cart. coord. in units of alat)
               a(1) = (   1.000000   0.000000   0.000000 )
               a(2) = (  -0.502460   0.861801   0.000000 )
               a(3) = (  -0.489497  -0.391842  12.852877 )

     reciprocal axes: (cart. coord. in units 2 pi/alat)
               b(1) = (  1.000000  0.583034  0.055859 )
               b(2) = (  0.000000  1.160360  0.035376 )
               b(3) = (  0.000000  0.000000  0.077804 )

     PseudoPot. # 1 for Mo read from file:
     ~/pseudo/Mo.pw91-n-van.UPF
     MD5 check sum: Not computed, couldn't open file
     Pseudo is Ultrasoft + core correction, Zval =  6.0
     Generated by new atomic code, or converted to UPF format
     Using radial grid of  965 points,  3 beta functions with:
                l(1) =   1
                l(2) =   2
                l(3) =   2
     Q(r) pseudized with  8 coefficients,  rinner =    1.000   1.000   1.000
                                                       1.200   1.200

     PseudoPot. # 2 for S  read from file:
     ~/pseudo/S.pw91-van_ak.UPF
     MD5 check sum: Not computed, couldn't open file
     Pseudo is Ultrasoft, Zval =  6.0
     Generated by new atomic code, or converted to UPF format
     Using radial grid of  811 points,  6 beta functions with:
                l(1) =   0
                l(2) =   0
                l(3) =   1
                l(4) =   1
                l(5) =   2
                l(6) =   2
     Q(r) pseudized with  8 coefficients,  rinner =    1.100   1.100   1.100
                                                       1.100   1.100

     atomic species   valence    mass     pseudopotential
        Mo             6.00    95.50000     Mo( 1.00)
        S              6.00    32.06500     S ( 1.00)

     No symmetry found

   Cartesian axes

     site n.     atom                  positions (alat units)
         1           Mo  tau(   1) = (   0.9319205   0.1598637   1.3377159  )
         2           Mo  tau(   2) = (  -0.1130913   0.4880664   8.8286528  )
         3           Mo  tau(   3) = (   0.1461307   0.2920656   3.7376779  )
         4           Mo  tau(   4) = (   0.0509766  -0.0000775  11.8017133  )
         5           S   tau(   5) = (  -0.0701010   0.7395326   0.8488740  )
         6           S   tau(   6) = (  -0.6169636   0.1975596   8.3386079  )
         7           S   tau(   7) = (  -0.3562489   0.5821268   3.2481959  )
         8           S   tau(   8) = (  -0.4469854   0.2897791  11.3121722  )
         9           S   tau(   9) = (   0.4352104  -0.1333866   1.8264871  )
        10           S   tau(  10) = (  -0.6049500   0.2032655   9.3187226  )
        11           S   tau(  11) = (  -0.3554501   0.5774196   4.2272534  )
        12           S   tau(  12) = (  -0.4548243   0.2855425  12.2911534  )

     number of k points=    20  Marzari-Vanderbilt smearing, width (Ry)=  0.0200
                       cart. coord. in units 2pi/alat
        k(    1) = (   0.0000000   0.0000000   0.0000000), wk =   0.0555556
        k(    2) = (   0.0000000   0.1933934   0.0058959), wk =   0.1111111
        k(    3) = (   0.0000000   0.3867868   0.0117918), wk =   0.1111111
        k(    4) = (   0.0000000  -0.5801801  -0.0176878), wk =   0.0555556
        k(    5) = (   0.1666667   0.0971724   0.0093099), wk =   0.1111111
        k(    6) = (   0.1666667   0.2905657   0.0152058), wk =   0.1111111
        k(    7) = (   0.1666667   0.4839591   0.0211017), wk =   0.1111111
        k(    8) = (   0.1666667  -0.4830078  -0.0083779), wk =   0.1111111
        k(    9) = (   0.1666667  -0.2896144  -0.0024819), wk =   0.1111111
        k(   10) = (   0.1666667  -0.0962210   0.0034140), wk =   0.1111111
        k(   11) = (   0.3333333   0.1943447   0.0186198), wk =   0.1111111
        k(   12) = (   0.3333333   0.3877381   0.0245157), wk =   0.1111111
        k(   13) = (   0.3333333   0.5811315   0.0304117), wk =   0.1111111
        k(   14) = (   0.3333333  -0.3858354   0.0009320), wk =   0.1111111
        k(   15) = (   0.3333333  -0.1924420   0.0068280), wk =   0.1111111
        k(   16) = (   0.3333333   0.0009514   0.0127239), wk =   0.1111111
        k(   17) = (  -0.5000000  -0.2915171  -0.0279297), wk =   0.0555556
        k(   18) = (  -0.5000000  -0.0981237  -0.0220338), wk =   0.1111111
        k(   19) = (  -0.5000000   0.0952697  -0.0161379), wk =   0.1111111
        k(   20) = (  -0.5000000  -0.8716972  -0.0456175), wk =   0.0555556

     Initial potential from superposition of free atoms

     starting charge   71.99369, renormalised to   72.00000

     negative rho (up, down):  1.587E-04 0.000E+00
     Starting wfcs are   68 randomized atomic wfcs

     Self-consistent Calculation

     iteration #  1     ecut=    45.00 Ry     beta= 0.70
     Davidson diagonalization with overlap
     ethr =  1.00E-02,  avg # of iterations =  2.0

     negative rho (up, down):  7.407E-06 0.000E+00

     total energy              =    -281.39555435 Ry
     Harris-Foulkes estimate   =    -282.28988940 Ry
     estimated scf accuracy    <       2.29255285 Ry

[...]

     total energy              =    -281.84602574 Ry
     Harris-Foulkes estimate   =    -281.84602685 Ry
     estimated scf accuracy    <       0.00000257 Ry

     iteration # 18     ecut=    45.00 Ry     beta= 0.70
     Davidson diagonalization with overlap
     ethr =  3.57E-09,  avg # of iterations =  3.0

[...]

     End of self-consistent calculation

          k = 0.0000 0.0000 0.0000 ( 13007 PWs)   bands (ev):

   -11.8224 -11.8014 -11.7998 -11.7805 -10.6353 -10.6188 -10.6159 -10.6041
    -3.3325  -3.2833  -3.2629  -3.2527  -0.4737  -0.4498  -0.4472  -0.4265
    -0.4087  -0.3835  -0.3809  -0.3596   0.3335   0.4725   0.4953   0.6215
     0.6591   0.6801   0.6811   0.6818   0.6985   0.7026   0.7059   0.7281
     2.0388   2.1328   2.1484   2.2347   4.7813   4.7946   4.7976   4.8012
     4.8541   4.8680   4.8743

[...]

          k = 0.3333 0.0010 0.0127 ( 12900 PWs)   bands (ev):

[...]

          k =-0.5000-0.2915-0.0279 ( 12762 PWs)   bands (ev):

[...]

          k =-0.5000-0.8717-0.0456 ( 12776 PWs)   bands (ev):

   -10.1210 -10.1006 -10.0993 -10.0800  -9.8426  -9.8252  -9.8236  -9.8070
    -3.4537  -3.4339  -3.4330  -3.4142  -2.5116  -2.4948  -2.4917  -2.4783
    -1.8529  -1.8231  -1.8135  -1.8051  -0.9261  -0.9040  -0.9027  -0.8819
     0.2722   0.3155   0.3274   0.3496   1.2163   1.2356   1.2362   1.2561
     1.4785   1.5065   1.5224   1.5232   4.1380   4.1511   4.1529   4.1667
     4.6440   4.6619   4.6652

     the Fermi energy is     2.2235 ev

!    total energy              =    -281.84602639 Ry
     Harris-Foulkes estimate   =    -281.84602606 Ry
     estimated scf accuracy    <       0.00000023 Ry

     The total energy is the sum of the following terms:

     one-electron contribution =   -1459.70304009 Ry
     hartree contribution      =     759.93862009 Ry
     xc contribution           =    -111.31812196 Ry
     ewald contribution        =     529.22856816 Ry
     smearing contrib. (-TS)   =       0.00794742 Ry

     convergence has been achieved in  18 iterations

     negative rho (up, down):  2.202E-04 0.000E+00

     Forces acting on atoms (cartesian axes, Ry/au):

     atom    1 type  1   force =     0.00345628   -0.00299885   -0.00042530
     atom    2 type  1   force =     0.00425224   -0.00211912    0.00052838
     atom    3 type  1   force =    -0.00373294    0.00263125    0.00032005
     atom    4 type  1   force =    -0.00333180    0.00243970    0.00055940
     atom    5 type  2   force =     0.00001121   -0.00496462    0.00196024
     atom    6 type  2   force =     0.00454126    0.00435517    0.00448090
     atom    7 type  2   force =     0.00206395   -0.00411225    0.00341263
     atom    8 type  2   force =    -0.00285259   -0.00318325    0.00343423
     atom    9 type  2   force =    -0.00298337    0.00788033   -0.00198936
     atom   10 type  2   force =    -0.00876561   -0.00221186   -0.00472141
     atom   11 type  2   force =     0.00117350    0.00122418   -0.00382855
     atom   12 type  2   force =     0.00616787    0.00105932   -0.00373121

     Total force =     0.021976     Total SCF correction =     0.001251

     General routines

     Parallel routines

   This run was terminated on:  18: 7:50  10Nov2021

   JOB DONE.