     Program PWSCF v.6.4 starts on 10Nov2021 at 18: 5: 2

     R & G space division:  proc/nbgrp/npool/nimage =      40
     Waiting for input...
     Reading input from standard input
Warning: card    &IONS ignored
Warning: card      ION_DYNAMICS = 'BFGS' ignored
Warning: card   / ignored
Warning: card    &CELL ignored
Warning: card      CELL_DYNAMICS = 'BFGS', ignored
Warning: card    / ignored

     Current dimensions of program PWSCF are:
     Max number of different atomic species (ntypx) = 10
     Max number of k-points (npk) =  40000
     Max angular momentum in pseudopotentials (lmaxx) =  3

     bravais-lattice index     =            0
     lattice parameter (alat)  =       6.1531  a.u.
     unit-cell volume          =    1175.4201 (a.u.)^3
     number of atoms/cell      =            6
     number of atomic types    =            2
     number of electrons       =        36.00
     number of Kohn-Sham states=           22
     kinetic-energy cutoff     =      45.0000  Ry
     charge density cutoff     =     360.0000  Ry
     convergence threshold     =      1.0E-06
     mixing beta               =       0.7000
     number of iterations used =            8  local-TF  mixing
     Exchange-correlation      = SLA PW GGX GGC ( 1  4  2  2 0 0)

     celldm(1)=   6.153118  celldm(2)=   0.000000  celldm(3)=   0.000000
     celldm(4)=   0.000000  celldm(5)=   0.000000  celldm(6)=   0.000000

     crystal axes: (cart. coord. in units of alat)
               a(1) = (   1.000000   0.000000   0.000000 )
               a(2) = (  -0.515289   0.854111   0.000000 )
               a(3) = (   0.842594  -0.598107   5.907357 )

     reciprocal axes: (cart. coord. in units 2 pi/alat)
               b(1) = (  1.000000  0.603305 -0.081551 )
               b(2) = (  0.000000  1.170809  0.118542 )
               b(3) = (  0.000000  0.000000  0.169280 )

     PseudoPot. # 1 for Mo read from file:
     ~/pseudo/Mo.pw91-n-van.UPF
     MD5 check sum: Not computed, couldn't open file
     Pseudo is Ultrasoft + core correction, Zval =  6.0
     Generated by new atomic code, or converted to UPF format
     Using radial grid of  965 points,  3 beta functions with:
                l(1) =   1
                l(2) =   2
                l(3) =   2
     Q(r) pseudized with  8 coefficients,  rinner =    1.000   1.000   1.000
                                                       1.200   1.200

     PseudoPot. # 2 for S  read from file:
     ~/pseudo/S.pw91-van_ak.UPF
     MD5 check sum: Not computed, couldn't open file
     Pseudo is Ultrasoft, Zval =  6.0
     Generated by new atomic code, or converted to UPF format
     Using radial grid of  811 points,  6 beta functions with:
                l(1) =   0
                l(2) =   0
                l(3) =   1
                l(4) =   1
                l(5) =   2
                l(6) =   2
     Q(r) pseudized with  8 coefficients,  rinner =    1.100   1.100   1.100
                                                       1.100   1.100

     atomic species   valence    mass     pseudopotential
        Mo             6.00    95.50000     Mo( 1.00)
        S              6.00    32.06500     S ( 1.00)

     No symmetry found

   Cartesian axes

     site n.     atom                  positions (alat units)
         1           Mo  tau(   1) = (   1.4773661  -0.2757062   4.7245586  )
         2           Mo  tau(   2) = (  -0.1499812   0.5314024   1.1829544  )
         3           S   tau(   3) = (   0.9756013   0.0090020   4.2415665  )
         4           S   tau(   4) = (   0.3586106   0.2461643   0.6995164  )
         5           S   tau(   5) = (   0.9712140   0.0067241   5.2077816  )
         6           S   tau(   6) = (   0.3488879   0.2490409   1.6660926  )

     number of k points=    20  Marzari-Vanderbilt smearing, width (Ry)=  0.0200
                       cart. coord. in units 2pi/alat
        k(    1) = (   0.0000000   0.0000000   0.0000000), wk =   0.0555556
        k(    2) = (   0.0000000   0.1951348   0.0197570), wk =   0.1111111
        k(    3) = (   0.0000000   0.3902695   0.0395139), wk =   0.1111111
        k(    4) = (   0.0000000  -0.5854043  -0.0592709), wk =   0.0555556
        k(    5) = (   0.1666667   0.1005509  -0.0135919), wk =   0.1111111
        k(    6) = (   0.1666667   0.2956856   0.0061651), wk =   0.1111111
        k(    7) = (   0.1666667   0.4908204   0.0259220), wk =   0.1111111
        k(    8) = (   0.1666667  -0.4848534  -0.0728628), wk =   0.1111111
        k(    9) = (   0.1666667  -0.2897186  -0.0531058), wk =   0.1111111
        k(   10) = (   0.1666667  -0.0945839  -0.0333489), wk =   0.1111111
        k(   11) = (   0.3333333   0.2011017  -0.0271838), wk =   0.1111111
        k(   12) = (   0.3333333   0.3962365  -0.0074268), wk =   0.1111111
        k(   13) = (   0.3333333   0.5913712   0.0123301), wk =   0.1111111
        k(   14) = (   0.3333333  -0.3843025  -0.0864547), wk =   0.1111111
        k(   15) = (   0.3333333  -0.1891678  -0.0666977), wk =   0.1111111
        k(   16) = (   0.3333333   0.0059670  -0.0469408), wk =   0.1111111
        k(   17) = (  -0.5000000  -0.3016526   0.0407757), wk =   0.0555556
        k(   18) = (  -0.5000000  -0.1065179   0.0605327), wk =   0.1111111
        k(   19) = (  -0.5000000   0.0886169   0.0802896), wk =   0.1111111
        k(   20) = (  -0.5000000  -0.8870569  -0.0184952), wk =   0.0555556

     Initial potential from superposition of free atoms

     starting charge   35.99685, renormalised to   36.00000

     negative rho (up, down):  4.016E-06 0.000E+00
     Starting wfcs are   34 randomized atomic wfcs

     Self-consistent Calculation

     iteration #  1     ecut=    45.00 Ry     beta= 0.70
     Davidson diagonalization with overlap
     ethr =  1.00E-02,  avg # of iterations =  2.0

     negative rho (up, down):  1.181E-08 0.000E+00

     total energy              =    -140.69523256 Ry
     Harris-Foulkes estimate   =    -141.14559927 Ry
     estimated scf accuracy    <       1.15322348 Ry

[...]

     total energy              =    -140.92194201 Ry
     Harris-Foulkes estimate   =    -140.92194638 Ry
     estimated scf accuracy    <       0.00001785 Ry

     iteration # 12     ecut=    45.00 Ry     beta= 0.70
     Davidson diagonalization with overlap
     ethr =  4.96E-08,  avg # of iterations =  3.0

[...]

     End of self-consistent calculation

          k = 0.0000 0.0000 0.0000 (  6061 PWs)   bands (ev):

   -11.2016 -11.1954 -10.0003  -9.9903  -2.7042  -2.6486   0.0209   0.0235
     0.2490   0.2525   1.0019   1.1508   1.1963   1.2577   1.3069   1.3106
     2.7085   2.8487   5.3431   5.3497   5.4676   5.4695

[...]

          k = 0.3333 0.0060-0.0469 (  6006 PWs)   bands (ev):

[...]

          k =-0.5000-0.3017 0.0408 (  5954 PWs)   bands (ev):

[...]

          k =-0.5000-0.8871-0.0185 (  5964 PWs)   bands (ev):

    -9.5632  -9.5599  -9.2764  -9.2745  -2.8464  -2.8401  -1.8540  -1.8393
    -1.2368  -1.2287  -0.2138  -0.2109   0.8761   0.9254   1.8882   1.8917
     2.0362   2.0617   4.7095   4.7100   5.1895   5.1972

     the Fermi energy is     2.8416 ev

!    total energy              =    -140.92194524 Ry
     Harris-Foulkes estimate   =    -140.92194601 Ry
     estimated scf accuracy    <       0.00000094 Ry

     The total energy is the sum of the following terms:

     one-electron contribution =    -248.15502041 Ry
     hartree contribution      =     139.90744442 Ry
     xc contribution           =     -55.65629560 Ry
     ewald contribution        =      22.97838282 Ry
     smearing contrib. (-TS)   =       0.00354352 Ry

     convergence has been achieved in  12 iterations

     negative rho (up, down):  1.630E-05 0.000E+00

     Forces acting on atoms (cartesian axes, Ry/au):

     atom    1 type  1   force =    -0.00174024    0.00070841    0.00086948
     atom    2 type  1   force =     0.00098861   -0.00114656   -0.00059344
     atom    3 type  2   force =    -0.00175437   -0.00160473    0.00026865
     atom    4 type  2   force =    -0.00583918    0.00204110    0.00069842
     atom    5 type  2   force =     0.00346038    0.00094503   -0.00037675
     atom    6 type  2   force =     0.00488480   -0.00094326   -0.00086636

     Total force =     0.009482     Total SCF correction =     0.002213
     SCF correction compared to forces is large: reduce conv_thr to get better values

     General routines

     Parallel routines

   This run was terminated on:  18: 5:17  10Nov2021

   JOB DONE.