     Program PWSCF v.6.4 starts on 24Dec2021 at 21: 4: 2

     R & G space division:  proc/nbgrp/npool/nimage =      40
     Waiting for input...
     Reading input from standard input
Warning: card    &IONS ignored
Warning: card      ION_DYNAMICS = 'BFGS' ignored
Warning: card   / ignored
Warning: card    &CELL ignored
Warning: card      CELL_DYNAMICS = 'BFGS', ignored
Warning: card    / ignored

     Current dimensions of program PWSCF are:
     Max number of different atomic species (ntypx) = 10
     Max number of k-points (npk) =  40000
     Max angular momentum in pseudopotentials (lmaxx) =  3

     bravais-lattice index     =            0
     lattice parameter (alat)  =      18.2078  a.u.
     unit-cell volume          =    6302.4884 (a.u.)^3
     number of atoms/cell      =           42
     number of atomic types    =            2
     number of electrons       =       252.00
     number of Kohn-Sham states=          151
     kinetic-energy cutoff     =      45.0000  Ry
     charge density cutoff     =     360.0000  Ry
     convergence threshold     =      1.0E-06
     mixing beta               =       0.7000
     number of iterations used =            8  local-TF  mixing
     Exchange-correlation      = SLA PW GGX GGC ( 1  4  2  2 0 0)

     celldm(1)=  18.207830  celldm(2)=   0.000000  celldm(3)=   0.000000
     celldm(4)=   0.000000  celldm(5)=   0.000000  celldm(6)=   0.000000

     crystal axes: (cart. coord. in units of alat)
               a(1) = (   1.000000   0.000000   0.000000 )
               a(2) = (   0.042485   1.018202   0.000000 )
               a(3) = (  -0.007036   0.031986   1.025424 )

     reciprocal axes: (cart. coord. in units 2 pi/alat)
               b(1) = (  1.000000 -0.041725  0.008163 )
               b(2) = (  0.000000  0.982123 -0.030635 )
               b(3) = (  0.000000  0.000000  0.975206 )

     PseudoPot. # 1 for Mo read from file:
     ~/pseudo/Mo.pw91-n-van.UPF
     MD5 check sum: Not computed, couldn't open file
     Pseudo is Ultrasoft + core correction, Zval =  6.0
     Generated by new atomic code, or converted to UPF format
     Using radial grid of  965 points,  3 beta functions with:
                l(1) =   1
                l(2) =   2
                l(3) =   2
     Q(r) pseudized with  8 coefficients,  rinner =    1.000   1.000   1.000
                                                       1.200   1.200

     PseudoPot. # 2 for S  read from file:
     ~/pseudo/S.pw91-van_ak.UPF
     MD5 check sum: Not computed, couldn't open file
     Pseudo is Ultrasoft, Zval =  6.0
     Generated by new atomic code, or converted to UPF format
     Using radial grid of  811 points,  6 beta functions with:
                l(1) =   0
                l(2) =   0
                l(3) =   1
                l(4) =   1
                l(5) =   2
                l(6) =   2
     Q(r) pseudized with  8 coefficients,  rinner =    1.100   1.100   1.100
                                                       1.100   1.100

     atomic species   valence    mass     pseudopotential
        Mo             6.00    95.50000     Mo( 1.00)
        S              6.00    32.06500     S ( 1.00)

     No symmetry found

   Cartesian axes

     site n.     atom                  positions (alat units)
         1           Mo  tau(   1) = (   0.3707558   0.3705531   0.1485369  )
         2           Mo  tau(   2) = (   0.3653870   0.1765133   0.3715824  )
         3           Mo  tau(   3) = (   0.1468241   0.1790647   0.1518269  )
         4           Mo  tau(   4) = (   0.1563857   0.3869678   0.3683297  )
         5           Mo  tau(   5) = (   0.8630391   0.3750067   0.6616545  )
         6           Mo  tau(   6) = (   0.8707257   0.1728885   0.8860768  )
         7           Mo  tau(   7) = (   0.6485919   0.1675450   0.6697353  )
         8           Mo  tau(   8) = (   0.6509158   0.3786634   0.8793664  )
         9           Mo  tau(   9) = (   0.8992034   0.6574088   0.4017139  )
        10           Mo  tau(  10) = (   0.6268062   0.5897515   0.1031748  )
        11           Mo  tau(  11) = (   0.6676716   0.9088781   0.4358792  )
        12           Mo  tau(  12) = (   0.4493067   0.9346250   0.6310689  )
        13           Mo  tau(  13) = (   0.4220469   0.6403133   0.9071293  )
        14           Mo  tau(  14) = (   0.1323132   0.6044675   0.5804476  )
        15           S   tau(  15) = (   0.3849118   0.1151421   0.1294509  )
        16           S   tau(  16) = (   0.4052882   0.4225743   0.3935155  )
        17           S   tau(  17) = (   0.8955904   0.4012351   0.4035526  )
        18           S   tau(  18) = (   0.8974233   0.1328371   0.1200473  )
        19           S   tau(  19) = (   0.6212580   0.1411786   0.4086864  )
        20           S   tau(  20) = (   0.6299025   0.3537746   0.1153238  )
        21           S   tau(  21) = (   0.6462168   0.6680184   0.3616473  )
        22           S   tau(  22) = (   0.8965232   0.1284350   0.6393541  )
        23           S   tau(  23) = (   0.8987924   0.4215471   0.9038377  )
        24           S   tau(  24) = (   0.3911175   0.3983225   0.9111884  )
        25           S   tau(  25) = (   0.3902647   0.1593343   0.6321556  )
        26           S   tau(  26) = (   0.1303506   0.1909444   0.9184126  )
        27           S   tau(  27) = (   0.1265436   0.3741609   0.6284893  )
        28           S   tau(  28) = (   0.8659674   0.6598476   0.1426825  )
        29           S   tau(  29) = (   0.1240612   0.4163936   0.1197376  )
        30           S   tau(  30) = (   0.9106243   0.9051355   0.3949946  )
        31           S   tau(  31) = (   0.4208016   0.9283373   0.3883907  )
        32           S   tau(  32) = (   0.3875530   0.6300575   0.1178719  )
        33           S   tau(  33) = (   0.1429149   0.6467195   0.3505217  )
        34           S   tau(  34) = (   0.1216916   0.1342599   0.3924020  )
        35           S   tau(  35) = (   0.3595605   0.6838675   0.6548562  )
        36           S   tau(  36) = (   0.6171340   0.4181264   0.6303630  )
        37           S   tau(  37) = (   0.3748240   0.8879259   0.8686735  )
        38           S   tau(  38) = (   0.9560198   0.9321625   0.8868487  )
        39           S   tau(  39) = (   0.9024702   0.6365757   0.6477756  )
        40           S   tau(  40) = (   0.6531385   0.6401729   0.8916342  )
        41           S   tau(  41) = (   0.6807934   0.9220030   0.6710483  )
        42           S   tau(  42) = (   0.6264252   0.1285350   0.9178448  )

     number of k points=     8  Marzari-Vanderbilt smearing, width (Ry)=  0.0200
                       cart. coord. in units 2pi/alat
        k(    1) = (   0.0000000   0.0000000   0.0000000), wk =   0.2500000
        k(    2) = (   0.0000000   0.0000000  -0.4876032), wk =   0.2500000
        k(    3) = (   0.0000000  -0.4910616   0.0153174), wk =   0.2500000
        k(    4) = (   0.0000000  -0.4910616  -0.4722857), wk =   0.2500000
        k(    5) = (  -0.5000000   0.0208625  -0.0040816), wk =   0.2500000
        k(    6) = (  -0.5000000   0.0208625  -0.4916848), wk =   0.2500000
        k(    7) = (  -0.5000000  -0.4701991   0.0112358), wk =   0.2500000
        k(    8) = (  -0.5000000  -0.4701991  -0.4763673), wk =   0.2500000

     Initial potential from superposition of free atoms

     starting charge  251.97792, renormalised to  252.00000
     Starting wfcs are  238 randomized atomic wfcs

     Self-consistent Calculation

     iteration #  1     ecut=    45.00 Ry     beta= 0.70
     Davidson diagonalization with overlap
     ethr =  1.00E-02,  avg # of iterations =  2.0

     total energy              =    -983.19930216 Ry
     Harris-Foulkes estimate   =    -986.98717384 Ry
     estimated scf accuracy    <      10.55164384 Ry

[...]

     iteration #  8     ecut=    45.00 Ry     beta= 0.70
     Davidson diagonalization with overlap
     c_bands:  1 eigenvalues not converged
     ethr =  2.75E-06,  avg # of iterations =  7.9

[...]

     total energy              =    -985.16309018 Ry
     Harris-Foulkes estimate   =    -985.16309053 Ry
     estimated scf accuracy    <       0.00000154 Ry

     iteration # 16     ecut=    45.00 Ry     beta= 0.70
     Davidson diagonalization with overlap
     ethr =  6.10E-10,  avg # of iterations =  3.2

     End of self-consistent calculation

          k = 0.0000 0.0000 0.0000 ( 32145 PWs)   bands (ev):

    -8.3442  -7.8420  -7.8179  -7.6384  -7.5091  -7.4298  -7.2858  -7.2262
    -7.1511  -7.1065  -7.0729  -7.0177  -6.9690  -6.9159  -6.8820  -6.8403
    -6.8274  -6.8073  -6.7734  -6.6422  -6.4648  -6.3279  -6.1694  -5.9184
    -5.8229  -5.6822  -5.4301  -5.0689  -0.1857  -0.0884  -0.0314  -0.0091
     0.3459   0.3834   0.4256   0.4647   0.5543   0.7014   0.7872   0.8044
     0.8969   0.9347   0.9685   1.0825   1.1068   1.2063   1.2841   1.3040
     1.3522   1.4225   1.4381   1.4860   1.5271   1.5700   1.6495   1.7238
     1.7639   1.7958   1.8499   1.8769   1.9196   1.9488   2.0505   2.0951
     2.1230   2.1300   2.1744   2.2289   2.2685   2.3160   2.3478   2.3571
     2.4186   2.4543   2.5286   2.5823   2.6016   2.6302   2.6501   2.7142
     2.7717   2.7743   2.8783   2.9129   2.9744   3.0286   3.1152   3.1634
     3.2622   3.3011   3.4182   3.4458   3.5351   3.5577   3.5924   3.7027
     3.7535   3.8247   3.8931   3.9778   4.0188   4.1510   4.1770   4.2178
     4.3259   4.3662   4.4295   4.6268   4.6468   4.7151   4.8426   4.8754
     4.9356   4.9980   5.0699   5.1095   5.1713   5.2249   5.3183   5.3794
     5.4716   5.4953   5.6757   5.7466   5.7980   5.8087   5.8720   5.9514
     6.0751   6.1330   6.2317   6.3925   6.4963   6.5380   6.6780   6.7368
     6.8432   6.9015   7.0235   7.1710   7.2579   7.3317   7.4050   7.4210
     7.5001   7.5272   7.5686   7.7111   7.7803   7.7932   7.8669

[...]

          k = 0.0000-0.4911-0.4723 ( 32180 PWs)   bands (ev):

[...]

          k =-0.5000 0.0209-0.0041 ( 32116 PWs)   bands (ev):

[...]

          k =-0.5000-0.4702-0.4764 ( 32150 PWs)   bands (ev):

    -8.0931  -7.9856  -7.8647  -7.7527  -7.5205  -7.4093  -7.3462  -7.2987
    -7.2322  -7.1024  -7.0669  -6.9944  -6.9653  -6.9076  -6.8822  -6.8246
    -6.8110  -6.7669  -6.7306  -6.6073  -6.4550  -6.3448  -6.1288  -5.9289
    -5.7732  -5.6655  -5.4329  -5.0661   0.1465   0.1581   0.2324   0.2781
     0.4127   0.4676   0.5093   0.5808   0.6568   0.6780   0.7003   0.7419
     0.8270   0.8798   0.9148   0.9517   0.9870   1.0421   1.0696   1.1217
     1.1375   1.1946   1.2376   1.2640   1.3256   1.4011   1.4800   1.5363
     1.6181   1.7574   1.8017   1.8512   1.8903   1.9580   1.9816   2.0217
     2.0818   2.0976   2.1952   2.2242   2.2694   2.2977   2.3178   2.3602
     2.4517   2.4809   2.5135   2.5504   2.5627   2.6056   2.6642   2.7404
     2.7770   2.8573   2.9409   2.9438   3.0660   3.1463   3.1747   3.2681
     3.3287   3.3526   3.4436   3.5195   3.5582   3.6253   3.7717   3.8078
     3.8660   3.9069   3.9494   4.1006   4.1361   4.1863   4.2452   4.3341
     4.3414   4.4738   4.5183   4.5825   4.6260   4.7410   4.7479   4.9095
     4.9238   5.0041   5.0618   5.1665   5.2573   5.3203   5.3771   5.4414
     5.4949   5.6661   5.6907   5.7723   5.7924   5.8747   5.9255   5.9402
     6.0908   6.1281   6.2826   6.3190   6.3641   6.4532   6.5921   6.6221
     6.8085   6.8689   6.9353   7.0686   7.1373   7.1529   7.2676   7.4158
     7.6017   7.6189   7.6710   7.7200   7.7674   7.7944   7.8158

     the Fermi energy is     5.8975 ev

!    total energy              =    -985.16309012 Ry
     Harris-Foulkes estimate   =    -985.16309048 Ry
     estimated scf accuracy    <       0.00000044 Ry

     The total energy is the sum of the following terms:

     one-electron contribution =    -139.76967618 Ry
     hartree contribution      =     206.70414364 Ry
     xc contribution           =    -388.93428222 Ry
     ewald contribution        =    -663.15301252 Ry
     smearing contrib. (-TS)   =      -0.01026284 Ry

     convergence has been achieved in  16 iterations

     Forces acting on atoms (cartesian axes, Ry/au):

     atom    1 type  1   force =     0.02716107    0.01451286   -0.00323965
     atom    2 type  1   force =    -0.00236017   -0.00874987   -0.01142071
     atom    3 type  1   force =    -0.05723639    0.00574542   -0.06482096
     atom    4 type  1   force =    -0.01060652    0.00679457    0.01204855
     atom    5 type  1   force =     0.00094697    0.00072930   -0.01263146
     atom    6 type  1   force =     0.01160664   -0.07483806    0.02288593
     atom    7 type  1   force =     0.01082136   -0.01059810   -0.00739314
     atom    8 type  1   force =    -0.00986983    0.03059862   -0.00527766
     atom    9 type  1   force =    -0.01856673    0.04364829   -0.03661223
     atom   10 type  1   force =     0.02374680   -0.02622707    0.04687552
     atom   11 type  1   force =     0.01310931   -0.02882273   -0.03178950
     atom   12 type  1   force =    -0.03211900    0.02464320    0.03232418
     atom   13 type  1   force =    -0.02422359    0.01696411   -0.00304495
     atom   14 type  1   force =     0.02057827   -0.00155835    0.04240628
     atom   15 type  2   force =     0.00209973    0.01910922    0.00539335
     atom   16 type  2   force =    -0.00840028   -0.02200050   -0.01326725
     atom   17 type  2   force =    -0.01186449   -0.01278542   -0.02137848
     atom   18 type  2   force =     0.03405996    0.00122845    0.00280073
     atom   19 type  2   force =     0.01524073   -0.00278340   -0.01994523
     atom   20 type  2   force =     0.01278384   -0.00994422    0.01867288
     atom   21 type  2   force =    -0.01269281    0.01084566   -0.00920616
     atom   22 type  2   force =    -0.01497732    0.02473204   -0.00523817
     atom   23 type  2   force =    -0.01176010   -0.01703248   -0.00543491
     atom   24 type  2   force =    -0.02640779   -0.01958421   -0.01967320
     atom   25 type  2   force =    -0.02069338   -0.00049656    0.01952625
     atom   26 type  2   force =     0.00115056   -0.02267202    0.02906213
     atom   27 type  2   force =     0.01894047   -0.01035784    0.00698878
     atom   28 type  2   force =    -0.01948133   -0.00944977   -0.01401844
     atom   29 type  2   force =     0.00422878   -0.01123002    0.00836924
     atom   30 type  2   force =     0.01054944    0.00304708    0.00472981
     atom   31 type  2   force =    -0.00694613   -0.01973899   -0.01138251
     atom   32 type  2   force =    -0.02437539    0.03396084    0.03377295
     atom   33 type  2   force =     0.01790539    0.00734741   -0.03522547
     atom   34 type  2   force =    -0.00598302    0.00507827    0.00516167
     atom   35 type  2   force =    -0.04012265   -0.00949420   -0.02688564
     atom   36 type  2   force =     0.02471587   -0.03130869    0.02555460
     atom   37 type  2   force =     0.00385777   -0.00582273    0.00432933
     atom   38 type  2   force =    -0.00706772    0.05262362    0.00064817
     atom   39 type  2   force =    -0.01004232    0.02341340    0.03701426
     atom   40 type  2   force =     0.07377478    0.03134162   -0.03726636
     atom   41 type  2   force =     0.04780165   -0.02408700    0.04564149
     atom   42 type  2   force =     0.00071754    0.02321827   -0.00905403

     Total force =     0.266235     Total SCF correction =     0.001471

     General routines

     Parallel routines

   This run was terminated on:  21: 7: 5  24Dec2021

   JOB DONE.