     Program PWSCF v.6.4 starts on  2Sep2021 at 17: 3:45

     R & G space division:  proc/nbgrp/npool/nimage =      40
     Waiting for input...
     Reading input from standard input
Warning: card    &IONS ignored
Warning: card      ION_DYNAMICS = 'BFGS' ignored
Warning: card   / ignored
Warning: card    &CELL ignored
Warning: card      CELL_DYNAMICS = 'BFGS', ignored
Warning: card    / ignored

     Current dimensions of program PWSCF are:
     Max number of different atomic species (ntypx) = 10
     Max number of k-points (npk) =  40000
     Max angular momentum in pseudopotentials (lmaxx) =  3

     bravais-lattice index     =            0
     lattice parameter (alat)  =      12.1885  a.u.
     unit-cell volume          =    6377.6060 (a.u.)^3
     number of atoms/cell      =           36
     number of atomic types    =            2
     number of electrons       =       216.00
     number of Kohn-Sham states=          130
     kinetic-energy cutoff     =      45.0000  Ry
     charge density cutoff     =     360.0000  Ry
     convergence threshold     =      1.0E-06
     mixing beta               =       0.7000
     number of iterations used =            8  local-TF  mixing
     Exchange-correlation      = SLA PW GGX GGC ( 1  4  2  2 0 0)

     celldm(1)=  12.188516  celldm(2)=   0.000000  celldm(3)=   0.000000
     celldm(4)=   0.000000  celldm(5)=   0.000000  celldm(6)=   0.000000

     crystal axes: (cart. coord. in units of alat)
               a(1) = (   1.000000   0.000000   0.000000 )
               a(2) = (  -0.500587   0.866294   0.000000 )
               a(3) = (  -0.019354  -0.011150   4.065744 )

     reciprocal axes: (cart. coord. in units 2 pi/alat)
               b(1) = (  1.000000  0.577849  0.006345 )
               b(2) = (  0.000000  1.154343  0.003166 )
               b(3) = (  0.000000  0.000000  0.245957 )

     PseudoPot. # 1 for Mo read from file:
     ~/pseudo/Mo.pw91-n-van.UPF
     MD5 check sum: Not computed, couldn't open file
     Pseudo is Ultrasoft + core correction, Zval =  6.0
     Generated by new atomic code, or converted to UPF format
     Using radial grid of  965 points,  3 beta functions with:
                l(1) =   1
                l(2) =   2
                l(3) =   2
     Q(r) pseudized with  8 coefficients,  rinner =    1.000   1.000   1.000
                                                       1.200   1.200

     PseudoPot. # 2 for S  read from file:
     ~/pseudo/S.pw91-van_ak.UPF
     MD5 check sum: Not computed, couldn't open file
     Pseudo is Ultrasoft, Zval =  6.0
     Generated by new atomic code, or converted to UPF format
     Using radial grid of  811 points,  6 beta functions with:
                l(1) =   0
                l(2) =   0
                l(3) =   1
                l(4) =   1
                l(5) =   2
                l(6) =   2
     Q(r) pseudized with  8 coefficients,  rinner =    1.100   1.100   1.100
                                                       1.100   1.100

     atomic species   valence    mass     pseudopotential
        Mo             6.00    95.50000     Mo( 1.00)
        S              6.00    32.06500     S ( 1.00)

     No symmetry found

   Cartesian axes

     site n.     atom                  positions (alat units)
         1           Mo  tau(   1) = (  -0.2186404   0.6604203   2.5043587  )
         2           Mo  tau(   2) = (   0.0314391   0.2279671   2.5020979  )
         3           Mo  tau(   3) = (   0.5308591   0.2283639   2.5022643  )
         4           Mo  tau(   4) = (   0.2813689   0.6652133   2.5032024  )
         5           Mo  tau(   5) = (   0.5955263   0.0774491   1.2960192  )
         6           Mo  tau(   6) = (   0.3433945   0.5100143   1.2976577  )
         7           Mo  tau(   7) = (  -0.1548080   0.5061715   1.2951376  )
         8           Mo  tau(   8) = (   0.0922295   0.0738069   1.2972155  )
         9           Mo  tau(   9) = (   0.5986214   0.1196140   0.2707362  )
        10           Mo  tau(  10) = (   0.3520966   0.5558874   0.2677551  )
        11           Mo  tau(  11) = (  -0.1482518   0.5579326   0.2618237  )
        12           Mo  tau(  12) = (   0.1031852   0.1195553   0.2717477  )
        13           S   tau(  13) = (   0.3501665   0.2648994   0.0266626  )
        14           S   tau(  14) = (   0.1046476   0.7012652   0.0215140  )
        15           S   tau(  15) = (  -0.4004896   0.7016233   0.0216754  )
        16           S   tau(  16) = (  -0.1488450   0.2617363   0.0282302  )
        17           S   tau(  17) = (   0.0305660   0.8074404   2.7476125  )
        18           S   tau(  18) = (   0.2810642   0.3754651   2.7451696  )
        19           S   tau(  19) = (  -0.2186960   0.3704030   2.7467209  )
        20           S   tau(  20) = (  -0.4674247   0.8071459   2.7476177  )
        21           S   tau(  21) = (   0.0298359   0.8053476   2.2583832  )
        22           S   tau(  22) = (   0.2812731   0.3755960   2.2589007  )
        23           S   tau(  23) = (  -0.2186161   0.3720595   2.2578203  )
        24           S   tau(  24) = (  -0.4666290   0.8050450   2.2580679  )
        25           S   tau(  25) = (   0.0926077   0.6548332   1.5400751  )
        26           S   tau(  26) = (   0.3433512   0.2196775   1.5393563  )
        27           S   tau(  27) = (   0.8448142   0.2193722   1.5420618  )
        28           S   tau(  28) = (   0.5962694   0.6503462   1.5405841  )
        29           S   tau(  29) = (   0.0942655   0.6555537   1.0513243  )
        30           S   tau(  30) = (   0.3422006   0.2209176   1.0532079  )
        31           S   tau(  31) = (   0.8454463   0.2184787   1.0488589  )
        32           S   tau(  32) = (   0.5938548   0.6521260   1.0515548  )
        33           S   tau(  33) = (   0.3512051   0.2685910   0.5160588  )
        34           S   tau(  34) = (   0.1000832   0.6963070   0.5135247  )
        35           S   tau(  35) = (  -0.3954273   0.6955635   0.5139899  )
        36           S   tau(  36) = (  -0.1494417   0.2704657   0.5104752  )

     number of k points=     5  Marzari-Vanderbilt smearing, width (Ry)=  0.0200
                       cart. coord. in units 2pi/alat
        k(    1) = (   0.0000000   0.0000000   0.0000000), wk =   0.2222222
        k(    2) = (   0.0000000   0.3847810   0.0010552), wk =   0.4444444
        k(    3) = (   0.3333333   0.1926163   0.0021150), wk =   0.4444444
        k(    4) = (   0.3333333   0.5773973   0.0031702), wk =   0.4444444
        k(    5) = (   0.3333333  -0.1921647   0.0010597), wk =   0.4444444

     Initial potential from superposition of free atoms

     starting charge  215.98107, renormalised to  216.00000

     negative rho (up, down):  3.883E-05 0.000E+00
     Starting wfcs are  204 randomized atomic wfcs

     Self-consistent Calculation

     iteration #  1     ecut=    45.00 Ry     beta= 0.70
     Davidson diagonalization with overlap
     ethr =  1.00E-02,  avg # of iterations =  2.0

     negative rho (up, down):  2.167E-07 0.000E+00

     total energy              =    -844.20661502 Ry
     Harris-Foulkes estimate   =    -846.85480210 Ry
     estimated scf accuracy    <       6.77040209 Ry

[...]

     total energy              =    -845.52537141 Ry
     Harris-Foulkes estimate   =    -845.52537175 Ry
     estimated scf accuracy    <       0.00000281 Ry

     iteration # 16     ecut=    45.00 Ry     beta= 0.70
     Davidson diagonalization with overlap
     ethr =  1.30E-09,  avg # of iterations =  3.0

[...]

     End of self-consistent calculation

          k = 0.0000 0.0000 0.0000 ( 32413 PWs)   bands (ev):

   -10.3569 -10.2943 -10.2402  -9.1837  -9.0813  -9.0382  -8.6521  -8.6452
    -8.6402  -8.5944  -8.5876  -8.5807  -8.5359  -8.5293  -8.5279  -8.3746
    -8.3689  -8.3638  -8.3075  -8.2988  -8.2840  -8.2585  -8.2527  -8.2361
    -1.9896  -1.9879  -1.9852  -1.9733  -1.9193  -1.9179  -1.9146  -1.8680
    -1.8659  -1.8641  -1.7229  -1.6535  -1.0825  -1.0699  -1.0669  -0.9621
    -0.9581  -0.9534  -0.9243  -0.9156  -0.9114  -0.4531  -0.4525  -0.4473
    -0.2561  -0.2511  -0.2469  -0.2319  -0.2277  -0.2161   0.5313   0.5384
     0.5426   0.5474   0.5567   0.5572   0.6169   0.6248   0.6304   1.0514
     1.0571   1.0586   1.0638   1.1240   1.1289   1.5508   1.5584   1.5912
     1.5956   1.8882   1.9002   1.9341   1.9996   2.0197   2.0533   2.0708
     2.1543   2.1601   2.1706   2.1759   2.2323   2.2496   2.3900   2.6297
     2.6413   2.6566   2.6910   2.7127   2.7354   2.7485   2.7558   2.7828
     2.9194   2.9243   2.9315   3.0848   3.0898   3.0954   3.1190   3.1262
     3.1317   3.4832   3.7433   3.9437   5.6002   5.6190   5.6326   5.6498
     5.6648   5.6657   5.7014   5.7219   5.7244   6.1058   6.1129   6.1180
     6.1822   6.1824   6.1850   6.2364   6.2392   6.2426   6.2912   6.2964
     6.3426   6.3478

[...]

          k = 0.3333-0.1922 0.0011 ( 32486 PWs)   bands (ev):

    -9.9977  -9.9352  -9.8805  -9.1608  -9.1029  -9.0432  -9.0050  -8.9131
    -8.8680  -8.6699  -8.6640  -8.6216  -8.6081  -8.5910  -8.5600  -8.5447
    -8.5266  -8.4791  -8.3565  -8.3504  -8.2868  -8.2806  -8.2479  -8.2210
    -1.5799  -1.5445  -1.5420  -1.4915  -1.4735  -1.4684  -1.4333  -1.4087
    -1.3853  -1.3494  -1.3280  -1.2639  -1.1138  -1.1099  -1.0559  -1.0536
    -1.0022  -0.9982  -0.5078  -0.3496  -0.3101  -0.2905  -0.2636  -0.2596
    -0.1136  -0.0752  -0.0444  -0.0284  -0.0128  -0.0051   0.3238   0.3541
     0.4143   0.4431   0.4525   0.5751   0.5815   0.5897   0.6180   0.7251
     0.8550   0.8679   0.9320   0.9494   0.9911   1.2765   1.2898   1.3791
     1.3879   1.4011   1.4514   1.4553   1.4628   1.5284   1.6320   1.6429
     1.7207   1.7725   1.7833   1.8248   2.0319   2.0437   2.1354   2.1379
     2.1553   2.2677   2.2825   2.2957   2.3607   2.3612   2.6496   2.6723
     2.7753   2.7825   2.8286   3.0929   3.0976   3.1962   3.2072   3.2090
     3.2413   3.2660   3.4357   3.5133   5.5904   5.6109   5.6576   5.6773
     5.6956   5.7030   5.7458   5.7478   5.7617   5.7740   5.7854   5.9019
     5.9256   5.9926   5.9974   6.0637   6.0841   6.0930   6.1347   6.1787
     6.1981   6.2061

     the Fermi energy is     3.8216 ev

!    total energy              =    -845.52537146 Ry
     Harris-Foulkes estimate   =    -845.52537179 Ry
     estimated scf accuracy    <       0.00000057 Ry

     The total energy is the sum of the following terms:

     one-electron contribution =   -1721.09658958 Ry
     hartree contribution      =     962.85563267 Ry
     xc contribution           =    -334.05892898 Ry
     ewald contribution        =     246.75615678 Ry
     smearing contrib. (-TS)   =       0.01835764 Ry

     convergence has been achieved in  16 iterations

     negative rho (up, down):  1.082E-04 0.000E+00

     Forces acting on atoms (cartesian axes, Ry/au):

     atom    1 type  1   force =     0.00096255    0.00098740   -0.00591094
     atom    2 type  1   force =     0.00422813    0.00441398   -0.00139124
     atom    3 type  1   force =    -0.00111410    0.00317523   -0.00185867
     atom    4 type  1   force =     0.00070291   -0.00915955   -0.00273154
     atom    5 type  1   force =    -0.00843402   -0.00436837   -0.00298481
     atom    6 type  1   force =     0.00061883   -0.00434518   -0.00765706
     atom    7 type  1   force =    -0.00215580    0.00949016   -0.00242893
     atom    8 type  1   force =     0.01028914    0.00128896   -0.00555341
     atom    9 type  1   force =     0.01200752    0.00991897    0.00231845
     atom   10 type  1   force =    -0.00129502   -0.00462392    0.00863458
     atom   11 type  1   force =     0.00129296   -0.01464183    0.02016361
     atom   12 type  1   force =    -0.00947215    0.00927326    0.00000504
     atom   13 type  2   force =     0.00128973    0.00064274   -0.00335886
     atom   14 type  2   force =    -0.00439712   -0.00114466   -0.00039435
     atom   15 type  2   force =     0.00266450   -0.00122471   -0.00021736
     atom   16 type  2   force =     0.00019743    0.00411722   -0.00921889
     atom   17 type  2   force =     0.00003966   -0.00110004    0.00151172
     atom   18 type  2   force =     0.00005378   -0.00241681    0.00330539
     atom   19 type  2   force =    -0.00008550    0.00226941    0.00197245
     atom   20 type  2   force =    -0.00172140   -0.00084537    0.00170826
     atom   21 type  2   force =     0.00071866    0.00189065    0.00093934
     atom   22 type  2   force =    -0.00044463   -0.00148680   -0.00018421
     atom   23 type  2   force =    -0.00047728    0.00057692    0.00195556
     atom   24 type  2   force =    -0.00218415    0.00198021    0.00146795
     atom   25 type  2   force =     0.00176624   -0.00163453    0.00046466
     atom   26 type  2   force =     0.00025326    0.00066574    0.00386948
     atom   27 type  2   force =    -0.00088059    0.00019654   -0.00173276
     atom   28 type  2   force =    -0.00304948    0.00205157    0.00094531
     atom   29 type  2   force =     0.00044286   -0.00440603    0.00865659
     atom   30 type  2   force =     0.00140686   -0.00136052    0.00751188
     atom   31 type  2   force =    -0.00155853   -0.00017493    0.01196964
     atom   32 type  2   force =    -0.00012790   -0.00210098    0.00960061
     atom   33 type  2   force =     0.00024857   -0.00306440   -0.01039282
     atom   34 type  2   force =     0.00078357    0.00430992   -0.01256231
     atom   35 type  2   force =    -0.00317950    0.00566767   -0.01242816
     atom   36 type  2   force =     0.00060999   -0.00481795   -0.00599420

     Total force =     0.054162     Total SCF correction =     0.002276

     General routines

     Parallel routines

   This run was terminated on:  17: 5:49   2Sep2021

   JOB DONE.