     Program PWSCF v.6.4 starts on 24Dec2021 at  0:58:10

     R & G space division:  proc/nbgrp/npool/nimage =      40
     Waiting for input...
     Reading input from standard input
Warning: card    &IONS ignored
Warning: card      ION_DYNAMICS = 'BFGS' ignored
Warning: card   / ignored
Warning: card    &CELL ignored
Warning: card      CELL_DYNAMICS = 'BFGS', ignored
Warning: card    / ignored

     Current dimensions of program PWSCF are:
     Max number of different atomic species (ntypx) = 10
     Max number of k-points (npk) =  40000
     Max angular momentum in pseudopotentials (lmaxx) =  3

     bravais-lattice index     =            0
     lattice parameter (alat)  =      13.5066  a.u.
     unit-cell volume          =    5592.1767 (a.u.)^3
     number of atoms/cell      =           36
     number of atomic types    =            2
     number of electrons       =       216.00
     number of Kohn-Sham states=          130
     kinetic-energy cutoff     =      45.0000  Ry
     charge density cutoff     =     360.0000  Ry
     convergence threshold     =      1.0E-06
     mixing beta               =       0.7000
     number of iterations used =            8  local-TF  mixing
     Exchange-correlation      = SLA PW GGX GGC ( 1  4  2  2 0 0)

     celldm(1)=  13.506551  celldm(2)=   0.000000  celldm(3)=   0.000000
     celldm(4)=   0.000000  celldm(5)=   0.000000  celldm(6)=   0.000000

     crystal axes: (cart. coord. in units of alat)
               a(1) = (   1.000000   0.000000   0.000000 )
               a(2) = (   0.122395   1.150973   0.000000 )
               a(3) = (   0.547599   0.294731   1.971889 )

     reciprocal axes: (cart. coord. in units 2 pi/alat)
               b(1) = (  1.000000 -0.106341 -0.261808 )
               b(2) = (  0.000000  0.868830 -0.129861 )
               b(3) = (  0.000000  0.000000  0.507128 )

     PseudoPot. # 1 for Mo read from file:
     ~/pseudo/Mo.pw91-n-van.UPF
     MD5 check sum: Not computed, couldn't open file
     Pseudo is Ultrasoft + core correction, Zval =  6.0
     Generated by new atomic code, or converted to UPF format
     Using radial grid of  965 points,  3 beta functions with:
                l(1) =   1
                l(2) =   2
                l(3) =   2
     Q(r) pseudized with  8 coefficients,  rinner =    1.000   1.000   1.000
                                                       1.200   1.200

     PseudoPot. # 2 for S  read from file:
     ~/pseudo/S.pw91-van_ak.UPF
     MD5 check sum: Not computed, couldn't open file
     Pseudo is Ultrasoft, Zval =  6.0
     Generated by new atomic code, or converted to UPF format
     Using radial grid of  811 points,  6 beta functions with:
                l(1) =   0
                l(2) =   0
                l(3) =   1
                l(4) =   1
                l(5) =   2
                l(6) =   2
     Q(r) pseudized with  8 coefficients,  rinner =    1.100   1.100   1.100
                                                       1.100   1.100

     atomic species   valence    mass     pseudopotential
        Mo             6.00    95.50000     Mo( 1.00)
        S              6.00    32.06500     S ( 1.00)

     No symmetry found

   Cartesian axes

     site n.     atom                  positions (alat units)
         1           Mo  tau(   1) = (   0.5688544   0.7081554   1.2988095  )
         2           Mo  tau(   2) = (   1.0368436   1.2655944   1.8539913  )
         3           Mo  tau(   3) = (   0.7118154   0.6572044   0.0550837  )
         4           Mo  tau(   4) = (   0.5427579   0.2397840   0.6400986  )
         5           Mo  tau(   5) = (   0.5148848   0.8761690   0.9378583  )
         6           Mo  tau(   6) = (   0.5758784   0.4937035   0.9560771  )
         7           Mo  tau(   7) = (   0.1115034   0.5909988   0.1030244  )
         8           Mo  tau(   8) = (   1.1720842   1.2146137   0.9162281  )
         9           Mo  tau(   9) = (   0.8808001   0.5058436   1.7931303  )
        10           Mo  tau(  10) = (   1.5251123   0.8330386   1.7033474  )
        11           Mo  tau(  11) = (   0.4341213   0.0697446   0.1748080  )
        12           Mo  tau(  12) = (   0.7732838   1.2530113   1.0184628  )
        13           S   tau(  13) = (   0.7282198   1.0616570   0.7393217  )
        14           S   tau(  14) = (   1.2517742   0.9607920   0.7371258  )
        15           S   tau(  15) = (   1.4329808   0.6683537   1.9700565  )
        16           S   tau(  16) = (   1.2724626   1.0605567   1.7165448  )
        17           S   tau(  17) = (   0.5576466   1.0451274   1.2206211  )
        18           S   tau(  18) = (   0.7398167   1.0820754   1.8166639  )
        19           S   tau(  19) = (   0.7042371   0.1394411   0.3612471  )
        20           S   tau(  20) = (   0.2546160   0.1883851   0.4479866  )
        21           S   tau(  21) = (   0.8466560   0.3015412   0.8077457  )
        22           S   tau(  22) = (   0.8130386   0.7181424   1.0442721  )
        23           S   tau(  23) = (   1.1051497   0.4352426   0.4108027  )
        24           S   tau(  24) = (   1.3206065   0.6439453   1.5170844  )
        25           S   tau(  25) = (   0.5102083   0.8924128   0.2130133  )
        26           S   tau(  26) = (   0.5183511   0.5794489   0.6294238  )
        27           S   tau(  27) = (   0.5866835   0.3464808   1.2656493  )
        28           S   tau(  28) = (   0.3282978   0.2366428   0.9164777  )
        29           S   tau(  29) = (   1.1719460   0.3537747   1.8628307  )
        30           S   tau(  30) = (   0.4236829   0.4497634   0.0627404  )
        31           S   tau(  31) = (   1.2919237   0.6537671   1.0722703  )
        32           S   tau(  32) = (   0.8907678   0.2794735   1.5451759  )
        33           S   tau(  33) = (   1.0365769   1.1256021   1.1876140  )
        34           S   tau(  34) = (   0.8075361   0.7377793   1.5480902  )
        35           S   tau(  35) = (   0.9197559   0.7715161   0.3013359  )
        36           S   tau(  36) = (   0.1240365   0.0468939   0.0167479  )

     number of k points=     8  Marzari-Vanderbilt smearing, width (Ry)=  0.0200
                       cart. coord. in units 2pi/alat
        k(    1) = (   0.0000000   0.0000000   0.0000000), wk =   0.1666667
        k(    2) = (   0.0000000   0.0000000  -0.2535640), wk =   0.1666667
        k(    3) = (   0.0000000  -0.4344151   0.0649304), wk =   0.1666667
        k(    4) = (   0.0000000  -0.4344151  -0.1886336), wk =   0.1666667
        k(    5) = (   0.3333333  -0.0354468  -0.0872694), wk =   0.3333333
        k(    6) = (   0.3333333  -0.0354468  -0.3408334), wk =   0.3333333
        k(    7) = (   0.3333333  -0.4698619  -0.0223390), wk =   0.3333333
        k(    8) = (   0.3333333  -0.4698619  -0.2759030), wk =   0.3333333

     Initial potential from superposition of free atoms

     starting charge  215.98107, renormalised to  216.00000
     Starting wfcs are  204 randomized atomic wfcs

     Self-consistent Calculation

     iteration #  1     ecut=    45.00 Ry     beta= 0.70
     Davidson diagonalization with overlap
     ethr =  1.00E-02,  avg # of iterations =  2.0

     total energy              =    -842.64885742 Ry
     Harris-Foulkes estimate   =    -845.68558360 Ry
     estimated scf accuracy    <       7.98919282 Ry

[...]

     total energy              =    -844.21711518 Ry
     Harris-Foulkes estimate   =    -844.21711541 Ry
     estimated scf accuracy    <       0.00000308 Ry

     iteration # 15     ecut=    45.00 Ry     beta= 0.70
     Davidson diagonalization with overlap
     ethr =  1.43E-09,  avg # of iterations =  1.0

     End of self-consistent calculation

          k = 0.0000 0.0000 0.0000 ( 28553 PWs)   bands (ev):

    -9.2484  -8.4117  -8.3209  -7.7544  -7.6897  -7.5772  -7.4986  -7.3784
    -7.3752  -7.3016  -7.2069  -7.1635  -7.0884  -7.0032  -6.9845  -6.9653
    -6.8747  -6.8329  -6.7332  -6.6106  -6.5449  -6.4844  -6.3227  -5.3704
    -0.5031  -0.3369  -0.1869  -0.0629  -0.0397   0.1325   0.1684   0.3191
     0.3407   0.4306   0.4845   0.5958   0.6707   0.7096   0.7669   0.8252
     0.9335   0.9778   1.0016   1.0391   1.0966   1.2104   1.2974   1.3565
     1.3925   1.5106   1.5707   1.5815   1.6199   1.6641   1.7335   1.7524
     1.8208   1.8383   1.8732   1.9349   1.9475   1.9945   2.0571   2.1002
     2.1875   2.2437   2.3607   2.3770   2.4574   2.5089   2.5850   2.6283
     2.6914   2.8747   2.9106   3.0020   3.0365   3.1186   3.2499   3.2566
     3.3761   3.4421   3.4952   3.5621   3.5937   3.6176   3.7455   3.8791
     3.9426   3.9752   4.0044   4.1703   4.2309   4.2709   4.4293   4.4606
     4.4889   4.5576   4.6706   4.7364   4.9673   5.0444   5.0532   5.2649
     5.3597   5.4376   5.5563   5.6599   5.7404   5.7836   5.8785   5.8817
     5.9571   6.0238   6.1261   6.1506   6.1976   6.2931   6.3654   6.4430
     6.4924   6.6946   6.8603   6.8884   6.9490   7.0060   7.0640   7.2417
     7.2855   7.3020

[...]

          k = 0.3333-0.4699-0.2759 ( 28496 PWs)   bands (ev):

    -9.2197  -8.1999  -8.1047  -7.9119  -7.7924  -7.7501  -7.6146  -7.5504
    -7.3348  -7.2708  -7.2166  -7.1960  -7.1400  -7.0163  -6.9475  -6.9016
    -6.8587  -6.8130  -6.7194  -6.5744  -6.5398  -6.4704  -6.3120  -5.3526
    -0.3663  -0.2714  -0.1241   0.0299   0.1115   0.1823   0.2171   0.2902
     0.4000   0.4631   0.5171   0.6142   0.6813   0.7116   0.7307   0.8287
     0.9212   0.9652   1.0242   1.0736   1.1237   1.1779   1.2599   1.3337
     1.3779   1.4211   1.4875   1.5392   1.5678   1.6312   1.6717   1.7517
     1.8019   1.8522   1.9374   1.9720   2.0250   2.0446   2.1098   2.1333
     2.1889   2.2769   2.3091   2.3978   2.4358   2.5273   2.5706   2.6805
     2.7400   2.7972   2.8191   2.8681   2.9548   3.1013   3.1303   3.2314
     3.2763   3.3415   3.4147   3.5089   3.5931   3.6277   3.6965   3.7816
     3.9094   3.9575   4.0962   4.1125   4.1813   4.2537   4.3816   4.4330
     4.5617   4.6269   4.6579   4.8000   4.8523   5.0120   5.0267   5.2306
     5.3072   5.4062   5.5724   5.5976   5.6445   5.7097   5.7759   5.8407
     5.9868   6.0476   6.0830   6.1728   6.2266   6.2810   6.4115   6.4798
     6.5670   6.6675   6.7694   6.8435   6.9741   7.0443   7.0925   7.1946
     7.2627   7.3897

     the Fermi energy is     5.6535 ev

!    total energy              =    -844.21711455 Ry
     Harris-Foulkes estimate   =    -844.21711526 Ry
     estimated scf accuracy    <       0.00000081 Ry

     The total energy is the sum of the following terms:

     one-electron contribution =     -91.75629100 Ry
     hartree contribution      =     160.06738649 Ry
     xc contribution           =    -332.79652581 Ry
     ewald contribution        =    -579.72320407 Ry
     smearing contrib. (-TS)   =      -0.00848015 Ry

     convergence has been achieved in  15 iterations

     Forces acting on atoms (cartesian axes, Ry/au):

     atom    1 type  1   force =    -0.02963849   -0.00035431   -0.02958076
     atom    2 type  1   force =    -0.00549782    0.04959268   -0.01703230
     atom    3 type  1   force =     0.01780615    0.03393950   -0.00326562
     atom    4 type  1   force =     0.02096113   -0.00989971   -0.00045295
     atom    5 type  1   force =     0.03032398    0.00868951    0.03659068
     atom    6 type  1   force =    -0.01723183    0.00559920   -0.01145653
     atom    7 type  1   force =    -0.02057322   -0.00570704    0.01794310
     atom    8 type  1   force =     0.01298894   -0.02318084   -0.02246323
     atom    9 type  1   force =    -0.00371377   -0.02800923   -0.04523139
     atom   10 type  1   force =    -0.02656302    0.00117262   -0.02076027
     atom   11 type  1   force =     0.01709521    0.01031085   -0.00212275
     atom   12 type  1   force =    -0.02232506   -0.00226704   -0.00060795
     atom   13 type  2   force =    -0.01481244   -0.00441974    0.00219573
     atom   14 type  2   force =    -0.01778730    0.03421931    0.01416339
     atom   15 type  2   force =     0.00685554   -0.00759820    0.01132713
     atom   16 type  2   force =     0.00043423   -0.00428813    0.01846859
     atom   17 type  2   force =    -0.01321028   -0.01171276    0.00729307
     atom   18 type  2   force =     0.01020307   -0.00903324    0.02058117
     atom   19 type  2   force =    -0.01303983    0.00780826    0.00841764
     atom   20 type  2   force =     0.01575117    0.00288113    0.00158408
     atom   21 type  2   force =    -0.00157493   -0.00694374   -0.01177841
     atom   22 type  2   force =    -0.01968691   -0.00508918   -0.00647973
     atom   23 type  2   force =     0.00214922    0.00994794   -0.00107716
     atom   24 type  2   force =     0.02553852    0.02110794    0.00587521
     atom   25 type  2   force =    -0.01385590   -0.01927168    0.00815048
     atom   26 type  2   force =     0.00021809   -0.01248726    0.02757950
     atom   27 type  2   force =     0.02398884    0.00423009    0.00349050
     atom   28 type  2   force =     0.00754411   -0.02323371   -0.00253732
     atom   29 type  2   force =    -0.00942970   -0.00620157    0.02768229
     atom   30 type  2   force =     0.03040490   -0.01978443   -0.00027375
     atom   31 type  2   force =     0.04588364    0.01585127    0.00325595
     atom   32 type  2   force =    -0.02099070    0.01683787    0.03373839
     atom   33 type  2   force =    -0.01460091   -0.00591766   -0.00957600
     atom   34 type  2   force =    -0.01222581   -0.00693102   -0.00121843
     atom   35 type  2   force =    -0.00975827   -0.00650790   -0.04655469
     atom   36 type  2   force =     0.01836944   -0.00334978   -0.01586768

     Total force =     0.186551     Total SCF correction =     0.002092

     General routines

     Parallel routines

   This run was terminated on:   1: 0:20  24Dec2021

   JOB DONE.