     Program PWSCF v.6.4.1 starts on  2Aug2021 at 16:40:21

     R & G space division:  proc/nbgrp/npool/nimage =      20
     Waiting for input...
     Reading input from standard input
Warning: card    &IONS ignored
Warning: card      ION_DYNAMICS = 'BFGS' ignored
Warning: card   / ignored
Warning: card    &CELL ignored
Warning: card      CELL_DYNAMICS = 'BFGS', ignored
Warning: card    / ignored

     Current dimensions of program PWSCF are:
     Max number of different atomic species (ntypx) = 10
     Max number of k-points (npk) =  40000
     Max angular momentum in pseudopotentials (lmaxx) =  3

     Subspace diagonalization in iterative solution of the eigenvalue problem:
     a serial algorithm will be used

     bravais-lattice index     =            0
     lattice parameter (alat)  =      11.4548  a.u.
     unit-cell volume          =    3035.2831 (a.u.)^3
     number of atoms/cell      =           24
     number of atomic types    =            2
     number of electrons       =       144.00
     number of Kohn-Sham states=           86
     kinetic-energy cutoff     =      45.0000  Ry
     charge density cutoff     =     360.0000  Ry
     convergence threshold     =      1.0E-06
     mixing beta               =       0.7000
     number of iterations used =            8  local-TF  mixing
     Exchange-correlation      = SLA PW GGX GGC ( 1  4  2  2 0 0)

     celldm(1)=  11.454765  celldm(2)=   0.000000  celldm(3)=   0.000000
     celldm(4)=   0.000000  celldm(5)=   0.000000  celldm(6)=   0.000000

     crystal axes: (cart. coord. in units of alat)
               a(1) = (   1.000000   0.000000   0.000000 )
               a(2) = (  -0.250000   0.433013   0.000000 )
               a(3) = (   0.000000   0.000000   4.663803 )

     reciprocal axes: (cart. coord. in units 2 pi/alat)
               b(1) = (  1.000000  0.577350 -0.000000 )
               b(2) = (  0.000000  2.309402  0.000000 )
               b(3) = (  0.000000 -0.000000  0.214417 )

     PseudoPot. # 1 for Mo read from file:
     /home/kkety/pseudo/Mo.pw91-n-van.UPF
     MD5 check sum: 875977911cf57e7168990cb144db214a
     Pseudo is Ultrasoft + core correction, Zval =  6.0
     Generated by new atomic code, or converted to UPF format
     Using radial grid of  965 points,  3 beta functions with:
                l(1) =   1
                l(2) =   2
                l(3) =   2
     Q(r) pseudized with  8 coefficients,  rinner =    1.000   1.000   1.000
                                                       1.200   1.200

     PseudoPot. # 2 for S  read from file:
     /home/kkety/pseudo/S.pw91-van_ak.UPF
     MD5 check sum: 708c80e9edb6b1bde406d41998b2c042
     Pseudo is Ultrasoft, Zval =  6.0
     Generated by new atomic code, or converted to UPF format
     Using radial grid of  811 points,  6 beta functions with:
                l(1) =   0
                l(2) =   0
                l(3) =   1
                l(4) =   1
                l(5) =   2
                l(6) =   2
     Q(r) pseudized with  8 coefficients,  rinner =    1.100   1.100   1.100
                                                       1.100   1.100

     atomic species   valence    mass     pseudopotential
        Mo             6.00    95.50000     Mo( 1.00)
        S              6.00    32.06500     S ( 1.00)

     No symmetry found

   Cartesian axes

     site n.     atom                  positions (alat units)
         1           Mo  tau(   1) = (   0.0053010   0.2967112   0.5963723  )
         2           Mo  tau(   2) = (  -0.0073979   0.2834321   2.9010946  )
         3           Mo  tau(   3) = (   0.4987438   0.2902383   0.5666003  )
         4           Mo  tau(   4) = (   0.4950280   0.2752265   2.9230360  )
         5           Mo  tau(   5) = (   0.2501806   0.1467653   1.7652426  )
         6           Mo  tau(   6) = (   0.2382666   0.1519874   4.0895428  )
         7           Mo  tau(   7) = (   0.7361800   0.1379634   1.7425593  )
         8           Mo  tau(   8) = (   0.7400161   0.1372660   4.0697605  )
         9           S   tau(   9) = (   0.2537867   0.1476604   0.8125214  )
        10           S   tau(  10) = (   0.2427599   0.1586330   3.1640528  )
        11           S   tau(  11) = (   0.7605388   0.1566475   0.8313228  )
        12           S   tau(  12) = (   0.7420379   0.1488072   3.1738718  )
        13           S   tau(  13) = (  -0.0038833   0.2903537   1.9782356  )
        14           S   tau(  14) = (   0.0024672   0.2873428   4.3423399  )
        15           S   tau(  15) = (   0.4973447   0.3000179   1.9825000  )
        16           S   tau(  16) = (   0.4895411   0.2770998   4.3314480  )
        17           S   tau(  17) = (   0.2557486   0.1439649   0.3531789  )
        18           S   tau(  18) = (   0.2372278   0.1425004   2.6798999  )
        19           S   tau(  19) = (   0.7589290   0.1377546   0.3255091  )
        20           S   tau(  20) = (   0.7467408   0.1283737   2.6722090  )
        21           S   tau(  21) = (  -0.0163652   0.2868061   1.5027459  )
        22           S   tau(  22) = (  -0.0010404   0.2900262   3.8191629  )
        23           S   tau(  23) = (   0.5125707   0.2805507   1.5106077  )
        24           S   tau(  24) = (   0.4865479   0.2950837   3.8426529  )

     number of k points=    10  Marzari-Vanderbilt smearing, width (Ry)=  0.0200
                       cart. coord. in units 2pi/alat
        k(    1) = (   0.0000000   0.0000000   0.0000000), wk =   0.1111111
        k(    2) = (   0.0000000   0.3849003   0.0000000), wk =   0.2222222
        k(    3) = (   0.0000000   0.7698006   0.0000000), wk =   0.2222222
        k(    4) = (   0.0000000  -1.1547008   0.0000000), wk =   0.1111111
        k(    5) = (   0.3333333   0.1924501   0.0000000), wk =   0.2222222
        k(    6) = (   0.3333333   0.5773504   0.0000000), wk =   0.2222222
        k(    7) = (   0.3333333  -0.9622507   0.0000000), wk =   0.2222222
        k(    8) = (   0.3333333  -0.5773504   0.0000000), wk =   0.2222222
        k(    9) = (   0.3333333  -0.1924501   0.0000000), wk =   0.2222222
        k(   10) = (   0.6666667  -0.3849003   0.0000000), wk =   0.2222222

     Initial potential from superposition of free atoms

     starting charge  143.98738, renormalised to  144.00000
     Starting wfcs are  136 randomized atomic wfcs

     Self-consistent Calculation

     iteration #  1     ecut=    45.00 Ry     beta= 0.70
     Davidson diagonalization with overlap
     ethr =  1.00E-02,  avg # of iterations =  2.4

     total energy              =    -562.41855066 Ry
     Harris-Foulkes estimate   =    -563.42063341 Ry
     estimated scf accuracy    <       2.43183537 Ry

[...]

     iteration #  6     ecut=    45.00 Ry     beta= 0.70
     Davidson diagonalization with overlap
     c_bands:  1 eigenvalues not converged
     ethr =  1.85E-06,  avg # of iterations =  8.8

[...]

     total energy              =    -562.84691260 Ry
     Harris-Foulkes estimate   =    -562.84691319 Ry
     estimated scf accuracy    <       0.00000254 Ry

     iteration # 14     ecut=    45.00 Ry     beta= 0.70
     Davidson diagonalization with overlap
     ethr =  1.76E-09,  avg # of iterations =  2.3

     End of self-consistent calculation

          k = 0.0000 0.0000 0.0000 ( 15431 PWs)   bands (ev):

    -8.0169  -7.8453  -7.5920  -7.4017  -6.0867  -5.9830  -5.9472  -5.9048
    -5.7359  -5.4096  -5.2882  -5.2299  -5.2171  -5.0229  -5.0107  -4.8511
     0.5625   0.5697   0.6784   0.7943   0.8247   0.9875   1.0269   1.2844
     1.7220   1.9804   2.0496   2.0730   2.3516   2.6329   2.7669   2.8871
     3.0638   3.4150   3.6377   3.7162   3.7377   3.8877   3.8929   4.0130
     4.1774   4.3381   4.5547   4.6905   5.0884   5.1039   5.2208   5.3062
     5.3913   5.4234   5.4336   5.5000   5.5181   5.6018   5.6658   5.7016
     5.8352   5.9326   6.0170   6.1105   6.5443   6.6478   6.7082   6.7514
     6.8554   6.8914   7.0112   7.1372   7.2805   7.5364   7.6386   7.8223
     9.5589   9.6105   9.7904  10.0025  10.2447  10.4714  10.4907  10.5792
    10.6043  10.6105  10.6217  10.6713  10.8169  10.8733

[...]

          k = 0.6667-0.3849 0.0000 ( 15492 PWs)   bands (ev):

    -6.3848  -6.3323  -5.9820  -5.8428  -5.7615  -5.6599  -5.5095  -5.3883
    -5.3383  -5.2947  -5.2793  -5.1392  -5.0576  -4.9640  -4.8950  -4.8017
     0.7596   0.9196   1.0453   1.2513   1.3129   1.3683   1.3897   1.4135
     1.5999   1.7098   1.7378   1.9145   2.3391   2.5116   2.6241   2.7631
     2.8210   2.8929   3.0376   3.0823   3.1294   3.1764   3.3086   3.5697
     3.5961   3.6964   3.7783   3.8326   3.8865   3.9496   4.2363   4.5145
     4.6534   4.8033   4.9260   5.0186   5.5053   5.5429   5.5726   5.6185
     5.6511   5.7793   5.7962   5.8230   5.8998   5.9411   6.0930   6.2403
     6.2766   6.3358   6.3876   6.4009   6.7045   6.8127   6.9552   7.0999
     9.6044   9.7614   9.8372   9.8767   9.9413   9.9740  10.0411  10.0922
    10.1313  10.1855  10.2238  10.2929  10.4490  10.4898

     the Fermi energy is     7.6626 ev

!    total energy              =    -562.84691241 Ry
     Harris-Foulkes estimate   =    -562.84691294 Ry
     estimated scf accuracy    <       0.00000056 Ry

     The total energy is the sum of the following terms:

     one-electron contribution =    -143.28055245 Ry
     hartree contribution      =     159.36736488 Ry
     xc contribution           =    -226.67903565 Ry
     ewald contribution        =    -352.26647249 Ry
     smearing contrib. (-TS)   =       0.01178329 Ry

     convergence has been achieved in  14 iterations

     Forces acting on atoms (cartesian axes, Ry/au):

     atom    1 type  1   force =    -0.07000129   -0.10311708   -0.18957685
     atom    2 type  1   force =    -0.06241130    0.04176291    0.23651329
     atom    3 type  1   force =     0.16444962    0.05270199    0.15266919
     atom    4 type  1   force =     0.03096617    0.08546086   -0.01626763
     atom    5 type  1   force =    -0.04862904   -0.00761961   -0.27060183
     atom    6 type  1   force =    -0.01001314   -0.11794957   -0.07658260
     atom    7 type  1   force =     0.15008811    0.04849551    0.05532412
     atom    8 type  1   force =     0.07202596    0.12144321    0.17286286
     atom    9 type  2   force =     0.05998380    0.05964452    0.31260584
     atom   10 type  2   force =    -0.04562237   -0.07527110    0.12449111
     atom   11 type  2   force =    -0.08048658   -0.05435656    0.11612950
     atom   12 type  2   force =     0.04651015   -0.03661623    0.08779256
     atom   13 type  2   force =    -0.05932586   -0.04224724    0.28864517
     atom   14 type  2   force =    -0.08306967    0.01165253    0.07766974
     atom   15 type  2   force =     0.03016959   -0.03729990    0.29529774
     atom   16 type  2   force =     0.05085504    0.04348418    0.11632388
     atom   17 type  2   force =    -0.08658951   -0.01874155   -0.27101952
     atom   18 type  2   force =     0.07057509   -0.00226962   -0.26793411
     atom   19 type  2   force =     0.01273724    0.06379637   -0.12151831
     atom   20 type  2   force =    -0.03978260   -0.01325882   -0.16566567
     atom   21 type  2   force =     0.07088591    0.02375019   -0.10686244
     atom   22 type  2   force =    -0.02473520    0.02108179   -0.05332377
     atom   23 type  2   force =    -0.14323549    0.01498069   -0.26034706
     atom   24 type  2   force =    -0.00534463   -0.07950747   -0.23662522

     Total force =     1.047612     Total SCF correction =     0.002204

     General routines

     Parallel routines

   This run was terminated on:  17: 1:34   2Aug2021

   JOB DONE.