     Program PWSCF v.6.4 starts on 14Oct2021 at 12: 0:11

     R & G space division:  proc/nbgrp/npool/nimage =      40
     Waiting for input...
     Reading input from standard input
Warning: card    &IONS ignored
Warning: card      ION_DYNAMICS = 'BFGS' ignored
Warning: card   / ignored
Warning: card    &CELL ignored
Warning: card      CELL_DYNAMICS = 'BFGS', ignored
Warning: card    / ignored

     Current dimensions of program PWSCF are:
     Max number of different atomic species (ntypx) = 10
     Max number of k-points (npk) =  40000
     Max angular momentum in pseudopotentials (lmaxx) =  3

     bravais-lattice index     =            0
     lattice parameter (alat)  =      12.1757  a.u.
     unit-cell volume          =    1845.4765 (a.u.)^3
     number of atoms/cell      =           12
     number of atomic types    =            2
     number of electrons       =        72.00
     number of Kohn-Sham states=           43
     kinetic-energy cutoff     =      45.0000  Ry
     charge density cutoff     =     360.0000  Ry
     convergence threshold     =      1.0E-06
     mixing beta               =       0.7000
     number of iterations used =            8  local-TF  mixing
     Exchange-correlation      = SLA PW GGX GGC ( 1  4  2  2 0 0)

     celldm(1)=  12.175693  celldm(2)=   0.000000  celldm(3)=   0.000000
     celldm(4)=   0.000000  celldm(5)=   0.000000  celldm(6)=   0.000000

     crystal axes: (cart. coord. in units of alat)
               a(1) = (   1.000000   0.000000   0.000000 )
               a(2) = (   0.501189   0.863709   0.000000 )
               a(3) = (   0.256693  -0.138904   1.183750 )

     reciprocal axes: (cart. coord. in units 2 pi/alat)
               b(1) = (  1.000000 -0.580275 -0.284938 )
               b(2) = (  0.000000  1.157797  0.135858 )
               b(3) = (  0.000000  0.000000  0.844773 )

     PseudoPot. # 1 for Mo read from file:
     ~/pseudo/Mo.pw91-n-van.UPF
     MD5 check sum: Not computed, couldn't open file
     Pseudo is Ultrasoft + core correction, Zval =  6.0
     Generated by new atomic code, or converted to UPF format
     Using radial grid of  965 points,  3 beta functions with:
                l(1) =   1
                l(2) =   2
                l(3) =   2
     Q(r) pseudized with  8 coefficients,  rinner =    1.000   1.000   1.000
                                                       1.200   1.200

     PseudoPot. # 2 for S  read from file:
     ~/pseudo/S.pw91-van_ak.UPF
     MD5 check sum: Not computed, couldn't open file
     Pseudo is Ultrasoft, Zval =  6.0
     Generated by new atomic code, or converted to UPF format
     Using radial grid of  811 points,  6 beta functions with:
                l(1) =   0
                l(2) =   0
                l(3) =   1
                l(4) =   1
                l(5) =   2
                l(6) =   2
     Q(r) pseudized with  8 coefficients,  rinner =    1.100   1.100   1.100
                                                       1.100   1.100

     atomic species   valence    mass     pseudopotential
        Mo             6.00    95.50000     Mo( 1.00)
        S              6.00    32.06500     S ( 1.00)

     No symmetry found

   Cartesian axes

     site n.     atom                  positions (alat units)
         1           Mo  tau(   1) = (   0.7564832   0.7174137   1.1806155  )
         2           Mo  tau(   2) = (   0.2480334   0.4250997   0.0000783  )
         3           Mo  tau(   3) = (   1.0064407   0.2871911   1.1820206  )
         4           Mo  tau(   4) = (   0.4995711  -0.0047770  -0.0015199  )
         5           S   tau(   5) = (   0.2474816   0.1362886   0.2441595  )
         6           S   tau(   6) = (   0.5004703   0.5687153   0.2431534  )
         7           S   tau(   7) = (   0.9976014   0.5722176   0.2446145  )
         8           S   tau(   8) = (   0.7509668   0.1381624   0.2450421  )
         9           S   tau(   9) = (   0.5051721  -0.0033425   0.9369471  )
        10           S   tau(  10) = (   0.7542746   0.4281393   0.9357421  )
        11           S   tau(  11) = (   1.2560318   0.4321089   0.9367762  )
        12           S   tau(  12) = (   1.0074340   0.0005780   0.9359816  )

     number of k points=    10  Marzari-Vanderbilt smearing, width (Ry)=  0.0200
                       cart. coord. in units 2pi/alat
        k(    1) = (   0.0000000   0.0000000   0.0000000), wk =   0.1111111
        k(    2) = (   0.0000000   0.0000000  -0.4223865), wk =   0.1111111
        k(    3) = (   0.0000000   0.3859325   0.0452861), wk =   0.2222222
        k(    4) = (   0.0000000   0.3859325  -0.3771004), wk =   0.2222222
        k(    5) = (   0.3333333  -0.1934251  -0.0949793), wk =   0.2222222
        k(    6) = (   0.3333333  -0.1934251  -0.5173658), wk =   0.2222222
        k(    7) = (   0.3333333   0.1925073  -0.0496932), wk =   0.2222222
        k(    8) = (   0.3333333   0.1925073  -0.4720797), wk =   0.2222222
        k(    9) = (   0.3333333  -0.5793576  -0.1402654), wk =   0.2222222
        k(   10) = (   0.3333333  -0.5793576  -0.5626519), wk =   0.2222222

     Initial potential from superposition of free atoms

     starting charge   71.99369, renormalised to   72.00000
     Starting wfcs are   68 randomized atomic wfcs

     Self-consistent Calculation

     iteration #  1     ecut=    45.00 Ry     beta= 0.70
     Davidson diagonalization with overlap
     ethr =  1.00E-02,  avg # of iterations =  2.0

     total energy              =    -281.41091683 Ry
     Harris-Foulkes estimate   =    -282.28935913 Ry
     estimated scf accuracy    <       2.24734001 Ry

[...]

     total energy              =    -281.84790534 Ry
     Harris-Foulkes estimate   =    -281.84790612 Ry
     estimated scf accuracy    <       0.00000379 Ry

     iteration # 11     ecut=    45.00 Ry     beta= 0.70
     Davidson diagonalization with overlap
     ethr =  4.22E-09,  avg # of iterations =  2.0

     End of self-consistent calculation

          k = 0.0000 0.0000 0.0000 (  9367 PWs)   bands (ev):

    -8.8369  -7.6391  -7.1066  -7.0987  -7.0856  -6.8419  -6.8388  -6.8269
    -0.4755  -0.4641  -0.4532  -0.3749   0.4635   0.4781   0.4828   1.1389
     1.1517   1.1869   2.0406   2.0685   2.0811   2.5701   2.5998   3.2488
     3.3114   3.3343   3.6793   3.6901   3.7033   4.1994   4.2124   4.2345
     4.4710   4.4879   4.5120   4.9542   7.1552   7.1572   7.1630   7.6609
     7.6665   7.6858   7.8318

[...]

          k = 0.3333-0.5794-0.5627 (  9443 PWs)   bands (ev):

    -7.8651  -7.8441  -7.8390  -7.1961  -7.1806  -7.1752  -6.8557  -6.6739
    -0.0781   0.3814   0.3906   0.4066   0.6961   1.1926   1.3913   1.3976
     1.4117   1.5993   1.6034   1.6162   1.6309   2.0169   2.0348   2.0433
     2.3025   2.9952   3.2207   3.2290   3.2394   4.0234   4.0476   4.0570
     4.3453   4.3530   4.3606   5.0977   6.7320   7.0048   7.0145   7.0619
     7.4547   7.4708   7.5098

     the Fermi energy is     5.2197 ev

!    total energy              =    -281.84790516 Ry
     Harris-Foulkes estimate   =    -281.84790563 Ry
     estimated scf accuracy    <       0.00000056 Ry

     The total energy is the sum of the following terms:

     one-electron contribution =     -93.99669203 Ry
     hartree contribution      =      84.98336376 Ry
     xc contribution           =    -111.34268184 Ry
     ewald contribution        =    -161.49975994 Ry
     smearing contrib. (-TS)   =       0.00786489 Ry

     convergence has been achieved in  11 iterations

     Forces acting on atoms (cartesian axes, Ry/au):

     atom    1 type  1   force =    -0.00066765    0.00023068    0.00701472
     atom    2 type  1   force =     0.00041909    0.00009974   -0.00659800
     atom    3 type  1   force =    -0.00095392    0.00003340   -0.00014358
     atom    4 type  1   force =     0.00042035   -0.00045123    0.00151997
     atom    5 type  2   force =     0.00184798    0.00118637   -0.00312349
     atom    6 type  2   force =    -0.00414679    0.00067644   -0.00052472
     atom    7 type  2   force =     0.00397842   -0.00360378   -0.00301833
     atom    8 type  2   force =    -0.00203661   -0.00078395   -0.00748347
     atom    9 type  2   force =     0.00149840    0.00641622    0.00143993
     atom   10 type  2   force =     0.00130208    0.00120151    0.00511230
     atom   11 type  2   force =     0.00204694   -0.00171936    0.00350847
     atom   12 type  2   force =    -0.00370831   -0.00328606    0.00229620

     Total force =     0.018769     Total SCF correction =     0.002028
     SCF correction compared to forces is large: reduce conv_thr to get better values

     General routines

     Parallel routines

   This run was terminated on:  12: 0:30  14Oct2021

   JOB DONE.