     Program PWSCF v.6.4 starts on  3Aug2021 at 21:18:18

     R & G space division:  proc/nbgrp/npool/nimage =      40
     Waiting for input...
     Reading input from standard input
Warning: card    &IONS ignored
Warning: card      ION_DYNAMICS = 'BFGS' ignored
Warning: card   / ignored
Warning: card    &CELL ignored
Warning: card      CELL_DYNAMICS = 'BFGS', ignored
Warning: card    / ignored

     Current dimensions of program PWSCF are:
     Max number of different atomic species (ntypx) = 10
     Max number of k-points (npk) =  40000
     Max angular momentum in pseudopotentials (lmaxx) =  3

     bravais-lattice index     =            0
     lattice parameter (alat)  =      12.6605  a.u.
     unit-cell volume          =    6852.5983 (a.u.)^3
     number of atoms/cell      =           24
     number of atomic types    =            2
     number of electrons       =       144.00
     number of Kohn-Sham states=           86
     kinetic-energy cutoff     =      45.0000  Ry
     charge density cutoff     =     360.0000  Ry
     convergence threshold     =      1.0E-06
     mixing beta               =       0.7000
     number of iterations used =            8  local-TF  mixing
     Exchange-correlation      = SLA PW GGX GGC ( 1  4  2  2 0 0)

     celldm(1)=  12.660525  celldm(2)=   0.000000  celldm(3)=   0.000000
     celldm(4)=   0.000000  celldm(5)=   0.000000  celldm(6)=   0.000000

     crystal axes: (cart. coord. in units of alat)
               a(1) = (   1.000000   0.000000   0.000000 )
               a(2) = (  -0.500000   0.866025   0.000000 )
               a(3) = (   0.000000   0.000000   3.899145 )

     reciprocal axes: (cart. coord. in units 2 pi/alat)
               b(1) = (  1.000000  0.577350  0.000000 )
               b(2) = (  0.000000  1.154700  0.000000 )
               b(3) = (  0.000000  0.000000  0.256466 )

     PseudoPot. # 1 for Mo read from file:
     ~/pseudo/Mo.pw91-n-van.UPF
     MD5 check sum: Not computed, couldn't open file
     Pseudo is Ultrasoft + core correction, Zval =  6.0
     Generated by new atomic code, or converted to UPF format
     Using radial grid of  965 points,  3 beta functions with:
                l(1) =   1
                l(2) =   2
                l(3) =   2
     Q(r) pseudized with  8 coefficients,  rinner =    1.000   1.000   1.000
                                                       1.200   1.200

     PseudoPot. # 2 for S  read from file:
     ~/pseudo/S.pw91-van_ak.UPF
     MD5 check sum: Not computed, couldn't open file
     Pseudo is Ultrasoft, Zval =  6.0
     Generated by new atomic code, or converted to UPF format
     Using radial grid of  811 points,  6 beta functions with:
                l(1) =   0
                l(2) =   0
                l(3) =   1
                l(4) =   1
                l(5) =   2
                l(6) =   2
     Q(r) pseudized with  8 coefficients,  rinner =    1.100   1.100   1.100
                                                       1.100   1.100

     atomic species   valence    mass     pseudopotential
        Mo             6.00    95.50000     Mo( 1.00)
        S              6.00    32.06500     S ( 1.00)

     No symmetry found

   Cartesian axes

     site n.     atom                  positions (alat units)
         1           Mo  tau(   1) = (   0.2391491   0.1569339   0.5581829  )
         2           Mo  tau(   2) = (  -0.0124766   0.5620033   0.5606170  )
         3           Mo  tau(   3) = (   0.7216212   0.1413595   0.5917473  )
         4           Mo  tau(   4) = (   0.5009677   0.5976946   0.6048017  )
         5           Mo  tau(   5) = (   0.0086901   0.2607988   3.3099608  )
         6           Mo  tau(   6) = (  -0.2447354   0.7144974   3.2876777  )
         7           Mo  tau(   7) = (   0.4885060   0.3117177   3.3312716  )
         8           Mo  tau(   8) = (   0.2477914   0.7063006   3.2906831  )
         9           S   tau(   9) = (   0.0069447   0.2910098   0.8571722  )
        10           S   tau(  10) = (  -0.2685660   0.7410241   0.8150957  )
        11           S   tau(  11) = (   0.5083466   0.2656673   0.8111415  )
        12           S   tau(  12) = (   0.2724616   0.7020980   0.8265457  )
        13           S   tau(  13) = (   0.2474404   0.1231449   3.5822930  )
        14           S   tau(  14) = (   0.0119148   0.5818859   3.5884178  )
        15           S   tau(  15) = (   0.7723326   0.1537622   3.5788488  )
        16           S   tau(  16) = (   0.5073546   0.5619372   3.5369399  )
        17           S   tau(  17) = (   0.0117663   0.2910621   0.3103891  )
        18           S   tau(  18) = (  -0.2582787   0.7171758   0.3660449  )
        19           S   tau(  19) = (   0.5119737   0.3130885   0.3254007  )
        20           S   tau(  20) = (   0.2471856   0.7365030   0.3119571  )
        21           S   tau(  21) = (   0.2316087   0.1671716   3.0765257  )
        22           S   tau(  22) = (   0.0026295   0.5796035   3.1005630  )
        23           S   tau(  23) = (   0.7755191   0.1597828   3.0720904  )
        24           S   tau(  24) = (   0.5182831   0.5994856   3.0790926  )

     number of k points=     5  Marzari-Vanderbilt smearing, width (Ry)=  0.0200
                       cart. coord. in units 2pi/alat
        k(    1) = (   0.0000000   0.0000000   0.0000000), wk =   0.2222222
        k(    2) = (   0.0000000   0.3849002   0.0000000), wk =   0.4444444
        k(    3) = (   0.3333333   0.5773503   0.0000000), wk =   0.4444444
        k(    4) = (  -0.3333333   0.1924500   0.0000000), wk =   0.4444444
        k(    5) = (   0.3333333   0.1924501   0.0000000), wk =   0.4444444

     Initial potential from superposition of free atoms

     starting charge  143.98738, renormalised to  144.00000

     negative rho (up, down):  8.704E-04 0.000E+00
     Starting wfcs are  136 randomized atomic wfcs

     Self-consistent Calculation

     iteration #  1     ecut=    45.00 Ry     beta= 0.70
     Davidson diagonalization with overlap
     ethr =  1.00E-02,  avg # of iterations =  2.0

     negative rho (up, down):  2.807E-04 0.000E+00

     total energy              =    -561.69727437 Ry
     Harris-Foulkes estimate   =    -564.02892264 Ry
     estimated scf accuracy    <       6.34412025 Ry

[...]

     iteration #  9     ecut=    45.00 Ry     beta= 0.70
     Davidson diagonalization with overlap
     c_bands:  1 eigenvalues not converged
     ethr =  1.05E-06,  avg # of iterations =  5.0

[...]

     total energy              =    -562.95552861 Ry
     Harris-Foulkes estimate   =    -562.95552454 Ry
     estimated scf accuracy    <       0.00000257 Ry

     iteration # 18     ecut=    45.00 Ry     beta= 0.70
     Davidson diagonalization with overlap
     ethr =  1.79E-09,  avg # of iterations =  1.2

[...]

     End of self-consistent calculation

          k = 0.0000 0.0000 0.0000 ( 35091 PWs)   bands (ev):

   -13.6420 -13.3538 -12.7070 -12.5002 -12.4234 -12.3536 -12.1746 -12.0021
   -11.9394 -11.8958 -11.8163 -11.5573 -11.4728 -11.3967 -11.3423 -11.2843
    -5.3529  -5.2844  -5.2312  -5.0318  -4.9533  -4.9256  -4.8282  -4.6869
    -4.4333  -4.3310  -4.2564  -4.0859  -4.0042  -3.9378  -3.9255  -3.6798
    -3.6141  -3.4872  -3.3361  -3.3150  -3.2666  -3.1530  -3.0876  -2.9628
    -2.7809  -2.6080  -2.4998  -2.3843  -2.1865  -2.1095  -2.0381  -2.0079
    -1.9366  -1.8616  -1.8276  -1.6763  -1.6090  -1.5517  -1.5120  -1.3316
    -1.3069  -1.0643  -0.9292  -0.8736  -0.7776  -0.7138  -0.6373  -0.6066
    -0.4574  -0.3860  -0.2181  -0.0675  -0.0213   0.1616   0.3482   0.4627
     1.1367   1.3159   1.3498   1.4225   1.4872   1.5329   1.6452   1.6838
     1.7960   1.9222   1.9951   2.0046   2.0519   2.0977

[...]

          k =-0.3333 0.1925 0.0000 ( 34940 PWs)   bands (ev):

[...]

          k = 0.3333 0.1925 0.0000 ( 34940 PWs)   bands (ev):

   -13.3880 -13.1062 -12.8507 -12.5191 -12.4959 -12.3747 -12.1778 -12.0466
   -11.9549 -11.9510 -11.8733 -11.7272 -11.5650 -11.4179 -11.4026 -11.3375
    -5.0471  -4.9843  -4.8321  -4.7018  -4.6280  -4.5889  -4.4602  -4.4480
    -4.3370  -4.2826  -4.1001  -3.9949  -3.9136  -3.7577  -3.6662  -3.5445
    -3.5311  -3.4529  -3.3025  -3.2861  -3.1997  -3.1038  -2.9370  -2.8940
    -2.7895  -2.7744  -2.7000  -2.6008  -2.5871  -2.3623  -2.2240  -2.1507
    -2.0906  -1.9628  -1.9371  -1.8497  -1.8223  -1.6731  -1.6325  -1.5584
    -1.4867  -1.4145  -1.3720  -1.2984  -1.2103  -0.9995  -0.9498  -0.9029
    -0.7295  -0.4814  -0.4383  -0.1553  -0.1205  -0.0204   0.0614   0.2781
     1.1741   1.4092   1.4438   1.5219   1.5448   1.6366   1.6631   1.6835
     1.7436   1.8304   1.8601   1.9638   1.9865   1.9982

     the Fermi energy is     0.4525 ev

!    total energy              =    -562.95552602 Ry
     Harris-Foulkes estimate   =    -562.95552873 Ry
     estimated scf accuracy    <       0.00000078 Ry

     The total energy is the sum of the following terms:

     one-electron contribution =   -3264.08990030 Ry
     hartree contribution      =    1681.36532656 Ry
     xc contribution           =    -221.05530582 Ry
     ewald contribution        =    1240.80983471 Ry
     smearing contrib. (-TS)   =       0.01451881 Ry

     convergence has been achieved in  18 iterations

     negative rho (up, down):  1.218E-03 0.000E+00

     Forces acting on atoms (cartesian axes, Ry/au):

     atom    1 type  1   force =     0.03608476    0.00103564    0.07315120
     atom    2 type  1   force =     0.07034373    0.03760967    0.08461780
     atom    3 type  1   force =     0.16965380   -0.02421844   -0.11176680
     atom    4 type  1   force =    -0.01396209   -0.11853985   -0.15195392
     atom    5 type  1   force =    -0.04096679    0.13798164    0.16461474
     atom    6 type  1   force =     0.00085688    0.10106990    0.21573209
     atom    7 type  1   force =     0.04786459   -0.19084725   -0.09768840
     atom    8 type  1   force =     0.07388602    0.11897765    0.17383468
     atom    9 type  2   force =    -0.02716370   -0.00027129   -0.13556220
     atom   10 type  2   force =     0.07040901    0.00972345   -0.00556522
     atom   11 type  2   force =    -0.09332453    0.07053904    0.03053104
     atom   12 type  2   force =    -0.11432237    0.04569297   -0.00656142
     atom   13 type  2   force =     0.01766590    0.01380624   -0.11268506
     atom   14 type  2   force =    -0.00311456   -0.01921315   -0.12216159
     atom   15 type  2   force =    -0.04082266   -0.02580520   -0.10158770
     atom   16 type  2   force =    -0.01001073    0.13210252    0.04790863
     atom   17 type  2   force =    -0.04012281   -0.00784395    0.07378153
     atom   18 type  2   force =    -0.00631014    0.02325454   -0.05469105
     atom   19 type  2   force =    -0.03117375   -0.01851720    0.08898919
     atom   20 type  2   force =    -0.01970496   -0.01867795    0.11417226
     atom   21 type  2   force =     0.10000313   -0.05810670   -0.02216417
     atom   22 type  2   force =     0.00097004   -0.09293469   -0.10017896
     atom   23 type  2   force =    -0.07964801   -0.04361030    0.02200848
     atom   24 type  2   force =    -0.06709074   -0.07320731   -0.06677516

     Total force =     0.711574     Total SCF correction =     0.001880

     General routines

     Parallel routines

   This run was terminated on:  21:19:41   3Aug2021

   JOB DONE.