     Program PWSCF v.6.4 starts on 23Dec2021 at 23: 6:54

     R & G space division:  proc/nbgrp/npool/nimage =      40
     Waiting for input...
     Reading input from standard input
Warning: card    &IONS ignored
Warning: card      ION_DYNAMICS = 'BFGS' ignored
Warning: card   / ignored
Warning: card    &CELL ignored
Warning: card      CELL_DYNAMICS = 'BFGS', ignored
Warning: card    / ignored

     Current dimensions of program PWSCF are:
     Max number of different atomic species (ntypx) = 10
     Max number of k-points (npk) =  40000
     Max angular momentum in pseudopotentials (lmaxx) =  3

     bravais-lattice index     =            0
     lattice parameter (alat)  =      13.2750  a.u.
     unit-cell volume          =    5103.4627 (a.u.)^3
     number of atoms/cell      =           36
     number of atomic types    =            2
     number of electrons       =       216.00
     number of Kohn-Sham states=          130
     kinetic-energy cutoff     =      45.0000  Ry
     charge density cutoff     =     360.0000  Ry
     convergence threshold     =      1.0E-06
     mixing beta               =       0.7000
     number of iterations used =            8  local-TF  mixing
     Exchange-correlation      = SLA PW GGX GGC ( 1  4  2  2 0 0)

     celldm(1)=  13.274977  celldm(2)=   0.000000  celldm(3)=   0.000000
     celldm(4)=   0.000000  celldm(5)=   0.000000  celldm(6)=   0.000000

     crystal axes: (cart. coord. in units of alat)
               a(1) = (   1.000000   0.000000   0.000000 )
               a(2) = (  -0.015263   1.183160   0.000000 )
               a(3) = (   0.087275   0.211289   1.843827 )

     reciprocal axes: (cart. coord. in units 2 pi/alat)
               b(1) = (  1.000000  0.012900 -0.048812 )
               b(2) = (  0.000000  0.845194 -0.096853 )
               b(3) = (  0.000000  0.000000  0.542350 )

     PseudoPot. # 1 for Mo read from file:
     ~/pseudo/Mo.pw91-n-van.UPF
     MD5 check sum: Not computed, couldn't open file
     Pseudo is Ultrasoft + core correction, Zval =  6.0
     Generated by new atomic code, or converted to UPF format
     Using radial grid of  965 points,  3 beta functions with:
                l(1) =   1
                l(2) =   2
                l(3) =   2
     Q(r) pseudized with  8 coefficients,  rinner =    1.000   1.000   1.000
                                                       1.200   1.200

     PseudoPot. # 2 for S  read from file:
     ~/pseudo/S.pw91-van_ak.UPF
     MD5 check sum: Not computed, couldn't open file
     Pseudo is Ultrasoft, Zval =  6.0
     Generated by new atomic code, or converted to UPF format
     Using radial grid of  811 points,  6 beta functions with:
                l(1) =   0
                l(2) =   0
                l(3) =   1
                l(4) =   1
                l(5) =   2
                l(6) =   2
     Q(r) pseudized with  8 coefficients,  rinner =    1.100   1.100   1.100
                                                       1.100   1.100

     atomic species   valence    mass     pseudopotential
        Mo             6.00    95.50000     Mo( 1.00)
        S              6.00    32.06500     S ( 1.00)

     No symmetry found

   Cartesian axes

     site n.     atom                  positions (alat units)
         1           Mo  tau(   1) = (   0.0995761   0.6799554   1.1820409  )
         2           Mo  tau(   2) = (   0.5870866   1.3188156   1.7028011  )
         3           Mo  tau(   3) = (   0.8134174   0.7573777   0.0889631  )
         4           Mo  tau(   4) = (   1.0170097   1.1884080   0.6855205  )
         5           Mo  tau(   5) = (   0.0475244   0.7228210   0.7617524  )
         6           Mo  tau(   6) = (   0.0740434   0.3718443   0.9174463  )
         7           Mo  tau(   7) = (   0.2437968   0.8239288   0.0511773  )
         8           Mo  tau(   8) = (   0.8234412   0.9807432   0.9804109  )
         9           Mo  tau(   9) = (   0.6301466   0.5129316   1.6135850  )
        10           Mo  tau(  10) = (   0.1085412   0.8804804   1.5877594  )
        11           Mo  tau(  11) = (   0.6302626   0.1467602   0.1821605  )
        12           Mo  tau(  12) = (   0.2921091   0.9829417   0.9508185  )
        13           S   tau(  13) = (   0.2592596   0.9470862   0.6124715  )
        14           S   tau(  14) = (   0.7865880   0.9235697   0.6506403  )
        15           S   tau(  15) = (   0.0635000   0.5449850   0.0494313  )
        16           S   tau(  16) = (   0.8370717   1.0950764   1.6321587  )
        17           S   tau(  17) = (   0.0710325   1.0406923   1.1980238  )
        18           S   tau(  18) = (   0.2853169   1.1779294   1.6065252  )
        19           S   tau(  19) = (   0.9385588   0.0623255   0.3526049  )
        20           S   tau(  20) = (   0.6597110   0.4839928   0.3088225  )
        21           S   tau(  21) = (   0.3133563   0.1357728   0.8499487  )
        22           S   tau(  22) = (   0.3483776   0.6329452   0.9377838  )
        23           S   tau(  23) = (   0.5394381   0.2858478   0.4919097  )
        24           S   tau(  24) = (   0.8696301   0.6888629   1.4436856  )
        25           S   tau(  25) = (   0.5317171   0.9874368   0.2060574  )
        26           S   tau(  26) = (   0.0555210   0.4496510   0.5740589  )
        27           S   tau(  27) = (   0.1038956   0.3445390   1.2574793  )
        28           S   tau(  28) = (   0.8159462   0.1432918   0.9095950  )
        29           S   tau(  29) = (   0.9093058   0.3436593   1.7484600  )
        30           S   tau(  30) = (   0.5998894   0.8175324   1.7970215  )
        31           S   tau(  31) = (   0.8054702   0.6278595   0.9994282  )
        32           S   tau(  32) = (   0.6046143   0.2699474   1.3870160  )
        33           S   tau(  33) = (   0.5516172   1.0126526   1.1578985  )
        34           S   tau(  34) = (   0.3550875   0.6899264   1.4411709  )
        35           S   tau(  35) = (   0.0121380   1.0061035   0.2042638  )
        36           S   tau(  36) = (   0.3314889   0.1795733   0.0249489  )

     number of k points=     8  Marzari-Vanderbilt smearing, width (Ry)=  0.0200
                       cart. coord. in units 2pi/alat
        k(    1) = (   0.0000000   0.0000000   0.0000000), wk =   0.1666667
        k(    2) = (   0.0000000   0.0000000  -0.2711751), wk =   0.1666667
        k(    3) = (   0.0000000  -0.4225971   0.0484265), wk =   0.1666667
        k(    4) = (   0.0000000  -0.4225971  -0.2227487), wk =   0.1666667
        k(    5) = (   0.3333333   0.0043001  -0.0162706), wk =   0.3333333
        k(    6) = (   0.3333333   0.0043001  -0.2874457), wk =   0.3333333
        k(    7) = (   0.3333333  -0.4182970   0.0321559), wk =   0.3333333
        k(    8) = (   0.3333333  -0.4182970  -0.2390193), wk =   0.3333333

     Initial potential from superposition of free atoms

     starting charge  215.98107, renormalised to  216.00000
     Starting wfcs are  204 randomized atomic wfcs

     Self-consistent Calculation

     iteration #  1     ecut=    45.00 Ry     beta= 0.70
     Davidson diagonalization with overlap
     ethr =  1.00E-02,  avg # of iterations =  2.0

     total energy              =    -842.73024328 Ry
     Harris-Foulkes estimate   =    -845.56704805 Ry
     estimated scf accuracy    <       7.53211114 Ry

[...]

     total energy              =    -844.19063193 Ry
     Harris-Foulkes estimate   =    -844.19063219 Ry
     estimated scf accuracy    <       0.00000213 Ry

     iteration # 14     ecut=    45.00 Ry     beta= 0.70
     Davidson diagonalization with overlap
     ethr =  9.84E-10,  avg # of iterations =  1.2

     End of self-consistent calculation

          k = 0.0000 0.0000 0.0000 ( 26005 PWs)   bands (ev):

    -8.9832  -8.3166  -7.5329  -7.2346  -6.7699  -6.6496  -6.5320  -6.4965
    -6.3269  -6.3195  -6.2435  -6.1539  -6.1146  -6.0636  -6.0311  -5.9922
    -5.9156  -5.8645  -5.7633  -5.6612  -5.6291  -5.3155  -5.2056  -4.1909
     0.0554   0.4910   0.5874   0.7149   0.7470   0.9288   1.0256   1.1250
     1.1473   1.2410   1.3228   1.4085   1.4365   1.6181   1.6695   1.7287
     1.8270   1.8447   1.9781   1.9962   2.0371   2.0847   2.1393   2.1944
     2.2740   2.3482   2.4176   2.4475   2.5315   2.6118   2.6723   2.7704
     2.7748   2.8051   2.8778   2.8857   2.9411   3.0162   3.1017   3.1592
     3.2288   3.2434   3.3138   3.3824   3.4740   3.5699   3.5801   3.6664
     3.7430   3.8491   3.8836   3.9978   4.0527   4.1106   4.1611   4.2556
     4.2676   4.3735   4.4135   4.5429   4.5724   4.7427   4.8018   4.9816
     5.0029   5.0631   5.1193   5.2273   5.2710   5.3010   5.3623   5.4093
     5.7153   5.8162   5.8170   5.9968   6.1086   6.1255   6.2649   6.3647
     6.4919   6.5568   6.6392   6.6775   6.8405   6.9128   6.9711   6.9999
     7.0788   7.1763   7.2045   7.3527   7.3923   7.5300   7.5945   7.6446
     7.7318   7.8011   7.8707   7.9270   7.9750   8.0280   8.1023   8.2220
     8.2661   8.3473

[...]

          k = 0.3333-0.4183-0.2390 ( 26019 PWs)   bands (ev):

    -8.9532  -8.3208  -7.3175  -7.0204  -6.8580  -6.7816  -6.6680  -6.5541
    -6.4950  -6.4500  -6.3257  -6.1854  -6.1390  -6.0809  -6.0049  -5.9210
    -5.8903  -5.8413  -5.6921  -5.6246  -5.5566  -5.3439  -5.2240  -4.1753
     0.0358   0.6704   0.7681   0.8150   0.9533   1.0228   1.1500   1.2150
     1.2970   1.3484   1.4463   1.5027   1.5797   1.6472   1.7079   1.7449
     1.7902   1.8588   1.9191   1.9492   2.0164   2.0856   2.1524   2.2402
     2.3011   2.3258   2.3834   2.4127   2.4939   2.5944   2.6329   2.6849
     2.7328   2.7752   2.8373   2.9158   2.9352   2.9951   3.0219   3.0971
     3.1535   3.2140   3.2543   3.3250   3.3597   3.4121   3.4934   3.5453
     3.5949   3.7066   3.7966   3.8515   3.9370   4.0617   4.1053   4.1757
     4.2547   4.3141   4.4469   4.5001   4.5697   4.6368   4.7126   4.8379
     4.9157   4.9936   5.1468   5.1941   5.2540   5.3596   5.4760   5.5183
     5.5724   5.6636   5.8873   5.9609   6.0864   6.2058   6.2512   6.2995
     6.4890   6.5341   6.6468   6.6667   6.7639   6.8492   6.9414   6.9622
     7.0802   7.1662   7.2259   7.2843   7.3583   7.4985   7.5495   7.6401
     7.7313   7.8676   7.9589   7.9777   8.0691   8.1211   8.2200   8.3350
     8.4124   8.4361

     the Fermi energy is     6.7573 ev

!    total energy              =    -844.19063169 Ry
     Harris-Foulkes estimate   =    -844.19063212 Ry
     estimated scf accuracy    <       0.00000056 Ry

     The total energy is the sum of the following terms:

     one-electron contribution =     -18.47822384 Ry
     hartree contribution      =     131.45419752 Ry
     xc contribution           =    -333.55279877 Ry
     ewald contribution        =    -623.60661983 Ry
     smearing contrib. (-TS)   =      -0.00718676 Ry

     convergence has been achieved in  14 iterations

     Forces acting on atoms (cartesian axes, Ry/au):

     atom    1 type  1   force =    -0.01626538    0.05338498   -0.04487820
     atom    2 type  1   force =     0.02603947    0.04012611   -0.01403625
     atom    3 type  1   force =     0.00387084    0.05440447   -0.02291126
     atom    4 type  1   force =     0.00194443    0.03673813   -0.00810330
     atom    5 type  1   force =     0.00920637   -0.00818315    0.05292971
     atom    6 type  1   force =    -0.00075586   -0.02265245    0.02960279
     atom    7 type  1   force =     0.02961667    0.01675930    0.02524889
     atom    8 type  1   force =     0.03403903   -0.02741404    0.02548768
     atom    9 type  1   force =    -0.01637214   -0.01284717    0.01959264
     atom   10 type  1   force =     0.00301178    0.00452020   -0.04069173
     atom   11 type  1   force =    -0.00226470    0.01852019   -0.00733195
     atom   12 type  1   force =    -0.00360420   -0.01721107    0.01879843
     atom   13 type  2   force =     0.01236008    0.00681729   -0.03191875
     atom   14 type  2   force =    -0.00180984    0.00811043   -0.02783887
     atom   15 type  2   force =    -0.00023361   -0.07672916   -0.00061160
     atom   16 type  2   force =     0.00107008    0.00197374    0.00364726
     atom   17 type  2   force =     0.01973043   -0.00176135    0.01152508
     atom   18 type  2   force =     0.01089108    0.00571288   -0.01309580
     atom   19 type  2   force =     0.01714332    0.02150202    0.02851035
     atom   20 type  2   force =     0.00129825   -0.03468718   -0.02356146
     atom   21 type  2   force =    -0.01165052   -0.00423353   -0.01163370
     atom   22 type  2   force =    -0.00831445   -0.00050794   -0.00029266
     atom   23 type  2   force =    -0.00572441   -0.00135527    0.01047717
     atom   24 type  2   force =    -0.00790237    0.00100431    0.02688330
     atom   25 type  2   force =    -0.00600175   -0.01488036   -0.01319884
     atom   26 type  2   force =    -0.00165944   -0.01681097   -0.00218068
     atom   27 type  2   force =     0.00489328   -0.01508366   -0.03088624
     atom   28 type  2   force =    -0.00729366    0.01002654   -0.01249724
     atom   29 type  2   force =    -0.02145620    0.00121285    0.00732399
     atom   30 type  2   force =    -0.01814306    0.01126001    0.02546479
     atom   31 type  2   force =    -0.00241081   -0.01660276   -0.00169407
     atom   32 type  2   force =     0.00025256    0.00483512    0.00888159
     atom   33 type  2   force =    -0.02181937    0.00224000    0.01786985
     atom   34 type  2   force =    -0.00330842    0.01197197    0.01508668
     atom   35 type  2   force =    -0.01862902   -0.03485352   -0.01226165
     atom   36 type  2   force =     0.00025155   -0.00530694   -0.00770598

     Total force =     0.213209     Total SCF correction =     0.001169

     General routines

     Parallel routines

   This run was terminated on:  23: 9: 1  23Dec2021

   JOB DONE.