     Program PWSCF v.6.4 starts on 12Aug2021 at 14:20: 1

     R & G space division:  proc/nbgrp/npool/nimage =      40
     Waiting for input...
     Reading input from standard input
Warning: card    &IONS ignored
Warning: card      ION_DYNAMICS = 'BFGS' ignored
Warning: card   / ignored
Warning: card    &CELL ignored
Warning: card      CELL_DYNAMICS = 'BFGS', ignored
Warning: card    / ignored

     Current dimensions of program PWSCF are:
     Max number of different atomic species (ntypx) = 10
     Max number of k-points (npk) =  40000
     Max angular momentum in pseudopotentials (lmaxx) =  3

     bravais-lattice index     =            0
     lattice parameter (alat)  =      12.8482  a.u.
     unit-cell volume          =    5255.3074 (a.u.)^3
     number of atoms/cell      =           36
     number of atomic types    =            2
     number of electrons       =       216.00
     number of Kohn-Sham states=          130
     kinetic-energy cutoff     =      45.0000  Ry
     charge density cutoff     =     360.0000  Ry
     convergence threshold     =      1.0E-06
     mixing beta               =       0.7000
     number of iterations used =            8  local-TF  mixing
     Exchange-correlation      = SLA PW GGX GGC ( 1  4  2  2 0 0)

     celldm(1)=  12.848175  celldm(2)=   0.000000  celldm(3)=   0.000000
     celldm(4)=   0.000000  celldm(5)=   0.000000  celldm(6)=   0.000000

     crystal axes: (cart. coord. in units of alat)
               a(1) = (   0.999606  -0.020190   0.019473 )
               a(2) = (  -0.511862   0.867350   0.002843 )
               a(3) = (  -0.361675  -0.177536   2.882589 )

     reciprocal axes: (cart. coord. in units 2 pi/alat)
               b(1) = (  1.009232  0.595058  0.163276 )
               b(2) = (  0.022093  1.165731  0.074568 )
               b(3) = ( -0.006840 -0.005170  0.345734 )

     PseudoPot. # 1 for Mo read from file:
     ~/pseudo/Mo.pw91-n-van.UPF
     MD5 check sum: Not computed, couldn't open file
     Pseudo is Ultrasoft + core correction, Zval =  6.0
     Generated by new atomic code, or converted to UPF format
     Using radial grid of  965 points,  3 beta functions with:
                l(1) =   1
                l(2) =   2
                l(3) =   2
     Q(r) pseudized with  8 coefficients,  rinner =    1.000   1.000   1.000
                                                       1.200   1.200

     PseudoPot. # 2 for S  read from file:
     ~/pseudo/S.pw91-van_ak.UPF
     MD5 check sum: Not computed, couldn't open file
     Pseudo is Ultrasoft, Zval =  6.0
     Generated by new atomic code, or converted to UPF format
     Using radial grid of  811 points,  6 beta functions with:
                l(1) =   0
                l(2) =   0
                l(3) =   1
                l(4) =   1
                l(5) =   2
                l(6) =   2
     Q(r) pseudized with  8 coefficients,  rinner =    1.100   1.100   1.100
                                                       1.100   1.100

     atomic species   valence    mass     pseudopotential
        Mo             6.00    95.50000     Mo( 1.00)
        S              6.00    32.06500     S ( 1.00)

     No symmetry found

   Cartesian axes

     site n.     atom                  positions (alat units)
         1           Mo  tau(   1) = (   0.1920077   0.1654496   0.9337675  )
         2           Mo  tau(   2) = (  -0.0455671   0.5856880   0.9332967  )
         3           Mo  tau(   3) = (   0.6476251   0.1490167   0.9645499  )
         4           Mo  tau(   4) = (   0.4122273   0.5137552   1.0711411  )
         5           Mo  tau(   5) = (  -0.2441303   0.0592412   1.9489196  )
         6           Mo  tau(   6) = (  -0.4849155   0.4952173   1.8853934  )
         7           Mo  tau(   7) = (   0.2821664   0.0547811   1.9592028  )
         8           Mo  tau(   8) = (   0.0113804   0.4933925   1.8780285  )
         9           Mo  tau(   9) = (  -0.3897092  -0.2341653   2.8498419  )
        10           Mo  tau(  10) = (  -0.7291160   0.2631219   2.9820116  )
        11           Mo  tau(  11) = (   0.0303926  -0.1801281   2.9908444  )
        12           Mo  tau(  12) = (  -0.1479062   0.1923969   2.8621430  )
        13           S   tau(  13) = (  -0.0779497   0.2555482   0.1368443  )
        14           S   tau(  14) = (  -0.3928185   0.7384667   0.3004184  )
        15           S   tau(  15) = (   0.3568996   0.2932508   0.3059232  )
        16           S   tau(  16) = (   0.1695569   0.6798904   0.1568085  )
        17           S   tau(  17) = (  -0.0885291   0.1874224   0.6930878  )
        18           S   tau(  18) = (  -0.3549349   0.4998201   0.7824528  )
        19           S   tau(  19) = (   0.4386934   0.0130775   0.7103579  )
        20           S   tau(  20) = (   0.2284197   0.4710437   0.7506221  )
        21           S   tau(  21) = (  -0.0826744  -0.0066370   1.1338292  )
        22           S   tau(  22) = (  -0.3777891   0.3710053   1.2519485  )
        23           S   tau(  23) = (   0.3904218  -0.0211028   1.1838277  )
        24           S   tau(  24) = (   0.1158487   0.4003044   1.2081032  )
        25           S   tau(  25) = (   0.0183016  -0.0805854   1.7159647  )
        26           S   tau(  26) = (  -0.2388057   0.3184653   1.6777761  )
        27           S   tau(  27) = (   0.5141366  -0.0766909   1.7113781  )
        28           S   tau(  28) = (   0.2655328   0.3081048   1.6826717  )
        29           S   tau(  29) = (   0.0132222   0.2185881   2.1430512  )
        30           S   tau(  30) = (  -0.2308019   0.6121489   2.1332950  )
        31           S   tau(  31) = (   0.5186965   0.1961725   2.1874749  )
        32           S   tau(  32) = (   0.2544756   0.5928260   2.1454642  )
        33           S   tau(  33) = (  -0.3018952   0.0046552   2.5920564  )
        34           S   tau(  34) = (  -0.6179490   0.4808973   2.7242183  )
        35           S   tau(  35) = (   0.1350658   0.0409355   2.7295944  )
        36           S   tau(  36) = (  -0.0639112   0.4345454   2.6051502  )

     number of k points=     5  Marzari-Vanderbilt smearing, width (Ry)=  0.0200
                       cart. coord. in units 2pi/alat
        k(    1) = (   0.0000000   0.0000000   0.0000000), wk =   0.2222222
        k(    2) = (   0.0073644   0.3885770   0.0248561), wk =   0.4444444
        k(    3) = (   0.3364107   0.1983527   0.0544254), wk =   0.4444444
        k(    4) = (   0.3437751   0.5869296   0.0792815), wk =   0.4444444
        k(    5) = (   0.3290463  -0.1902243   0.0295693), wk =   0.4444444

     Initial potential from superposition of free atoms

     starting charge  215.98107, renormalised to  216.00000
     Starting wfcs are  204 randomized atomic wfcs

     Self-consistent Calculation

     iteration #  1     ecut=    45.00 Ry     beta= 0.70
     Davidson diagonalization with overlap
     ethr =  1.00E-02,  avg # of iterations =  2.0

     total energy              =    -842.71258822 Ry
     Harris-Foulkes estimate   =    -845.99061388 Ry
     estimated scf accuracy    <       8.77621157 Ry

[...]

     total energy              =    -844.41852320 Ry
     Harris-Foulkes estimate   =    -844.41852329 Ry
     estimated scf accuracy    <       0.00000126 Ry

     iteration # 15     ecut=    45.00 Ry     beta= 0.70
     Davidson diagonalization with overlap
     ethr =  5.81E-10,  avg # of iterations =  1.0

     End of self-consistent calculation

          k = 0.0000 0.0000 0.0000 ( 26807 PWs)   bands (ev):

    -8.0005  -7.8886  -7.7438  -6.9880  -6.8491  -6.7509  -6.6787  -6.6243
    -6.5532  -6.5186  -6.4895  -6.4737  -6.4445  -6.4350  -6.3853  -6.3452
    -6.2718  -6.0716  -6.0020  -5.8841  -5.8621  -5.6745  -5.6342  -5.3361
     0.2305   0.2609   0.3697   0.3838   0.4483   0.5051   0.5358   0.6111
     0.6614   0.7796   0.9835   1.0387   1.1213   1.3359   1.4255   1.5357
     1.5883   1.6657   1.7322   1.7843   1.8079   1.8298   2.0026   2.0381
     2.0753   2.1942   2.2528   2.2894   2.3236   2.3989   2.4226   2.4715
     2.4828   2.4864   2.5990   2.7243   2.7454   2.7765   2.8570   2.8899
     2.9169   2.9918   3.0324   3.0606   3.1425   3.3526   3.3894   3.4326
     3.5949   3.6383   3.6844   3.7241   3.7467   3.8168   3.8730   3.9051
     4.0875   4.1768   4.2853   4.4146   4.5405   4.6124   4.6448   4.6976
     4.7617   4.8544   4.9233   4.9910   5.0560   5.1542   5.1803   5.2370
     5.2893   5.3448   5.4648   5.5206   5.5409   5.6366   5.6609   5.7249
     5.9509   5.9980   6.0470   6.1008   6.3606   6.4017   6.7668   6.8531
     6.8974   6.9919   7.0341   7.0791   7.0969   7.1268   7.1536   7.2730
     7.3296   7.3681   7.4408   7.6069   7.6393   7.7023   7.7644   7.8030
     7.8910   7.9474

[...]

          k = 0.3290-0.1902 0.0296 ( 26792 PWs)   bands (ev):

    -7.7742  -7.6224  -7.4507  -7.0277  -6.9793  -6.8482  -6.7854  -6.7164
    -6.6718  -6.6504  -6.5901  -6.5325  -6.4815  -6.4478  -6.3910  -6.3684
    -6.2592  -6.1827  -6.0186  -5.9784  -5.9219  -5.6664  -5.5674  -5.3401
     0.4123   0.5891   0.6099   0.6993   0.7809   0.8184   0.8365   0.9140
     0.9474   1.0452   1.0811   1.1167   1.2322   1.2800   1.3797   1.4545
     1.5371   1.5982   1.6858   1.7688   1.8048   1.8685   1.9155   1.9533
     2.0564   2.0695   2.1618   2.2103   2.3116   2.3470   2.3751   2.4532
     2.4717   2.5557   2.6139   2.6661   2.7053   2.7484   2.8837   2.9163
     3.0184   3.0778   3.0883   3.1632   3.2286   3.2906   3.3376   3.3829
     3.4163   3.5390   3.6041   3.6305   3.6638   3.7247   3.7632   3.8334
     3.8764   3.9335   4.0272   4.0753   4.1142   4.2395   4.2784   4.3707
     4.5884   4.6450   4.6781   4.7825   4.8373   4.9718   5.0349   5.2018
     5.3357   5.4296   5.5802   5.6331   5.7319   5.7707   5.8072   5.8781
     6.0175   6.1284   6.1657   6.2621   6.4733   6.5782   6.6244   6.7139
     6.7944   6.8846   6.9457   6.9785   7.0123   7.0643   7.1592   7.2612
     7.3356   7.3685   7.4295   7.4742   7.5660   7.6213   7.8273   7.8654
     7.9710   7.9983

     the Fermi energy is     6.3535 ev

!    total energy              =    -844.41852276 Ry
     Harris-Foulkes estimate   =    -844.41852326 Ry
     estimated scf accuracy    <       0.00000054 Ry

     The total energy is the sum of the following terms:

     one-electron contribution =     -44.08310399 Ry
     hartree contribution      =     141.66125756 Ry
     xc contribution           =    -332.76187591 Ry
     ewald contribution        =    -609.23969717 Ry
     smearing contrib. (-TS)   =       0.00489674 Ry

     convergence has been achieved in  15 iterations

     Forces acting on atoms (cartesian axes, Ry/au):

     atom    1 type  1   force =    -0.03676343   -0.01195809    0.01834559
     atom    2 type  1   force =    -0.03846398   -0.01039682    0.03446906
     atom    3 type  1   force =     0.01924875    0.00740928    0.01463085
     atom    4 type  1   force =     0.00762030    0.01335930   -0.02619137
     atom    5 type  1   force =    -0.03749142   -0.00685795   -0.02345860
     atom    6 type  1   force =     0.00307131   -0.05727641    0.04696926
     atom    7 type  1   force =     0.02173342   -0.00443452   -0.02217130
     atom    8 type  1   force =    -0.00096348   -0.01617725    0.04751219
     atom    9 type  1   force =     0.00114002    0.02932945   -0.02982625
     atom   10 type  1   force =     0.02023931   -0.03246658    0.00778700
     atom   11 type  1   force =     0.01545575   -0.03068866    0.00512123
     atom   12 type  1   force =     0.00443769    0.02739546   -0.03967046
     atom   13 type  2   force =    -0.03803046    0.01104907    0.00704978
     atom   14 type  2   force =    -0.00210747   -0.00932568   -0.01286285
     atom   15 type  2   force =     0.00410345   -0.00854138   -0.01127071
     atom   16 type  2   force =    -0.03720488    0.01213887    0.00143020
     atom   17 type  2   force =     0.01315975   -0.03634945    0.01949272
     atom   18 type  2   force =     0.00602320   -0.01955424   -0.00017137
     atom   19 type  2   force =    -0.00391358    0.00274512    0.01293518
     atom   20 type  2   force =     0.02422258    0.01575203    0.01842336
     atom   21 type  2   force =    -0.01230850    0.03582381   -0.00615550
     atom   22 type  2   force =     0.00768599    0.00434192   -0.01976650
     atom   23 type  2   force =     0.02634387   -0.00304310   -0.05122014
     atom   24 type  2   force =    -0.01639683    0.00315384   -0.02259623
     atom   25 type  2   force =     0.00383649    0.02432596   -0.00819256
     atom   26 type  2   force =     0.00859650    0.02205938    0.03429036
     atom   27 type  2   force =     0.00987772    0.00143938   -0.01533960
     atom   28 type  2   force =     0.00288093    0.02785967    0.04085155
     atom   29 type  2   force =     0.00395565   -0.02852434   -0.01515460
     atom   30 type  2   force =    -0.01183433    0.01049854   -0.01783018
     atom   31 type  2   force =    -0.00300586   -0.00043369   -0.02608614
     atom   32 type  2   force =     0.00339553    0.02521903   -0.03012500
     atom   33 type  2   force =    -0.01072802    0.00818529    0.02460378
     atom   34 type  2   force =     0.02634748   -0.00259445    0.00583054
     atom   35 type  2   force =     0.02390287   -0.00752059    0.01267818
     atom   36 type  2   force =    -0.00806631    0.00405781    0.02566854

     Total force =     0.222395     Total SCF correction =     0.001885

     General routines

     Parallel routines

   This run was terminated on:  14:21:32  12Aug2021

   JOB DONE.