     Program PWSCF v.6.4 starts on 23Dec2021 at 22:58:51

     R & G space division:  proc/nbgrp/npool/nimage =      40
     Waiting for input...
     Reading input from standard input
Warning: card    &IONS ignored
Warning: card      ION_DYNAMICS = 'BFGS' ignored
Warning: card   / ignored
Warning: card    &CELL ignored
Warning: card      CELL_DYNAMICS = 'BFGS', ignored
Warning: card    / ignored

     Current dimensions of program PWSCF are:
     Max number of different atomic species (ntypx) = 10
     Max number of k-points (npk) =  40000
     Max angular momentum in pseudopotentials (lmaxx) =  3

     bravais-lattice index     =            0
     lattice parameter (alat)  =       6.0027  a.u.
     unit-cell volume          =    7117.6075 (a.u.)^3
     number of atoms/cell      =           18
     number of atomic types    =            2
     number of electrons       =       108.00
     number of Kohn-Sham states=           65
     kinetic-energy cutoff     =      45.0000  Ry
     charge density cutoff     =     360.0000  Ry
     convergence threshold     =      1.0E-06
     mixing beta               =       0.7000
     number of iterations used =            8  local-TF  mixing
     Exchange-correlation      = SLA PW GGX GGC ( 1  4  2  2 0 0)

     celldm(1)=   6.002737  celldm(2)=   0.000000  celldm(3)=   0.000000
     celldm(4)=   0.000000  celldm(5)=   0.000000  celldm(6)=   0.000000

     crystal axes: (cart. coord. in units of alat)
               a(1) = (   1.000000   0.000000   0.000000 )
               a(2) = (   0.475791   4.272045   0.000000 )
               a(3) = (   0.372455   1.419277   7.702827 )

     reciprocal axes: (cart. coord. in units 2 pi/alat)
               b(1) = (  1.000000 -0.111373 -0.027832 )
               b(2) = (  0.000000  0.234080 -0.043130 )
               b(3) = (  0.000000  0.000000  0.129822 )

     PseudoPot. # 1 for Mo read from file:
     ~/pseudo/Mo.pw91-n-van.UPF
     MD5 check sum: Not computed, couldn't open file
     Pseudo is Ultrasoft + core correction, Zval =  6.0
     Generated by new atomic code, or converted to UPF format
     Using radial grid of  965 points,  3 beta functions with:
                l(1) =   1
                l(2) =   2
                l(3) =   2
     Q(r) pseudized with  8 coefficients,  rinner =    1.000   1.000   1.000
                                                       1.200   1.200

     PseudoPot. # 2 for S  read from file:
     ~/pseudo/S.pw91-van_ak.UPF
     MD5 check sum: Not computed, couldn't open file
     Pseudo is Ultrasoft, Zval =  6.0
     Generated by new atomic code, or converted to UPF format
     Using radial grid of  811 points,  6 beta functions with:
                l(1) =   0
                l(2) =   0
                l(3) =   1
                l(4) =   1
                l(5) =   2
                l(6) =   2
     Q(r) pseudized with  8 coefficients,  rinner =    1.100   1.100   1.100
                                                       1.100   1.100

     atomic species   valence    mass     pseudopotential
        Mo             6.00    95.50000     Mo( 1.00)
        S              6.00    32.06500     S ( 1.00)

     No symmetry found

   Cartesian axes

     site n.     atom                  positions (alat units)
         1           Mo  tau(   1) = (   0.9869628   3.5389416   5.1074409  )
         2           Mo  tau(   2) = (   0.9911526   1.9107228   6.4575459  )
         3           Mo  tau(   3) = (   0.4759225   2.9142888   5.5154026  )
         4           Mo  tau(   4) = (   1.0030627   5.3091681   6.2623187  )
         5           Mo  tau(   5) = (   0.5486464   0.8406502   3.8892303  )
         6           Mo  tau(   6) = (   1.0415420   1.5461990   4.2418517  )
         7           S   tau(   7) = (   0.5175629   2.0969154   6.9938406  )
         8           S   tau(   8) = (   1.4842317   4.7616119   6.1470401  )
         9           S   tau(   9) = (   0.9540658   3.4001840   5.8606126  )
        10           S   tau(  10) = (   1.4586091   5.5029881   6.8087894  )
        11           S   tau(  11) = (   0.5076170   1.5399957   3.6684227  )
        12           S   tau(  12) = (   1.5053718   4.7521980   3.4531816  )
        13           S   tau(  13) = (   0.4795139   2.3803903   6.0508628  )
        14           S   tau(  14) = (   1.5125601   3.9732757   4.8467494  )
        15           S   tau(  15) = (   0.9914685   2.8242608   4.9257318  )
        16           S   tau(  16) = (   0.9902258   1.4092310   5.8246588  )
        17           S   tau(  17) = (   1.0474289   0.8483469   4.4970230  )
        18           S   tau(  18) = (   0.5082019   1.8811727   4.6507421  )

     number of k points=     6  Marzari-Vanderbilt smearing, width (Ry)=  0.0200
                       cart. coord. in units 2pi/alat
        k(    1) = (   0.0000000   0.0000000   0.0000000), wk =   0.2000000
        k(    2) = (   0.0000000  -0.1170400   0.0215651), wk =   0.2000000
        k(    3) = (   0.2000000  -0.0222746  -0.0055664), wk =   0.4000000
        k(    4) = (   0.2000000  -0.1393146   0.0159987), wk =   0.4000000
        k(    5) = (   0.4000000  -0.0445492  -0.0111328), wk =   0.4000000
        k(    6) = (   0.4000000  -0.1615892   0.0104322), wk =   0.4000000

     Initial potential from superposition of free atoms

     starting charge  107.99054, renormalised to  108.00000

     negative rho (up, down):  9.005E-04 0.000E+00
     Starting wfcs are  102 randomized atomic wfcs

     Self-consistent Calculation

     iteration #  1     ecut=    45.00 Ry     beta= 0.70
     Davidson diagonalization with overlap
     ethr =  1.00E-02,  avg # of iterations =  2.0

     negative rho (up, down):  2.939E-04 0.000E+00

     total energy              =    -421.32676514 Ry
     Harris-Foulkes estimate   =    -422.91836420 Ry
     estimated scf accuracy    <       4.26422725 Ry

[...]

     total energy              =    -422.14372689 Ry
     Harris-Foulkes estimate   =    -422.14372644 Ry
     estimated scf accuracy    <       0.00000331 Ry

     iteration # 17     ecut=    45.00 Ry     beta= 0.70
     Davidson diagonalization with overlap
     ethr =  3.06E-09,  avg # of iterations =  2.3

[...]

     End of self-consistent calculation

          k = 0.0000 0.0000 0.0000 ( 36403 PWs)   bands (ev):

   -15.4204 -15.0602 -14.8082 -14.4512 -14.3804 -14.3296 -14.2657 -14.1980
   -13.7002 -13.6802 -13.5136 -13.3482  -7.1986  -6.8412  -6.6370  -6.5676
    -6.2195  -6.1232  -5.8947  -5.7647  -5.6628  -5.5429  -5.3914  -4.9070
    -4.8513  -4.8213  -4.7913  -4.6681  -4.5226  -4.4204  -4.3826  -4.2738
    -4.1654  -4.0146  -3.9510  -3.8658  -3.7058  -3.6088  -3.3232  -3.2042
    -3.0274  -2.9264  -2.9117  -2.6315  -2.6148  -2.5194  -2.3425  -2.2137
    -2.1681  -1.9987  -1.9389  -1.6990  -1.4957  -1.4175  -1.2377  -1.0379
    -1.0140  -0.8910  -0.8892  -0.3298  -0.2557   0.1199   0.2694   0.4080
     0.9218

[...]

          k = 0.4000-0.1616 0.0104 ( 36175 PWs)   bands (ev):

   -14.2817 -14.1002 -13.9727 -13.9051 -13.8733 -13.7336 -13.6137 -13.5608
   -13.3036 -13.2952 -13.0651 -12.8230  -6.8410  -6.7130  -6.6017  -6.5248
    -6.4441  -6.3010  -6.2524  -6.2239  -6.0556  -5.8334  -5.7698  -5.6090
    -5.3733  -5.3109  -5.1752  -5.0484  -4.9568  -4.9188  -4.8069  -4.7085
    -4.6494  -4.5302  -4.4768  -4.3583  -4.2608  -4.2128  -4.1401  -3.9189
    -3.8306  -3.6968  -3.6806  -3.5510  -3.1850  -2.8974  -2.7121  -2.4801
    -2.2508  -1.9280  -1.8518  -1.6948  -1.2640  -1.0905  -0.8085  -0.6910
    -0.5010  -0.2817  -0.0544   0.0037   0.0661   0.1049   0.1930   0.4744
     0.4991

     the Fermi energy is    -1.1270 ev

!    total energy              =    -422.14373109 Ry
     Harris-Foulkes estimate   =    -422.14372710 Ry
     estimated scf accuracy    <       0.00000084 Ry

     The total energy is the sum of the following terms:

     one-electron contribution =   -2329.95187956 Ry
     hartree contribution      =    1195.30726501 Ry
     xc contribution           =    -166.41013664 Ry
     ewald contribution        =     878.91601189 Ry
     smearing contrib. (-TS)   =      -0.00499180 Ry

     convergence has been achieved in  17 iterations

     negative rho (up, down):  1.259E-03 0.000E+00

     Forces acting on atoms (cartesian axes, Ry/au):

     atom    1 type  1   force =     0.03843156   -0.04007259    0.06269512
     atom    2 type  1   force =     0.01002188    0.03657341   -0.02349788
     atom    3 type  1   force =     0.00334452   -0.03370990    0.04363997
     atom    4 type  1   force =    -0.07097821   -0.00955025   -0.00603472
     atom    5 type  1   force =    -0.01524255   -0.00094391    0.04371283
     atom    6 type  1   force =    -0.04144597   -0.06439337   -0.04080323
     atom    7 type  2   force =    -0.01927090   -0.00115431   -0.01500322
     atom    8 type  2   force =     0.00879116   -0.02385222   -0.00183150
     atom    9 type  2   force =     0.01450303   -0.00126036   -0.05166806
     atom   10 type  2   force =     0.03654320    0.00279816    0.02585055
     atom   11 type  2   force =     0.02864380    0.03461988   -0.03939636
     atom   12 type  2   force =     0.00554738    0.00516883    0.01466823
     atom   13 type  2   force =     0.00047664   -0.04126123    0.00024449
     atom   14 type  2   force =    -0.04313840    0.07713422   -0.04796334
     atom   15 type  2   force =    -0.01001787   -0.00575778    0.01626727
     atom   16 type  2   force =     0.03151459    0.04279593   -0.00261756
     atom   17 type  2   force =    -0.00086688   -0.02324775   -0.02796151
     atom   18 type  2   force =     0.02314301    0.04611324    0.04969891

     Total force =     0.241614     Total SCF correction =     0.001918

     General routines

     Parallel routines

   This run was terminated on:  23: 0: 6  23Dec2021

   JOB DONE.