     Program PWSCF v.6.4 starts on 23Dec2021 at 22:38: 9

     R & G space division:  proc/nbgrp/npool/nimage =      40
     Waiting for input...
     Reading input from standard input
Warning: card    &IONS ignored
Warning: card      ION_DYNAMICS = 'BFGS' ignored
Warning: card   / ignored
Warning: card    &CELL ignored
Warning: card      CELL_DYNAMICS = 'BFGS', ignored
Warning: card    / ignored

     Current dimensions of program PWSCF are:
     Max number of different atomic species (ntypx) = 10
     Max number of k-points (npk) =  40000
     Max angular momentum in pseudopotentials (lmaxx) =  3

     bravais-lattice index     =            0
     lattice parameter (alat)  =      12.1130  a.u.
     unit-cell volume          =    4975.0424 (a.u.)^3
     number of atoms/cell      =           21
     number of atomic types    =            2
     number of electrons       =       126.00
     number of Kohn-Sham states=           76
     kinetic-energy cutoff     =      45.0000  Ry
     charge density cutoff     =     360.0000  Ry
     convergence threshold     =      1.0E-06
     mixing beta               =       0.7000
     number of iterations used =            8  local-TF  mixing
     Exchange-correlation      = SLA PW GGX GGC ( 1  4  2  2 0 0)

     celldm(1)=  12.113011  celldm(2)=   0.000000  celldm(3)=   0.000000
     celldm(4)=   0.000000  celldm(5)=   0.000000  celldm(6)=   0.000000

     crystal axes: (cart. coord. in units of alat)
               a(1) = (   1.000000   0.000000   0.000000 )
               a(2) = (   0.049811   1.094744   0.000000 )
               a(3) = (   0.085945   0.141896   2.556983 )

     reciprocal axes: (cart. coord. in units 2 pi/alat)
               b(1) = (  1.000000 -0.045500 -0.031087 )
               b(2) = (  0.000000  0.913455 -0.050691 )
               b(3) = (  0.000000  0.000000  0.391086 )

     PseudoPot. # 1 for Mo read from file:
     ~/pseudo/Mo.pw91-n-van.UPF
     MD5 check sum: Not computed, couldn't open file
     Pseudo is Ultrasoft + core correction, Zval =  6.0
     Generated by new atomic code, or converted to UPF format
     Using radial grid of  965 points,  3 beta functions with:
                l(1) =   1
                l(2) =   2
                l(3) =   2
     Q(r) pseudized with  8 coefficients,  rinner =    1.000   1.000   1.000
                                                       1.200   1.200

     PseudoPot. # 2 for S  read from file:
     ~/pseudo/S.pw91-van_ak.UPF
     MD5 check sum: Not computed, couldn't open file
     Pseudo is Ultrasoft, Zval =  6.0
     Generated by new atomic code, or converted to UPF format
     Using radial grid of  811 points,  6 beta functions with:
                l(1) =   0
                l(2) =   0
                l(3) =   1
                l(4) =   1
                l(5) =   2
                l(6) =   2
     Q(r) pseudized with  8 coefficients,  rinner =    1.100   1.100   1.100
                                                       1.100   1.100

     atomic species   valence    mass     pseudopotential
        Mo             6.00    95.50000     Mo( 1.00)
        S              6.00    32.06500     S ( 1.00)

     No symmetry found

   Cartesian axes

     site n.     atom                  positions (alat units)
         1           Mo  tau(   1) = (   0.5376313   0.7934766   0.0175581  )
         2           Mo  tau(   2) = (   0.6597434   0.2263908   1.1815641  )
         3           Mo  tau(   3) = (   0.2996106   0.6105490   0.3518792  )
         4           Mo  tau(   4) = (   0.0469894   0.7919023   0.0235138  )
         5           Mo  tau(   5) = (   0.7891196   0.6115808   0.3608794  )
         6           Mo  tau(   6) = (   0.6732931   0.7012394   1.1652599  )
         7           Mo  tau(   7) = (   0.7375066   0.4420679   0.7989442  )
         8           S   tau(   8) = (   0.9171285   0.7400572   0.9036153  )
         9           S   tau(   9) = (   0.4706639   1.0208117   1.1588988  )
        10           S   tau(  10) = (   0.5410777   0.3511550   0.4903329  )
        11           S   tau(  11) = (   0.4306314   0.4718383   1.0124145  )
        12           S   tau(  12) = (   0.3762686   1.2060915   2.4961499  )
        13           S   tau(  13) = (   0.7884621   0.4965737   0.0059377  )
        14           S   tau(  14) = (   0.8527760   0.9988571   1.3846184  )
        15           S   tau(  15) = (   0.0453504   0.3748003   0.5134213  )
        16           S   tau(  16) = (   0.9293078   0.1664962   0.9469651  )
        17           S   tau(  17) = (   0.7642073   0.4734411   1.4356820  )
        18           S   tau(  18) = (   0.5408789   0.8927140   0.3769308  )
        19           S   tau(  19) = (   0.8820994   1.0548518   2.3264422  )
        20           S   tau(  20) = (   1.0434097   0.8916047   0.3823518  )
        21           S   tau(  21) = (   0.3724709   0.6565911   2.5499378  )

     number of k points=     5  Marzari-Vanderbilt smearing, width (Ry)=  0.0200
                       cart. coord. in units 2pi/alat
        k(    1) = (   0.0000000   0.0000000   0.0000000), wk =   0.2222222
        k(    2) = (   0.0000000   0.3044851  -0.0168970), wk =   0.4444444
        k(    3) = (   0.3333333  -0.0151668  -0.0103623), wk =   0.4444444
        k(    4) = (   0.3333333   0.2893183  -0.0272593), wk =   0.4444444
        k(    5) = (   0.3333333  -0.3196519   0.0065346), wk =   0.4444444

     Initial potential from superposition of free atoms

     starting charge  125.98896, renormalised to  126.00000

     negative rho (up, down):  8.630E-08 0.000E+00
     Starting wfcs are  119 randomized atomic wfcs

     Self-consistent Calculation

     iteration #  1     ecut=    45.00 Ry     beta= 0.70
     Davidson diagonalization with overlap
     ethr =  1.00E-02,  avg # of iterations =  2.0

     total energy              =    -491.51532555 Ry
     Harris-Foulkes estimate   =    -493.47604839 Ry
     estimated scf accuracy    <       5.35016556 Ry

[...]

     negative rho (up, down):  1.875E-07 0.000E+00

[...]

     total energy              =    -492.54858831 Ry
     Harris-Foulkes estimate   =    -492.54858857 Ry
     estimated scf accuracy    <       0.00000112 Ry

     iteration # 15     ecut=    45.00 Ry     beta= 0.70
     Davidson diagonalization with overlap
     ethr =  8.89E-10,  avg # of iterations =  3.2

[...]

     End of self-consistent calculation

          k = 0.0000 0.0000 0.0000 ( 25323 PWs)   bands (ev):

   -12.1798 -11.7497 -11.5649 -11.2667 -11.0701 -11.0467 -10.9615 -10.8221
   -10.8089 -10.5945 -10.4662 -10.3395 -10.2194  -9.4366  -4.2239  -3.9653
    -3.8433  -3.6978  -3.2876  -3.2316  -3.0261  -2.9608  -2.7725  -2.7211
    -2.5394  -2.4149  -2.3230  -2.2594  -2.1512  -2.0978  -2.0486  -1.9563
    -1.9214  -1.8686  -1.8272  -1.7722  -1.7382  -1.5601  -1.5499  -1.4198
    -1.2882  -1.2132  -1.1527  -0.9525  -0.7953  -0.6883  -0.6131  -0.4229
    -0.2549  -0.1330  -0.0247  -0.0156   0.0724   0.2013   0.3482   0.5200
     0.7201   0.8720   0.8845   1.1223   1.2031   1.2870   1.5369   1.7773
     1.9002   2.0840   2.3304   2.6124   2.6447   2.8391   2.9095   2.9202
     3.1827   3.2824   3.3720   3.5022

[...]

          k = 0.3333-0.3197 0.0065 ( 25374 PWs)   bands (ev):

   -11.8940 -11.6055 -11.4682 -11.2937 -11.2323 -11.1027 -11.0462 -10.9829
   -10.7660 -10.6696 -10.5588 -10.3953 -10.2483  -9.4621  -3.6335  -3.5199
    -3.3706  -3.2721  -3.2460  -3.1086  -2.9899  -2.9097  -2.7489  -2.6835
    -2.5723  -2.5003  -2.4491  -2.3801  -2.3263  -2.1932  -2.1180  -2.0856
    -2.0255  -1.9440  -1.9105  -1.8082  -1.7112  -1.6456  -1.5213  -1.4466
    -1.3363  -1.2766  -1.1928  -1.1291  -0.9241  -0.8593  -0.7740  -0.6628
    -0.4576  -0.3813  -0.2614  -0.1469  -0.0362   0.1561   0.4383   0.5757
     0.6160   0.8843   1.1198   1.1784   1.3152   1.4110   1.5468   1.7368
     1.8706   1.9809   2.3642   2.4795   2.6465   2.7448   2.8251   2.9406
     3.0954   3.3028   3.4498   3.5780

     the Fermi energy is     1.6339 ev

!    total energy              =    -492.54858801 Ry
     Harris-Foulkes estimate   =    -492.54858855 Ry
     estimated scf accuracy    <       0.00000059 Ry

     The total energy is the sum of the following terms:

     one-electron contribution =    -686.51834354 Ry
     hartree contribution      =     392.19794910 Ry
     xc contribution           =    -193.79532150 Ry
     ewald contribution        =      -4.43594675 Ry
     smearing contrib. (-TS)   =       0.00307469 Ry

     convergence has been achieved in  15 iterations

     negative rho (up, down):  5.535E-06 0.000E+00

     Forces acting on atoms (cartesian axes, Ry/au):

     atom    1 type  1   force =    -0.00394863    0.00410403   -0.00375945
     atom    2 type  1   force =     0.03241020   -0.01397218    0.00837614
     atom    3 type  1   force =    -0.02443548   -0.01129391    0.00840516
     atom    4 type  1   force =    -0.01744207    0.00600411    0.00790268
     atom    5 type  1   force =     0.01934310   -0.00791394   -0.05901170
     atom    6 type  1   force =     0.03440887    0.01600220    0.00557737
     atom    7 type  1   force =     0.02575900   -0.00727620    0.04972497
     atom    8 type  2   force =     0.00693859   -0.00809877   -0.00288144
     atom    9 type  2   force =     0.00251200    0.00296457    0.00121619
     atom   10 type  2   force =     0.00531318    0.00699603   -0.00354762
     atom   11 type  2   force =    -0.04190280   -0.01801282   -0.02105013
     atom   12 type  2   force =     0.00540918   -0.01111573   -0.00700997
     atom   13 type  2   force =     0.00219676    0.00168651    0.01062998
     atom   14 type  2   force =    -0.03822291    0.00840136   -0.03708110
     atom   15 type  2   force =    -0.02177436    0.01290259    0.00527196
     atom   16 type  2   force =    -0.02495948    0.02017974    0.00585214
     atom   17 type  2   force =     0.01356023   -0.01454758   -0.00295982
     atom   18 type  2   force =     0.00391889    0.01775817    0.00996887
     atom   19 type  2   force =    -0.00287904    0.00005365    0.02004648
     atom   20 type  2   force =     0.00837614    0.00488614    0.00283239
     atom   21 type  2   force =     0.01541862   -0.00970796    0.00149691

     Total force =     0.143298     Total SCF correction =     0.001448

     General routines

     Parallel routines

   This run was terminated on:  22:39: 1  23Dec2021

   JOB DONE.