     Program PWSCF v.6.4 starts on 24Dec2021 at 23: 1: 2

     R & G space division:  proc/nbgrp/npool/nimage =      40
     Waiting for input...
     Reading input from standard input
Warning: card    &IONS ignored
Warning: card      ION_DYNAMICS = 'BFGS' ignored
Warning: card   / ignored
Warning: card    &CELL ignored
Warning: card      CELL_DYNAMICS = 'BFGS', ignored
Warning: card    / ignored

     Current dimensions of program PWSCF are:
     Max number of different atomic species (ntypx) = 10
     Max number of k-points (npk) =  40000
     Max angular momentum in pseudopotentials (lmaxx) =  3

     bravais-lattice index     =            0
     lattice parameter (alat)  =      18.4772  a.u.
     unit-cell volume          =    7292.2688 (a.u.)^3
     number of atoms/cell      =           48
     number of atomic types    =            2
     number of electrons       =       288.00
     number of Kohn-Sham states=          173
     kinetic-energy cutoff     =      45.0000  Ry
     charge density cutoff     =     360.0000  Ry
     convergence threshold     =      1.0E-06
     mixing beta               =       0.7000
     number of iterations used =            8  local-TF  mixing
     Exchange-correlation      = SLA PW GGX GGC ( 1  4  2  2 0 0)

     celldm(1)=  18.477196  celldm(2)=   0.000000  celldm(3)=   0.000000
     celldm(4)=   0.000000  celldm(5)=   0.000000  celldm(6)=   0.000000

     crystal axes: (cart. coord. in units of alat)
               a(1) = (   1.000000   0.000000   0.000000 )
               a(2) = (   0.072983   1.077500   0.000000 )
               a(3) = (   0.010202   0.104553   1.072845 )

     reciprocal axes: (cart. coord. in units 2 pi/alat)
               b(1) = (  1.000000 -0.067734 -0.002909 )
               b(2) = (  0.000000  0.928074 -0.090445 )
               b(3) = (  0.000000  0.000000  0.932101 )

     PseudoPot. # 1 for Mo read from file:
     ~/pseudo/Mo.pw91-n-van.UPF
     MD5 check sum: Not computed, couldn't open file
     Pseudo is Ultrasoft + core correction, Zval =  6.0
     Generated by new atomic code, or converted to UPF format
     Using radial grid of  965 points,  3 beta functions with:
                l(1) =   1
                l(2) =   2
                l(3) =   2
     Q(r) pseudized with  8 coefficients,  rinner =    1.000   1.000   1.000
                                                       1.200   1.200

     PseudoPot. # 2 for S  read from file:
     ~/pseudo/S.pw91-van_ak.UPF
     MD5 check sum: Not computed, couldn't open file
     Pseudo is Ultrasoft, Zval =  6.0
     Generated by new atomic code, or converted to UPF format
     Using radial grid of  811 points,  6 beta functions with:
                l(1) =   0
                l(2) =   0
                l(3) =   1
                l(4) =   1
                l(5) =   2
                l(6) =   2
     Q(r) pseudized with  8 coefficients,  rinner =    1.100   1.100   1.100
                                                       1.100   1.100

     atomic species   valence    mass     pseudopotential
        Mo             6.00    95.50000     Mo( 1.00)
        S              6.00    32.06500     S ( 1.00)

     No symmetry found

   Cartesian axes

     site n.     atom                  positions (alat units)
         1           Mo  tau(   1) = (   0.6556556   0.1715332   0.3426740  )
         2           Mo  tau(   2) = (   0.7004048   0.4004036   0.1712510  )
         3           Mo  tau(   3) = (   0.8716808   0.1337105   0.1529293  )
         4           Mo  tau(   4) = (   0.8984205   0.3225181   0.3564868  )
         5           Mo  tau(   5) = (   0.2673485   0.9276942   0.5807484  )
         6           Mo  tau(   6) = (   0.1807442   0.9569472   0.1614559  )
         7           Mo  tau(   7) = (   0.3731264   0.7428844   0.2012191  )
         8           Mo  tau(   8) = (   0.4110341   0.9945054   0.3618183  )
         9           Mo  tau(   9) = (   0.1146798   0.1730446   0.8755493  )
        10           Mo  tau(  10) = (   0.1075033   0.3443112   0.6267358  )
        11           Mo  tau(  11) = (   0.3710285   0.1177534   0.5754707  )
        12           Mo  tau(  12) = (   0.3592889   0.3365013   0.7845444  )
        13           Mo  tau(  13) = (   0.7335978   0.8449027   0.9534804  )
        14           Mo  tau(  14) = (   0.7113892   1.0250470   0.7220909  )
        15           Mo  tau(  15) = (   0.9391731   0.8424465   0.6967443  )
        16           Mo  tau(  16) = (   0.9458965   1.0495478   0.9113554  )
        17           S   tau(  17) = (   0.6338854   0.1816856   0.0961314  )
        18           S   tau(  18) = (   0.3517416   0.1702202   0.9541381  )
        19           S   tau(  19) = (   0.6765306   0.4072825   0.4071646  )
        20           S   tau(  20) = (   0.0580283   0.4935032   0.4308501  )
        21           S   tau(  21) = (   0.1148244   0.1158296   0.0687171  )
        22           S   tau(  22) = (   0.4598904   0.5058723   0.1654194  )
        23           S   tau(  23) = (   0.3968661   0.1637129   0.3311621  )
        24           S   tau(  24) = (   0.3361087   0.3720128   0.5499855  )
        25           S   tau(  25) = (   0.1460822   0.7098454   0.1586490  )
        26           S   tau(  26) = (   0.9678422   0.7964265   0.9433470  )
        27           S   tau(  27) = (   0.1842325   1.0563854   0.3900004  )
        28           S   tau(  28) = (   0.6302499   1.0379233   0.4732305  )
        29           S   tau(  29) = (   0.7437402   0.6501742   0.1139123  )
        30           S   tau(  30) = (   0.9310336   0.9624393   0.1009548  )
        31           S   tau(  31) = (   0.8626124   0.7171828   0.4943833  )
        32           S   tau(  32) = (   0.9385873   1.0871839   0.6657818  )
        33           S   tau(  33) = (   0.1227980   0.1008294   0.6377177  )
        34           S   tau(  34) = (   0.8719681   0.0841975   0.4003451  )
        35           S   tau(  35) = (   0.1460669   0.4228513   0.8639797  )
        36           S   tau(  36) = (   0.5090952   0.5001262   0.8594683  )
        37           S   tau(  37) = (   0.5600887   0.1954954   0.7136166  )
        38           S   tau(  38) = (   0.9124164   0.4934077   0.7045328  )
        39           S   tau(  39) = (   0.8864932   0.2230053   0.9490094  )
        40           S   tau(  40) = (   0.9368963   0.3777242   0.1169864  )
        41           S   tau(  41) = (   0.6936508   0.7732020   0.7324278  )
        42           S   tau(  42) = (   0.4038804   0.7648390   0.4435866  )
        43           S   tau(  43) = (   0.7034502   1.0760982   0.9639371  )
        44           S   tau(  44) = (   0.1882643   1.0239731   0.9755120  )
        45           S   tau(  45) = (   0.1661926   0.7390319   0.6909332  )
        46           S   tau(  46) = (   0.4458566   0.9977176   0.7324804  )
        47           S   tau(  47) = (   0.4915193   0.8099013   1.0241559  )
        48           S   tau(  48) = (   0.4351037   0.9603473   0.1262241  )

     number of k points=     8  Marzari-Vanderbilt smearing, width (Ry)=  0.0200
                       cart. coord. in units 2pi/alat
        k(    1) = (   0.0000000   0.0000000   0.0000000), wk =   0.2500000
        k(    2) = (   0.0000000   0.0000000  -0.4660504), wk =   0.2500000
        k(    3) = (   0.0000000  -0.4640371   0.0452223), wk =   0.2500000
        k(    4) = (   0.0000000  -0.4640371  -0.4208280), wk =   0.2500000
        k(    5) = (  -0.5000000   0.0338669   0.0014544), wk =   0.2500000
        k(    6) = (  -0.5000000   0.0338669  -0.4645960), wk =   0.2500000
        k(    7) = (  -0.5000000  -0.4301701   0.0466767), wk =   0.2500000
        k(    8) = (  -0.5000000  -0.4301701  -0.4193736), wk =   0.2500000

     Initial potential from superposition of free atoms

     starting charge  287.97477, renormalised to  288.00000
     Starting wfcs are  272 randomized atomic wfcs

     Self-consistent Calculation

     iteration #  1     ecut=    45.00 Ry     beta= 0.70
     Davidson diagonalization with overlap
     ethr =  1.00E-02,  avg # of iterations =  2.0

     total energy              =   -1122.98866038 Ry
     Harris-Foulkes estimate   =   -1127.41273573 Ry
     estimated scf accuracy    <      12.38360318 Ry

[...]

     iteration #  8     ecut=    45.00 Ry     beta= 0.70
     Davidson diagonalization with overlap
     c_bands:  1 eigenvalues not converged
     ethr =  1.71E-06,  avg # of iterations = 12.8

[...]

     total energy              =   -1125.43927132 Ry
     Harris-Foulkes estimate   =   -1125.43927209 Ry
     estimated scf accuracy    <       0.00000556 Ry

     iteration # 15     ecut=    45.00 Ry     beta= 0.70
     Davidson diagonalization with overlap
     ethr =  8.87E-10,  avg # of iterations =  3.0

     End of self-consistent calculation

          k = 0.0000 0.0000 0.0000 ( 37159 PWs)   bands (ev):

    -8.9953  -8.1927  -7.9531  -7.9146  -7.7871  -7.6899  -7.5911  -7.5331
    -7.4975  -7.4522  -7.3477  -7.3093  -7.2216  -7.2072  -7.1179  -7.0564
    -6.9141  -6.8867  -6.8175  -6.7430  -6.6948  -6.6050  -6.5891  -6.5344
    -6.3614  -6.3217  -6.2325  -5.9167  -5.8268  -5.7890  -5.6514  -5.5477
    -0.6762  -0.5100  -0.3188  -0.1530  -0.0009   0.1040   0.2144   0.3340
     0.3538   0.4103   0.5038   0.5294   0.5742   0.6087   0.7692   0.7902
     0.7957   0.8497   0.9336   0.9952   1.0198   1.0785   1.1396   1.1852
     1.2492   1.2599   1.2982   1.3443   1.3953   1.4395   1.4480   1.5395
     1.5773   1.6118   1.6565   1.7359   1.7456   1.8189   1.8409   1.8818
     1.9048   1.9429   1.9632   2.0185   2.0546   2.1288   2.1699   2.2087
     2.2750   2.2903   2.3458   2.3694   2.4285   2.4763   2.5137   2.5438
     2.6027   2.6490   2.7173   2.7251   2.7734   2.7987   2.8713   2.8788
     2.9408   2.9957   3.0430   3.1011   3.1147   3.1505   3.2302   3.2909
     3.3515   3.4519   3.4607   3.5585   3.6109   3.6657   3.7303   3.8027
     3.8552   3.9402   3.9829   4.0135   4.0942   4.1285   4.1749   4.2284
     4.2870   4.3415   4.4120   4.4670   4.5072   4.6343   4.6680   4.7248
     4.8276   4.8538   4.8813   4.9585   5.0754   5.1396   5.1782   5.2926
     5.3538   5.4204   5.4627   5.5622   5.5755   5.6535   5.6968   5.7558
     5.8272   5.8799   5.9627   6.0461   6.0864   6.1558   6.1950   6.2436
     6.2487   6.3740   6.5071   6.6178   6.6946   6.7159   6.8576   6.9185
     6.9727   7.0454   7.0798   7.1408   7.1751   7.2845   7.3334   7.3763
     7.4573   7.5173   7.5890   7.6524   7.7059

[...]

          k = 0.0000-0.4640-0.4208 ( 37208 PWs)   bands (ev):

[...]

          k =-0.5000 0.0339 0.0015 ( 37226 PWs)   bands (ev):

[...]

          k =-0.5000-0.4302-0.4194 ( 37186 PWs)   bands (ev):

    -8.9147  -8.2673  -8.1377  -7.9289  -7.6934  -7.6513  -7.5938  -7.5586
    -7.5157  -7.4231  -7.3861  -7.2903  -7.2147  -7.1999  -7.1115  -6.9926
    -6.9614  -6.8571  -6.8411  -6.7251  -6.6584  -6.5808  -6.5638  -6.5611
    -6.3659  -6.2999  -6.2367  -5.9280  -5.8078  -5.7911  -5.6710  -5.5292
    -0.7461  -0.6240  -0.2390  -0.1586  -0.0326   0.1836   0.2625   0.3004
     0.3412   0.3655   0.4063   0.4831   0.6368   0.6673   0.7084   0.7869
     0.8190   0.8620   0.9239   0.9576   1.0068   1.0633   1.1046   1.1598
     1.1926   1.2349   1.3154   1.3427   1.3719   1.4202   1.4584   1.5174
     1.5630   1.6002   1.6542   1.7142   1.7499   1.7665   1.8183   1.8622
     1.8838   1.9431   2.0140   2.0503   2.0981   2.1427   2.1765   2.2146
     2.2402   2.3260   2.3753   2.4097   2.4452   2.4936   2.5052   2.5673
     2.6470   2.6960   2.7348   2.7603   2.8177   2.8668   2.9093   2.9384
     3.0123   3.0776   3.1323   3.1657   3.2084   3.2700   3.3041   3.3397
     3.3491   3.4443   3.5031   3.5480   3.5712   3.6308   3.7224   3.7495
     3.8335   3.8415   3.9044   3.9780   4.0319   4.0650   4.1261   4.1956
     4.2721   4.3097   4.4379   4.4774   4.4872   4.6156   4.6801   4.7101
     4.8099   4.8525   4.9201   5.0119   5.0596   5.1059   5.1817   5.2623
     5.3799   5.4516   5.4647   5.5112   5.5974   5.6618   5.7207   5.7654
     5.8195   5.8449   5.8883   6.0166   6.0760   6.1786   6.2059   6.2429
     6.2611   6.3473   6.5948   6.6358   6.7056   6.7379   6.8042   6.8852
     6.9310   7.0212   7.0683   7.1506   7.1727   7.2643   7.3087   7.3317
     7.3731   7.4929   7.5766   7.6293   7.6890

     the Fermi energy is     5.7942 ev

!    total energy              =   -1125.43927137 Ry
     Harris-Foulkes estimate   =   -1125.43927164 Ry
     estimated scf accuracy    <       0.00000034 Ry

     The total energy is the sum of the following terms:

     one-electron contribution =    -170.22718024 Ry
     hartree contribution      =     239.86290072 Ry
     xc contribution           =    -444.09789030 Ry
     ewald contribution        =    -750.97246474 Ry
     smearing contrib. (-TS)   =      -0.00463681 Ry

     convergence has been achieved in  15 iterations

     Forces acting on atoms (cartesian axes, Ry/au):

     atom    1 type  1   force =    -0.07676376   -0.02265580    0.02271513
     atom    2 type  1   force =    -0.02783669    0.09366857   -0.03115876
     atom    3 type  1   force =     0.01635371   -0.00529150   -0.06842102
     atom    4 type  1   force =     0.04514508    0.04488182    0.01738621
     atom    5 type  1   force =    -0.00081256   -0.02711754    0.05407094
     atom    6 type  1   force =     0.01772554    0.02110282   -0.02471329
     atom    7 type  1   force =     0.03234770   -0.03612825   -0.03034010
     atom    8 type  1   force =     0.02258234    0.00491485   -0.07495018
     atom    9 type  1   force =     0.01343646    0.01946839    0.04031896
     atom   10 type  1   force =    -0.04453363    0.06397191    0.04189963
     atom   11 type  1   force =     0.03217210    0.01508642   -0.03211502
     atom   12 type  1   force =     0.08189260    0.07304716    0.07346447
     atom   13 type  1   force =    -0.03942431   -0.03593675    0.05874183
     atom   14 type  1   force =    -0.04159813   -0.00653724    0.02143592
     atom   15 type  1   force =    -0.01485695   -0.07081687   -0.02869733
     atom   16 type  1   force =    -0.03488002   -0.00745327    0.03765248
     atom   17 type  2   force =     0.00308510   -0.02224388    0.02463071
     atom   18 type  2   force =    -0.01823788   -0.00276560    0.00047408
     atom   19 type  2   force =    -0.00165868   -0.00733055    0.00945405
     atom   20 type  2   force =    -0.02000976   -0.03492208   -0.01790908
     atom   21 type  2   force =     0.00447733   -0.01343722    0.01667192
     atom   22 type  2   force =     0.00784903    0.00598159    0.00121532
     atom   23 type  2   force =    -0.01321125   -0.00384267   -0.00869494
     atom   24 type  2   force =     0.01143017    0.00039872   -0.03146040
     atom   25 type  2   force =     0.02002669    0.02487024    0.02360273
     atom   26 type  2   force =     0.02176640    0.01704888   -0.02038934
     atom   27 type  2   force =    -0.00568037   -0.02043945   -0.03812506
     atom   28 type  2   force =     0.03540460    0.01489428    0.01190902
     atom   29 type  2   force =     0.01048843   -0.01844064   -0.00449819
     atom   30 type  2   force =     0.00489083    0.00495912    0.02070612
     atom   31 type  2   force =     0.03753760    0.01831114    0.04781961
     atom   32 type  2   force =    -0.01613266   -0.03916004    0.01710409
     atom   33 type  2   force =     0.02151403    0.00952229    0.03481183
     atom   34 type  2   force =    -0.02284012    0.02106195   -0.04756331
     atom   35 type  2   force =    -0.01435564   -0.01787931   -0.01236782
     atom   36 type  2   force =    -0.04673269   -0.03391144   -0.01964885
     atom   37 type  2   force =     0.00733828   -0.00764742   -0.02695324
     atom   38 type  2   force =     0.02710191   -0.03454960   -0.02827675
     atom   39 type  2   force =    -0.00445989    0.00129735    0.00185942
     atom   40 type  2   force =    -0.00583953   -0.02297644    0.02695627
     atom   41 type  2   force =     0.00312062    0.02289754   -0.02363884
     atom   42 type  2   force =     0.00794430   -0.02601027    0.01334350
     atom   43 type  2   force =     0.00701633    0.02045482   -0.00531010
     atom   44 type  2   force =     0.00343970   -0.00225424   -0.01965161
     atom   45 type  2   force =     0.00215272    0.04083514   -0.01695579
     atom   46 type  2   force =    -0.02800084   -0.01155426    0.00201987
     atom   47 type  2   force =    -0.00109596   -0.00759236    0.00490995
     atom   48 type  2   force =    -0.01927828    0.00021972   -0.01333503

     Total force =     0.357482     Total SCF correction =     0.001022

     General routines

     Parallel routines

   This run was terminated on:  23: 5:54  24Dec2021

   JOB DONE.