     Program PWSCF v.6.4 starts on 14Oct2021 at 11:40:10

     R & G space division:  proc/nbgrp/npool/nimage =      40
     Waiting for input...
     Reading input from standard input
Warning: card    &IONS ignored
Warning: card      ION_DYNAMICS = 'BFGS' ignored
Warning: card   / ignored
Warning: card    &CELL ignored
Warning: card      CELL_DYNAMICS = 'BFGS', ignored
Warning: card    / ignored

     Current dimensions of program PWSCF are:
     Max number of different atomic species (ntypx) = 10
     Max number of k-points (npk) =  40000
     Max angular momentum in pseudopotentials (lmaxx) =  3

     bravais-lattice index     =            0
     lattice parameter (alat)  =      12.1403  a.u.
     unit-cell volume          =    5302.1956 (a.u.)^3
     number of atoms/cell      =           24
     number of atomic types    =            2
     number of electrons       =       144.00
     number of Kohn-Sham states=           86
     kinetic-energy cutoff     =      45.0000  Ry
     charge density cutoff     =     360.0000  Ry
     convergence threshold     =      1.0E-06
     mixing beta               =       0.7000
     number of iterations used =            8  local-TF  mixing
     Exchange-correlation      = SLA PW GGX GGC ( 1  4  2  2 0 0)

     celldm(1)=  12.140345  celldm(2)=   0.000000  celldm(3)=   0.000000
     celldm(4)=   0.000000  celldm(5)=   0.000000  celldm(6)=   0.000000

     crystal axes: (cart. coord. in units of alat)
               a(1) = (   1.000000   0.000000   0.000000 )
               a(2) = (  -0.499560   0.865804   0.000000 )
               a(3) = (  -0.119960  -0.153024   3.422498 )

     reciprocal axes: (cart. coord. in units 2 pi/alat)
               b(1) = (  1.000000  0.576990  0.060848 )
               b(2) = (  0.000000  1.154996  0.051641 )
               b(3) = (  0.000000  0.000000  0.292184 )

     PseudoPot. # 1 for Mo read from file:
     ~/pseudo/Mo.pw91-n-van.UPF
     MD5 check sum: Not computed, couldn't open file
     Pseudo is Ultrasoft + core correction, Zval =  6.0
     Generated by new atomic code, or converted to UPF format
     Using radial grid of  965 points,  3 beta functions with:
                l(1) =   1
                l(2) =   2
                l(3) =   2
     Q(r) pseudized with  8 coefficients,  rinner =    1.000   1.000   1.000
                                                       1.200   1.200

     PseudoPot. # 2 for S  read from file:
     ~/pseudo/S.pw91-van_ak.UPF
     MD5 check sum: Not computed, couldn't open file
     Pseudo is Ultrasoft, Zval =  6.0
     Generated by new atomic code, or converted to UPF format
     Using radial grid of  811 points,  6 beta functions with:
                l(1) =   0
                l(2) =   0
                l(3) =   1
                l(4) =   1
                l(5) =   2
                l(6) =   2
     Q(r) pseudized with  8 coefficients,  rinner =    1.100   1.100   1.100
                                                       1.100   1.100

     atomic species   valence    mass     pseudopotential
        Mo             6.00    95.50000     Mo( 1.00)
        S              6.00    32.06500     S ( 1.00)

     No symmetry found

   Cartesian axes

     site n.     atom                  positions (alat units)
         1           Mo  tau(   1) = (   0.4238558   0.6194023   0.8232763  )
         2           Mo  tau(   2) = (  -0.0742658   0.6179302   0.8191427  )
         3           Mo  tau(   3) = (   0.6739482   0.1836601   0.8195336  )
         4           Mo  tau(   4) = (   0.1725334   0.1840137   0.8242550  )
         5           Mo  tau(   5) = (  -0.0470593   0.0887764   2.6084915  )
         6           Mo  tau(   6) = (   0.4511939   0.0927416   2.6104225  )
         7           Mo  tau(   7) = (  -0.2990882   0.5245394   2.6116181  )
         8           Mo  tau(   8) = (   0.2019525   0.5243550   2.6113736  )
         9           S   tau(   9) = (   0.9246847   0.0402979   0.5754440  )
        10           S   tau(  10) = (   0.4211768   0.0416800   0.5742351  )
        11           S   tau(  11) = (   0.6731873   0.4745777   0.5754421  )
        12           S   tau(  12) = (   0.1768061   0.4717147   0.5768536  )
        13           S   tau(  13) = (   0.2004726   0.2349108   2.8562352  )
        14           S   tau(  14) = (  -0.2957965   0.2339715   2.8548382  )
        15           S   tau(  15) = (  -0.0484966   0.6701908   2.8569132  )
        16           S   tau(  16) = (  -0.5483966   0.6682669   2.8583830  )
        17           S   tau(  17) = (   0.2015478   0.2368125   2.3630695  )
        18           S   tau(  18) = (   0.7026173   0.2359478   2.3648642  )
        19           S   tau(  19) = (  -0.0492117   0.6695944   2.3666521  )
        20           S   tau(  20) = (   0.4513375   0.6652221   2.3626324  )
        21           S   tau(  21) = (  -0.0790012   0.0414796   1.0714605  )
        22           S   tau(  22) = (   0.4251739   0.0390465   1.0663883  )
        23           S   tau(  23) = (  -0.3237320   0.4728570   1.0640181  )
        24           S   tau(  24) = (   0.1737789   0.4741925   1.0689032  )

     number of k points=     5  Marzari-Vanderbilt smearing, width (Ry)=  0.0200
                       cart. coord. in units 2pi/alat
        k(    1) = (   0.0000000   0.0000000   0.0000000), wk =   0.2222222
        k(    2) = (   0.0000000   0.3849987   0.0172138), wk =   0.4444444
        k(    3) = (   0.3333333   0.1923299   0.0202828), wk =   0.4444444
        k(    4) = (   0.3333333   0.5773286   0.0374966), wk =   0.4444444
        k(    5) = (   0.3333333  -0.1926688   0.0030691), wk =   0.4444444

     Initial potential from superposition of free atoms

     starting charge  143.98738, renormalised to  144.00000

     negative rho (up, down):  8.324E-06 0.000E+00
     Starting wfcs are  136 randomized atomic wfcs

     Self-consistent Calculation

     iteration #  1     ecut=    45.00 Ry     beta= 0.70
     Davidson diagonalization with overlap
     ethr =  1.00E-02,  avg # of iterations =  2.0

     total energy              =    -562.82861409 Ry
     Harris-Foulkes estimate   =    -564.56439669 Ry
     estimated scf accuracy    <       4.43623290 Ry

[...]

     negative rho (up, down):  9.293E-08 0.000E+00

[...]

     total energy              =    -563.69044385 Ry
     Harris-Foulkes estimate   =    -563.69044398 Ry
     estimated scf accuracy    <       0.00000224 Ry

     iteration # 13     ecut=    45.00 Ry     beta= 0.70
     Davidson diagonalization with overlap
     ethr =  1.55E-09,  avg # of iterations =  3.4

[...]

     End of self-consistent calculation

          k = 0.0000 0.0000 0.0000 ( 26969 PWs)   bands (ev):

   -12.2401 -12.2376 -11.0486 -11.0465 -10.5057 -10.5009 -10.4899 -10.4891
   -10.4756 -10.4737 -10.2386 -10.2380 -10.2285 -10.2262 -10.2211 -10.2210
    -3.8765  -3.8744  -3.8694  -3.8678  -3.8657  -3.8638  -3.7176  -3.7156
    -2.9352  -2.9323  -2.9299  -2.9293  -2.9252  -2.9232  -2.2453  -2.2438
    -2.2354  -2.2344  -2.2220  -2.2212  -1.3360  -1.3350  -1.3340  -1.3328
    -1.3284  -1.3254  -0.8161  -0.8145  -0.8112  -0.8084  -0.1348  -0.1315
    -0.0926  -0.0917  -0.0644  -0.0637   0.0642   0.0722   0.3021   0.3048
     0.3098   0.3116   0.8087   0.8111   0.8342   0.8382   0.8593   0.8610
     1.0978   1.1002   1.1145   1.1150   1.1203   1.1207   1.7116   1.7212
     3.7732   3.7766   3.7882   3.7886   3.8088   3.8089   4.3079   4.3104
     4.3124   4.3129   4.3155   4.3173   4.4767   4.4781

[...]

          k = 0.3333-0.1927 0.0031 ( 27009 PWs)   bands (ev):

   -11.8737 -11.8710 -11.0226 -11.0148 -10.8697 -10.8650 -10.5248 -10.5236
   -10.5036 -10.4977 -10.4656 -10.4634 -10.2268 -10.2229 -10.2106 -10.2045
    -3.4236  -3.4209  -3.4148  -3.4071  -3.3400  -3.3383  -3.3124  -3.3101
    -2.9984  -2.9968  -2.9922  -2.9896  -2.3075  -2.3050  -2.0915  -2.0873
    -2.0138  -2.0108  -2.0087  -2.0029  -1.5346  -1.5345  -1.3928  -1.3856
    -1.3833  -1.3722  -1.0372  -1.0350  -1.0188  -1.0151  -0.5593  -0.5482
    -0.5332  -0.5202  -0.4077  -0.4062  -0.2336  -0.2287   0.0205   0.0223
     0.0634   0.0680   0.1582   0.1613   0.4337   0.4353   0.7031   0.7073
     0.7927   0.7939   1.2246   1.2318   1.3053   1.3129   1.4333   1.4365
     3.7978   3.8000   3.8207   3.8216   3.8570   3.8620   3.9262   3.9375
     3.9873   3.9971   4.2398   4.2461   4.2489   4.2540

     the Fermi energy is     1.8115 ev

!    total energy              =    -563.69044375 Ry
     Harris-Foulkes estimate   =    -563.69044423 Ry
     estimated scf accuracy    <       0.00000081 Ry

     The total energy is the sum of the following terms:

     one-electron contribution =    -999.81756666 Ry
     hartree contribution      =     557.98325731 Ry
     xc contribution           =    -222.76768533 Ry
     ewald contribution        =     100.89460727 Ry
     smearing contrib. (-TS)   =       0.01694366 Ry

     convergence has been achieved in  13 iterations

     negative rho (up, down):  4.418E-05 0.000E+00

     Forces acting on atoms (cartesian axes, Ry/au):

     atom    1 type  1   force =     0.00305710   -0.00600305   -0.00179611
     atom    2 type  1   force =    -0.00357766   -0.00205121    0.00299956
     atom    3 type  1   force =    -0.00174558    0.00560247    0.00251661
     atom    4 type  1   force =     0.00355591    0.00251196   -0.00306486
     atom    5 type  1   force =    -0.00309359    0.00536394    0.00240902
     atom    6 type  1   force =     0.00166960   -0.00215991   -0.00086396
     atom    7 type  1   force =     0.00455336   -0.00275041   -0.00242720
     atom    8 type  1   force =    -0.00402840   -0.00096589   -0.00223935
     atom    9 type  2   force =    -0.00097019    0.00020966    0.00108618
     atom   10 type  2   force =     0.00293006   -0.00152411    0.00176463
     atom   11 type  2   force =     0.00095257   -0.00116285   -0.00160091
     atom   12 type  2   force =    -0.00268346    0.00159828   -0.00192641
     atom   13 type  2   force =     0.00137311    0.00070272    0.00035302
     atom   14 type  2   force =    -0.00279290    0.00174623    0.00323565
     atom   15 type  2   force =    -0.00022443   -0.00142763    0.00057556
     atom   16 type  2   force =     0.00018679   -0.00021649   -0.00340809
     atom   17 type  2   force =     0.00083402   -0.00148728    0.00281730
     atom   18 type  2   force =    -0.00121680   -0.00040924   -0.00097499
     atom   19 type  2   force =     0.00129900   -0.00134074   -0.00359147
     atom   20 type  2   force =     0.00080464    0.00328555    0.00408700
     atom   21 type  2   force =     0.00300505   -0.00111865   -0.00653576
     atom   22 type  2   force =    -0.00191843    0.00110841    0.00197127
     atom   23 type  2   force =    -0.00204721    0.00102665    0.00620750
     atom   24 type  2   force =     0.00007744   -0.00053840   -0.00159419

     Total force =     0.022164     Total SCF correction =     0.002720
     SCF correction compared to forces is large: reduce conv_thr to get better values

     General routines

     Parallel routines

   This run was terminated on:  11:41: 3  14Oct2021

   JOB DONE.