     Program PWSCF v.6.4 starts on 19Nov2021 at 21:35: 0

     R & G space division:  proc/nbgrp/npool/nimage =      40
     Waiting for input...
     Reading input from standard input
Warning: card    &IONS ignored
Warning: card      ION_DYNAMICS = 'BFGS' ignored
Warning: card   / ignored
Warning: card    &CELL ignored
Warning: card      CELL_DYNAMICS = 'BFGS', ignored
Warning: card    / ignored

     Current dimensions of program PWSCF are:
     Max number of different atomic species (ntypx) = 10
     Max number of k-points (npk) =  40000
     Max angular momentum in pseudopotentials (lmaxx) =  3

     bravais-lattice index     =            0
     lattice parameter (alat)  =      11.8464  a.u.
     unit-cell volume          =    8223.6889 (a.u.)^3
     number of atoms/cell      =           36
     number of atomic types    =            2
     number of electrons       =       216.00
     number of Kohn-Sham states=          130
     kinetic-energy cutoff     =      45.0000  Ry
     charge density cutoff     =     360.0000  Ry
     convergence threshold     =      1.0E-06
     mixing beta               =       0.7000
     number of iterations used =            8  local-TF  mixing
     Exchange-correlation      = SLA PW GGX GGC ( 1  4  2  2 0 0)

     celldm(1)=  11.846373  celldm(2)=   0.000000  celldm(3)=   0.000000
     celldm(4)=   0.000000  celldm(5)=   0.000000  celldm(6)=   0.000000

     crystal axes: (cart. coord. in units of alat)
               a(1) = (   1.000000   0.000000   0.000000 )
               a(2) = (  -0.003483   1.789790   0.000000 )
               a(3) = (  -0.455703  -0.659020   2.763811 )

     reciprocal axes: (cart. coord. in units 2 pi/alat)
               b(1) = (  1.000000  0.001946  0.165346 )
               b(2) = (  0.000000  0.558725  0.133226 )
               b(3) = (  0.000000  0.000000  0.361819 )

     PseudoPot. # 1 for Mo read from file:
     ~/pseudo/Mo.pw91-n-van.UPF
     MD5 check sum: Not computed, couldn't open file
     Pseudo is Ultrasoft + core correction, Zval =  6.0
     Generated by new atomic code, or converted to UPF format
     Using radial grid of  965 points,  3 beta functions with:
                l(1) =   1
                l(2) =   2
                l(3) =   2
     Q(r) pseudized with  8 coefficients,  rinner =    1.000   1.000   1.000
                                                       1.200   1.200

     PseudoPot. # 2 for S  read from file:
     ~/pseudo/S.pw91-van_ak.UPF
     MD5 check sum: Not computed, couldn't open file
     Pseudo is Ultrasoft, Zval =  6.0
     Generated by new atomic code, or converted to UPF format
     Using radial grid of  811 points,  6 beta functions with:
                l(1) =   0
                l(2) =   0
                l(3) =   1
                l(4) =   1
                l(5) =   2
                l(6) =   2
     Q(r) pseudized with  8 coefficients,  rinner =    1.100   1.100   1.100
                                                       1.100   1.100

     atomic species   valence    mass     pseudopotential
        Mo             6.00    95.50000     Mo( 1.00)
        S              6.00    32.06500     S ( 1.00)

     No symmetry found

   Cartesian axes

     site n.     atom                  positions (alat units)
         1           Mo  tau(   1) = (  -0.2065909  -0.1766708   1.8479616  )
         2           Mo  tau(   2) = (   0.5445049   0.2709903   1.8487150  )
         3           Mo  tau(   3) = (   0.2927610  -0.1762420   1.8491566  )
         4           Mo  tau(   4) = (   0.0445526   0.2705014   1.8472429  )
         5           Mo  tau(   5) = (   0.2839387   0.7185735   1.8488178  )
         6           Mo  tau(   6) = (  -0.2157642   0.7185992   1.8486501  )
         7           Mo  tau(   7) = (   0.0314529   1.1661116   1.8496779  )
         8           Mo  tau(   8) = (   0.5308924   1.1660539   1.8496943  )
         9           Mo  tau(   9) = (   0.6261021   0.0390080   0.2819786  )
        10           Mo  tau(  10) = (   0.1272289   0.0413985   0.2849966  )
        11           Mo  tau(  11) = (   0.1014075   1.2496642   0.6906938  )
        12           Mo  tau(  12) = (   0.6036530   1.2493115   0.6947446  )
        13           S   tau(  13) = (   0.5460388  -0.0247358   2.1025124  )
        14           S   tau(  14) = (  -0.2144155  -0.4707572   2.1028848  )
        15           S   tau(  15) = (   0.0444962  -0.0236153   2.1021122  )
        16           S   tau(  16) = (   0.2854127  -0.4717232   2.1039117  )
        17           S   tau(  17) = (   0.3496219   1.1837012   0.9600222  )
        18           S   tau(  18) = (   0.8541415   1.5103802   0.7356155  )
        19           S   tau(  19) = (   0.5436347  -0.0252330   1.5952309  )
        20           S   tau(  20) = (  -0.2188446   1.3156299   1.5947473  )
        21           S   tau(  21) = (   0.0441966  -0.0265933   1.5931565  )
        22           S   tau(  22) = (   0.2809965   1.3171848   1.5956761  )
        23           S   tau(  23) = (   0.3551630   1.2958029   0.4354251  )
        24           S   tau(  24) = (   0.8525552   0.9795248   0.6273959  )
        25           S   tau(  25) = (   0.2937242   0.4226470   2.1020693  )
        26           S   tau(  26) = (  -0.2048959   0.4229854   2.1017627  )
        27           S   tau(  27) = (   0.2942589   0.4224063   1.5943469  )
        28           S   tau(  28) = (  -0.2070773   0.4221672   1.5942396  )
        29           S   tau(  29) = (   0.0326283   0.8703702   1.5948085  )
        30           S   tau(  30) = (   0.5321392   0.8701166   1.5952280  )
        31           S   tau(  31) = (   0.8733308  -0.0057589   0.5424294  )
        32           S   tau(  32) = (   0.3785570   0.3153383   0.3246408  )
        33           S   tau(  33) = (   0.0321353   0.8708736   2.1030514  )
        34           S   tau(  34) = (   0.5321513   0.8702334   2.1028771  )
        35           S   tau(  35) = (   0.8781568   0.0698833   0.0094279  )
        36           S   tau(  36) = (   0.3711474   1.5700065   0.2431781  )

     number of k points=     4  Marzari-Vanderbilt smearing, width (Ry)=  0.0200
                       cart. coord. in units 2pi/alat
        k(    1) = (   0.0000000   0.0000000   0.0000000), wk =   0.3333333
        k(    2) = (   0.0000000  -0.2793624  -0.0666128), wk =   0.3333333
        k(    3) = (   0.3333333   0.0006487   0.0551154), wk =   0.6666667
        k(    4) = (   0.3333333  -0.2787137  -0.0114975), wk =   0.6666667

     Initial potential from superposition of free atoms

     starting charge  215.98107, renormalised to  216.00000

     negative rho (up, down):  7.960E-08 0.000E+00
     Starting wfcs are  204 randomized atomic wfcs

     Self-consistent Calculation

     iteration #  1     ecut=    45.00 Ry     beta= 0.70
     Davidson diagonalization with overlap
     ethr =  1.00E-02,  avg # of iterations =  3.0

     total energy              =    -843.79913883 Ry
     Harris-Foulkes estimate   =    -846.10545245 Ry
     estimated scf accuracy    <       5.87559274 Ry

[...]

     negative rho (up, down):  9.700E-06 0.000E+00

[...]

     total energy              =    -844.91878978 Ry
     Harris-Foulkes estimate   =    -844.91879080 Ry
     estimated scf accuracy    <       0.00000305 Ry

     iteration # 18     ecut=    45.00 Ry     beta= 0.70
     Davidson diagonalization with overlap
     ethr =  1.41E-09,  avg # of iterations =  2.5

[...]

     End of self-consistent calculation

          k = 0.0000 0.0000 0.0000 ( 41915 PWs)   bands (ev):

   -13.3438 -13.1122 -12.5224 -11.7557 -11.7539 -11.3539 -11.0003 -10.9978
   -10.7662 -10.6928 -10.6879 -10.6526 -10.6435 -10.6406 -10.5722 -10.4507
   -10.4456 -10.3985 -10.3900 -10.3832 -10.1029 -10.0802  -9.9846  -9.7852
    -5.0131  -4.1962  -4.1476  -4.1426  -3.9962  -3.7563  -3.5637  -3.5607
    -3.3538  -3.3521  -3.3451  -3.3439  -3.2614  -3.2571  -3.1961  -3.1277
    -2.8412  -2.7040  -2.5643  -2.5001  -2.4793  -2.4755  -2.4339  -2.3032
    -2.3027  -2.0283  -2.0264  -2.0167  -2.0122  -1.7701  -1.7508  -1.7006
    -1.6331  -1.6096  -1.5740  -1.4807  -1.3218  -1.2919  -1.2829  -1.2424
    -1.2348  -1.2300  -1.1871  -1.1341  -1.1217  -1.0933  -0.7873  -0.7363
    -0.6376  -0.6340  -0.4821  -0.4419  -0.3476  -0.3369  -0.2952  -0.2606
    -0.1167  -0.1089   0.0291   0.0355   0.0429   0.0536   0.1351   0.1545
     0.2919   0.4218   0.5650   0.5779   0.5989   0.6741   0.6798   0.7360
     0.7507   0.9086   0.9156   0.9317   0.9718   0.9884   1.3441   1.4145
     1.7301   1.7410   1.8946   2.0647   2.6733   3.0040   3.1850   3.5040
     3.5211   3.5607   3.6298   3.6429   3.6641   3.6660   3.6731   3.6836
     3.8848   3.9014   3.9303   3.9551   4.0744   4.1348   4.2261   4.2315
     4.2565   4.2880

[...]

          k = 0.3333-0.2787-0.0115 ( 41900 PWs)   bands (ev):

   -13.2800 -13.1640 -12.0297 -12.0275 -11.3251 -11.3212 -11.1087 -11.1054
   -10.9200 -10.9142 -10.7494 -10.7442 -10.6025 -10.5979 -10.5916 -10.5862
   -10.4717 -10.3912 -10.3848 -10.3169 -10.1754 -10.1552  -9.9649  -9.8862
    -4.6948  -4.0505  -3.5904  -3.5845  -3.5327  -3.5299  -3.4863  -3.4848
    -3.4780  -3.4764  -3.4682  -3.4614  -3.0611  -3.0032  -2.9970  -2.8686
    -2.6130  -2.4459  -2.4431  -2.4375  -2.2790  -2.2714  -2.2114  -2.2081
    -2.2049  -2.2010  -2.1189  -1.8509  -1.8414  -1.6305  -1.6194  -1.6101
    -1.6036  -1.5915  -1.4862  -1.4820  -1.4701  -1.4322  -1.4202  -1.3387
    -1.3092  -1.3006  -1.2847  -1.2831  -1.2740  -1.2685  -1.0735  -1.0384
    -0.8327  -0.7241  -0.6951  -0.6853  -0.6770  -0.6603  -0.5783  -0.4887
    -0.4739  -0.3558  -0.3504  -0.1800  -0.1251  -0.0781  -0.0737   0.0040
     0.0332   0.0443   0.0797   0.0954   0.4776   0.4831   0.5965   0.6041
     0.6671   0.9631   0.9726   1.0660   1.0717   1.2593   1.2631   1.4971
     1.5789   1.6856   2.3357   2.4004   2.6157   2.8819   3.2443   3.3402
     3.5047   3.5109   3.5681   3.5735   3.5875   3.6070   3.6273   3.6454
     3.6580   3.8382   3.8551   3.8595   3.9331   3.9410   3.9903   4.0049
     4.0405   4.0994

     the Fermi energy is     2.5310 ev

!    total energy              =    -844.91878998 Ry
     Harris-Foulkes estimate   =    -844.91879024 Ry
     estimated scf accuracy    <       0.00000047 Ry

     The total energy is the sum of the following terms:

     one-electron contribution =   -1377.34359104 Ry
     hartree contribution      =     774.49440958 Ry
     xc contribution           =    -333.99611508 Ry
     ewald contribution        =      91.93159465 Ry
     smearing contrib. (-TS)   =      -0.00508809 Ry

     convergence has been achieved in  18 iterations

     negative rho (up, down):  4.830E-06 0.000E+00

     Forces acting on atoms (cartesian axes, Ry/au):

     atom    1 type  1   force =    -0.00393964    0.00365473    0.00006073
     atom    2 type  1   force =    -0.00437234    0.00359640   -0.00003299
     atom    3 type  1   force =    -0.00177912    0.00210862   -0.00032174
     atom    4 type  1   force =    -0.00512639    0.00448846    0.00059767
     atom    5 type  1   force =     0.00345016    0.00304704   -0.00011923
     atom    6 type  1   force =     0.00344747    0.00410718   -0.00048135
     atom    7 type  1   force =     0.00281606    0.00299449   -0.00181819
     atom    8 type  1   force =     0.00540121    0.00335474   -0.00144003
     atom    9 type  1   force =    -0.00168351    0.04847630   -0.03962972
     atom   10 type  1   force =    -0.00519652    0.04704436   -0.03668381
     atom   11 type  1   force =     0.00327763   -0.06249297    0.02821820
     atom   12 type  1   force =     0.00369506   -0.05859384    0.02638756
     atom   13 type  2   force =    -0.00497625   -0.00150686   -0.00156427
     atom   14 type  2   force =     0.00082152   -0.00433980   -0.00119558
     atom   15 type  2   force =    -0.00256430   -0.00332436   -0.00149110
     atom   16 type  2   force =     0.00105453   -0.00165011   -0.00229416
     atom   17 type  2   force =     0.00188606    0.01689370   -0.00654560
     atom   18 type  2   force =    -0.00491276   -0.01896602    0.06208983
     atom   19 type  2   force =    -0.00077889   -0.00120472    0.00023593
     atom   20 type  2   force =     0.00285435    0.00126294    0.00297089
     atom   21 type  2   force =    -0.00082853    0.00083120    0.00362941
     atom   22 type  2   force =     0.00357966   -0.00058997    0.00170204
     atom   23 type  2   force =    -0.00118311   -0.04910221   -0.00508029
     atom   24 type  2   force =    -0.00114465    0.02134615    0.00147262
     atom   25 type  2   force =    -0.00288038   -0.00277124   -0.00163919
     atom   26 type  2   force =    -0.00404972   -0.00314523   -0.00094738
     atom   27 type  2   force =    -0.00285167   -0.00084689    0.00152193
     atom   28 type  2   force =    -0.00046980   -0.00028755    0.00152206
     atom   29 type  2   force =     0.00133684   -0.00153667    0.00217075
     atom   30 type  2   force =     0.00209369   -0.00091154    0.00119481
     atom   31 type  2   force =     0.00634667    0.06309615    0.00184174
     atom   32 type  2   force =    -0.00095994   -0.02026290    0.00560620
     atom   33 type  2   force =     0.00259657   -0.00395123   -0.00142103
     atom   34 type  2   force =     0.00279893   -0.00280301   -0.00109599
     atom   35 type  2   force =     0.00065488   -0.00448963    0.01382475
     atom   36 type  2   force =     0.00158622    0.01647429   -0.05124549

     Total force =     0.178571     Total SCF correction =     0.001360

     General routines

     Parallel routines

   This run was terminated on:  21:37: 3  19Nov2021

   JOB DONE.