     Program PWSCF v.6.4 starts on  8Sep2021 at 12: 2:45

     R & G space division:  proc/nbgrp/npool/nimage =      40
     Waiting for input...
     Reading input from standard input
Warning: card    &IONS ignored
Warning: card      ION_DYNAMICS = 'BFGS' ignored
Warning: card   / ignored
Warning: card    &CELL ignored
Warning: card      CELL_DYNAMICS = 'BFGS', ignored
Warning: card    / ignored

     Current dimensions of program PWSCF are:
     Max number of different atomic species (ntypx) = 10
     Max number of k-points (npk) =  40000
     Max angular momentum in pseudopotentials (lmaxx) =  3

     bravais-lattice index     =            0
     lattice parameter (alat)  =      12.5800  a.u.
     unit-cell volume          =    5117.5475 (a.u.)^3
     number of atoms/cell      =           36
     number of atomic types    =            2
     number of electrons       =       216.00
     number of Kohn-Sham states=          130
     kinetic-energy cutoff     =      45.0000  Ry
     charge density cutoff     =     360.0000  Ry
     convergence threshold     =      1.0E-06
     mixing beta               =       0.7000
     number of iterations used =            8  local-TF  mixing
     Exchange-correlation      = SLA PW GGX GGC ( 1  4  2  2 0 0)

     celldm(1)=  12.580040  celldm(2)=   0.000000  celldm(3)=   0.000000
     celldm(4)=   0.000000  celldm(5)=   0.000000  celldm(6)=   0.000000

     crystal axes: (cart. coord. in units of alat)
               a(1) = (   0.999936  -0.011271   0.000617 )
               a(2) = (  -0.499964   0.864108  -0.005209 )
               a(3) = (  -0.442337  -0.623513   2.997765 )

     reciprocal axes: (cart. coord. in units 2 pi/alat)
               b(1) = (  1.006479  0.583967  0.269972 )
               b(2) = (  0.012994  1.166255  0.244490 )
               b(3) = ( -0.000185  0.001906  0.333951 )

     PseudoPot. # 1 for Mo read from file:
     ~/pseudo/Mo.pw91-n-van.UPF
     MD5 check sum: Not computed, couldn't open file
     Pseudo is Ultrasoft + core correction, Zval =  6.0
     Generated by new atomic code, or converted to UPF format
     Using radial grid of  965 points,  3 beta functions with:
                l(1) =   1
                l(2) =   2
                l(3) =   2
     Q(r) pseudized with  8 coefficients,  rinner =    1.000   1.000   1.000
                                                       1.200   1.200

     PseudoPot. # 2 for S  read from file:
     ~/pseudo/S.pw91-van_ak.UPF
     MD5 check sum: Not computed, couldn't open file
     Pseudo is Ultrasoft, Zval =  6.0
     Generated by new atomic code, or converted to UPF format
     Using radial grid of  811 points,  6 beta functions with:
                l(1) =   0
                l(2) =   0
                l(3) =   1
                l(4) =   1
                l(5) =   2
                l(6) =   2
     Q(r) pseudized with  8 coefficients,  rinner =    1.100   1.100   1.100
                                                       1.100   1.100

     atomic species   valence    mass     pseudopotential
        Mo             6.00    95.50000     Mo( 1.00)
        S              6.00    32.06500     S ( 1.00)

     No symmetry found

   Cartesian axes

     site n.     atom                  positions (alat units)
         1           Mo  tau(   1) = (   0.1666953  -0.0646062   1.0340234  )
         2           Mo  tau(   2) = (  -0.0568045   0.4882167   0.9571004  )
         3           Mo  tau(   3) = (   0.7129786  -0.0129632   0.9570372  )
         4           Mo  tau(   4) = (   0.4052530   0.4601956   1.0714336  )
         5           Mo  tau(   5) = (  -0.2762431  -0.3118176   1.9764703  )
         6           Mo  tau(   6) = (  -0.5404463   0.2057322   1.9858617  )
         7           Mo  tau(   7) = (   0.2240598  -0.3264996   1.9709516  )
         8           Mo  tau(   8) = (  -0.0428000   0.1996147   1.9875715  )
         9           Mo  tau(   9) = (  -0.5829671  -0.6270726   2.9781130  )
        10           Mo  tau(  10) = (  -0.7935926  -0.1790028   3.0225930  )
        11           Mo  tau(  11) = (  -0.0943168  -0.6914033   3.0286449  )
        12           Mo  tau(  12) = (  -0.3572147  -0.1724508   2.9960278  )
        13           S   tau(  13) = (  -0.1112419   0.2711589   0.2351017  )
        14           S   tau(  14) = (  -0.4121416   0.7181428   0.2608961  )
        15           S   tau(  15) = (   0.3625492   0.2706719   0.2177285  )
        16           S   tau(  16) = (   0.1319176   0.7041403   0.2394243  )
        17           S   tau(  17) = (  -0.0641585   0.1734163   0.7542154  )
        18           S   tau(  18) = (  -0.3719823   0.5290823   0.7914974  )
        19           S   tau(  19) = (   0.4228757  -0.0550607   0.7541522  )
        20           S   tau(  20) = (   0.2402573   0.5226278   0.7618866  )
        21           S   tau(  21) = (  -0.1176708  -0.1033376   1.2695955  )
        22           S   tau(  22) = (  -0.4272151   0.1935130   1.2116371  )
        23           S   tau(  23) = (   0.3309138  -0.2628707   1.2843022  )
        24           S   tau(  24) = (   0.1249511   0.2691009   1.1825114  )
        25           S   tau(  25) = (  -0.0218076  -0.4000224   1.7257575  )
        26           S   tau(  26) = (  -0.2848648   0.0127385   1.7822263  )
        27           S   tau(  27) = (   0.4818192  -0.4062889   1.7249799  )
        28           S   tau(  28) = (   0.2181730   0.0067651   1.7811548  )
        29           S   tau(  29) = (  -0.0259544  -0.1313173   2.1824898  )
        30           S   tau(  30) = (  -0.2879737   0.2848198   2.2403899  )
        31           S   tau(  31) = (   0.4694489  -0.1332764   2.1783428  )
        32           S   tau(  32) = (   0.2085604   0.2796129   2.2358226  )
        33           S   tau(  33) = (  -0.3097028  -0.4947446   2.7868115  )
        34           S   tau(  34) = (  -0.6029922  -0.0537172   2.7479993  )
        35           S   tau(  35) = (   0.1525598  -0.4939713   2.7977692  )
        36           S   tau(  36) = (  -0.0660671  -0.0749891   2.7743776  )

     number of k points=     5  Marzari-Vanderbilt smearing, width (Ry)=  0.0200
                       cart. coord. in units 2pi/alat
        k(    1) = (   0.0000000   0.0000000   0.0000000), wk =   0.2222222
        k(    2) = (   0.0043314   0.3887518   0.0814966), wk =   0.4444444
        k(    3) = (   0.3354930   0.1946555   0.0899908), wk =   0.4444444
        k(    4) = (   0.3398245   0.5834073   0.1714874), wk =   0.4444444
        k(    5) = (   0.3311616  -0.1940963   0.0084942), wk =   0.4444444

     Initial potential from superposition of free atoms

     starting charge  215.98107, renormalised to  216.00000
     Starting wfcs are  204 randomized atomic wfcs

     Self-consistent Calculation

     iteration #  1     ecut=    45.00 Ry     beta= 0.70
     Davidson diagonalization with overlap
     ethr =  1.00E-02,  avg # of iterations =  2.0

     total energy              =    -843.18824490 Ry
     Harris-Foulkes estimate   =    -846.06864937 Ry
     estimated scf accuracy    <       7.94448544 Ry

[...]

     total energy              =    -844.64799971 Ry
     Harris-Foulkes estimate   =    -844.64799996 Ry
     estimated scf accuracy    <       0.00000177 Ry

     iteration # 15     ecut=    45.00 Ry     beta= 0.70
     Davidson diagonalization with overlap
     ethr =  8.21E-10,  avg # of iterations =  1.4

     End of self-consistent calculation

          k = 0.0000 0.0000 0.0000 ( 26117 PWs)   bands (ev):

    -8.2674  -7.6499  -7.4364  -7.2292  -6.6728  -6.5287  -6.4732  -6.4308
    -6.3762  -6.3078  -6.2542  -6.1515  -6.1021  -6.0509  -6.0387  -5.9857
    -5.8898  -5.8172  -5.7743  -5.7042  -5.5604  -5.4969  -5.3922  -5.1138
    -0.1103   0.3615   0.4020   0.5072   0.5777   0.6162   0.7065   0.7124
     0.7177   0.7757   1.0137   1.1605   1.2429   1.3654   1.4149   1.5975
     1.6977   1.8024   1.9495   1.9886   2.0089   2.0166   2.0653   2.1473
     2.2665   2.3533   2.3795   2.3999   2.4615   2.6579   2.7616   2.7806
     2.7923   2.8120   2.8315   2.8869   2.9746   3.0782   3.0957   3.1706
     3.3540   3.4558   3.4722   3.5678   3.5803   3.6472   3.6855   3.7988
     3.8672   3.9301   4.0010   4.0335   4.1352   4.1593   4.2316   4.2515
     4.2945   4.5092   4.5641   4.6538   4.6995   4.7788   4.8160   4.8323
     4.8708   4.9827   5.0644   5.2710   5.3033   5.3914   5.4516   5.5056
     5.5721   5.6496   5.7430   5.7808   5.8942   6.0408   6.0878   6.1180
     6.2020   6.2536   6.3253   6.3928   6.4137   6.5251   6.5598   6.6720
     6.9394   7.2176   7.2683   7.5129   7.5448   7.6771   7.7846   7.7973
     7.8283   7.8603   7.8970   8.0904   8.3050   8.4565   8.4823   8.5305
     8.6239   8.6819

[...]

          k = 0.3312-0.1941 0.0085 ( 26093 PWs)   bands (ev):

    -7.9480  -7.3393  -7.1839  -7.0913  -7.0236  -6.7270  -6.6191  -6.4748
    -6.3677  -6.3484  -6.3249  -6.2798  -6.2418  -6.1051  -6.0728  -6.0057
    -5.9050  -5.8569  -5.8152  -5.6901  -5.6524  -5.5745  -5.4094  -5.1793
     0.0165   0.5594   0.8035   0.8424   0.9724   1.0702   1.0953   1.1097
     1.1679   1.2859   1.3772   1.4310   1.4998   1.5276   1.5769   1.6166
     1.6552   1.7302   1.7960   1.8485   1.9477   1.9934   2.0275   2.1636
     2.2607   2.3405   2.3991   2.4142   2.5142   2.5528   2.6720   2.7170
     2.7598   2.8049   2.8804   2.9318   2.9805   3.0269   3.0474   3.0726
     3.1240   3.1678   3.3022   3.3712   3.4478   3.5087   3.5310   3.5994
     3.6803   3.7311   3.8170   3.9327   3.9904   4.0264   4.0599   4.0912
     4.1320   4.2056   4.2852   4.3480   4.3955   4.5647   4.6340   4.6634
     4.9039   4.9714   5.0702   5.1636   5.2227   5.2841   5.3418   5.3962
     5.4632   5.5169   5.5603   5.6460   5.6929   5.7864   5.8403   5.8771
     5.9442   6.0235   6.1385   6.4465   6.6491   6.7687   6.8749   6.9269
     7.0000   7.0834   7.4660   7.5376   7.5884   7.6523   7.6757   7.7486
     7.8138   7.8415   7.9057   8.1811   8.2873   8.3978   8.4831   8.4999
     8.5860   8.6111

     the Fermi energy is     6.4086 ev

!    total energy              =    -844.64799964 Ry
     Harris-Foulkes estimate   =    -844.64799984 Ry
     estimated scf accuracy    <       0.00000023 Ry

     The total energy is the sum of the following terms:

     one-electron contribution =     -63.14002911 Ry
     hartree contribution      =     153.38054298 Ry
     xc contribution           =    -333.71846412 Ry
     ewald contribution        =    -601.18047620 Ry
     smearing contrib. (-TS)   =       0.01042680 Ry

     convergence has been achieved in  15 iterations

     Forces acting on atoms (cartesian axes, Ry/au):

     atom    1 type  1   force =    -0.00812252   -0.00621292   -0.00611402
     atom    2 type  1   force =    -0.00960185    0.01522455   -0.02262145
     atom    3 type  1   force =     0.01652538   -0.02220425    0.02531875
     atom    4 type  1   force =    -0.01150218    0.00614715   -0.01759505
     atom    5 type  1   force =    -0.00177326   -0.01828915    0.00506150
     atom    6 type  1   force =     0.00650214    0.00241571    0.00974393
     atom    7 type  1   force =     0.00062311    0.01961285    0.01889094
     atom    8 type  1   force =     0.02127123   -0.00208524   -0.00387769
     atom    9 type  1   force =     0.00441783   -0.00412759    0.00087995
     atom   10 type  1   force =    -0.01611800   -0.00858867    0.00583159
     atom   11 type  1   force =     0.02894001    0.05599122    0.00274040
     atom   12 type  1   force =    -0.02371119   -0.02669597   -0.01937694
     atom   13 type  2   force =    -0.02274076    0.00052819    0.02341784
     atom   14 type  2   force =     0.02742096   -0.02109835   -0.02203492
     atom   15 type  2   force =     0.00021877   -0.00369735   -0.01555731
     atom   16 type  2   force =    -0.01835980    0.01598192    0.01417665
     atom   17 type  2   force =     0.00347631   -0.02084806    0.01041866
     atom   18 type  2   force =     0.00659692   -0.00142731   -0.00971410
     atom   19 type  2   force =    -0.00344421    0.01451742    0.01254754
     atom   20 type  2   force =     0.00453322   -0.00054576   -0.00472341
     atom   21 type  2   force =    -0.00638976   -0.01491892   -0.00469586
     atom   22 type  2   force =     0.01156257    0.00127784    0.00515178
     atom   23 type  2   force =    -0.01387674    0.02793135   -0.01623921
     atom   24 type  2   force =     0.00831495    0.00274073    0.02426337
     atom   25 type  2   force =    -0.02160495   -0.01856792   -0.01141126
     atom   26 type  2   force =     0.00429457    0.00201604   -0.00343802
     atom   27 type  2   force =    -0.01727169   -0.02303217    0.00083149
     atom   28 type  2   force =    -0.00313082   -0.00082788   -0.00268715
     atom   29 type  2   force =    -0.00305589    0.00380175   -0.00253028
     atom   30 type  2   force =     0.00341455    0.01634994   -0.01169999
     atom   31 type  2   force =    -0.00254213   -0.00245559    0.00322860
     atom   32 type  2   force =     0.01568667    0.01688548    0.00370595
     atom   33 type  2   force =    -0.01215444    0.00771977    0.00755517
     atom   34 type  2   force =     0.03767908   -0.01432327   -0.01370261
     atom   35 type  2   force =     0.00965898   -0.00321535   -0.00196377
     atom   36 type  2   force =    -0.01573706    0.00401981    0.01621894

     Total force =     0.153080     Total SCF correction =     0.001244

     General routines

     Parallel routines

   This run was terminated on:  12: 4: 9   8Sep2021

   JOB DONE.