     Program PWSCF v.6.4 starts on  6Oct2021 at 12:16:47

     R & G space division:  proc/nbgrp/npool/nimage =      40
     Waiting for input...
     Reading input from standard input
Warning: card    &IONS ignored
Warning: card      ION_DYNAMICS = 'BFGS' ignored
Warning: card   / ignored
Warning: card    &CELL ignored
Warning: card      CELL_DYNAMICS = 'BFGS', ignored
Warning: card    / ignored

     Current dimensions of program PWSCF are:
     Max number of different atomic species (ntypx) = 10
     Max number of k-points (npk) =  40000
     Max angular momentum in pseudopotentials (lmaxx) =  3

     bravais-lattice index     =            0
     lattice parameter (alat)  =       6.0472  a.u.
     unit-cell volume          =    1903.8971 (a.u.)^3
     number of atoms/cell      =           12
     number of atomic types    =            2
     number of electrons       =        72.00
     number of Kohn-Sham states=           43
     kinetic-energy cutoff     =      45.0000  Ry
     charge density cutoff     =     360.0000  Ry
     convergence threshold     =      1.0E-06
     mixing beta               =       0.7000
     number of iterations used =            8  local-TF  mixing
     Exchange-correlation      = SLA PW GGX GGC ( 1  4  2  2 0 0)

     celldm(1)=   6.047225  celldm(2)=   0.000000  celldm(3)=   0.000000
     celldm(4)=   0.000000  celldm(5)=   0.000000  celldm(6)=   0.000000

     crystal axes: (cart. coord. in units of alat)
               a(1) = (   1.000000   0.000000   0.000000 )
               a(2) = (  -0.000242   1.803978   0.000000 )
               a(3) = (   0.331749  -0.103373   4.772477 )

     reciprocal axes: (cart. coord. in units 2 pi/alat)
               b(1) = (  1.000000  0.000134 -0.069510 )
               b(2) = (  0.000000  0.554330  0.012007 )
               b(3) = (  0.000000  0.000000  0.209535 )

     PseudoPot. # 1 for Mo read from file:
     ~/pseudo/Mo.pw91-n-van.UPF
     MD5 check sum: Not computed, couldn't open file
     Pseudo is Ultrasoft + core correction, Zval =  6.0
     Generated by new atomic code, or converted to UPF format
     Using radial grid of  965 points,  3 beta functions with:
                l(1) =   1
                l(2) =   2
                l(3) =   2
     Q(r) pseudized with  8 coefficients,  rinner =    1.000   1.000   1.000
                                                       1.200   1.200

     PseudoPot. # 2 for S  read from file:
     ~/pseudo/S.pw91-van_ak.UPF
     MD5 check sum: Not computed, couldn't open file
     Pseudo is Ultrasoft, Zval =  6.0
     Generated by new atomic code, or converted to UPF format
     Using radial grid of  811 points,  6 beta functions with:
                l(1) =   0
                l(2) =   0
                l(3) =   1
                l(4) =   1
                l(5) =   2
                l(6) =   2
     Q(r) pseudized with  8 coefficients,  rinner =    1.100   1.100   1.100
                                                       1.100   1.100

     atomic species   valence    mass     pseudopotential
        Mo             6.00    95.50000     Mo( 1.00)
        S              6.00    32.06500     S ( 1.00)

     No symmetry found

   Cartesian axes

     site n.     atom                  positions (alat units)
         1           Mo  tau(   1) = (   0.3571667   0.5316369   2.6271422  )
         2           Mo  tau(   2) = (   0.8572261   1.6181896   2.6668661  )
         3           Mo  tau(   3) = (   0.3445977   1.3741321   0.7679242  )
         4           Mo  tau(   4) = (   0.8447428   0.2875508   0.7283484  )
         5           S   tau(   5) = (   0.8442289   1.5685446   1.2945414  )
         6           S   tau(   6) = (   0.8572395   0.3371859   2.1006666  )
         7           S   tau(   7) = (   0.3572733   1.2142108   2.2253083  )
         8           S   tau(   8) = (   0.3578107   0.0159670   3.1956867  )
         9           S   tau(   9) = (   0.8441899   0.9679768   0.3219495  )
        10           S   tau(  10) = (   0.8572558   0.9377435   3.0731746  )
        11           S   tau(  11) = (   0.3442483   0.0857831   0.1994185  )
        12           S   tau(  12) = (   0.3442573   0.6914982   1.1697737  )

     number of k points=     8  Marzari-Vanderbilt smearing, width (Ry)=  0.0200
                       cart. coord. in units 2pi/alat
        k(    1) = (   0.0000000   0.0000000   0.0000000), wk =   0.1333333
        k(    2) = (   0.0000000   0.1847768   0.0040023), wk =   0.2666667
        k(    3) = (   0.2000000   0.0000268  -0.0139020), wk =   0.2666667
        k(    4) = (   0.2000000   0.1848036  -0.0098997), wk =   0.2666667
        k(    5) = (   0.2000000  -0.1847500  -0.0179043), wk =   0.2666667
        k(    6) = (   0.4000000   0.0000536  -0.0278040), wk =   0.2666667
        k(    7) = (   0.4000000   0.1848304  -0.0238017), wk =   0.2666667
        k(    8) = (   0.4000000  -0.1847232  -0.0318063), wk =   0.2666667

     Initial potential from superposition of free atoms

     starting charge   71.99369, renormalised to   72.00000
     Starting wfcs are   68 randomized atomic wfcs

     Self-consistent Calculation

     iteration #  1     ecut=    45.00 Ry     beta= 0.70
     Davidson diagonalization with overlap
     ethr =  1.00E-02,  avg # of iterations =  2.0

     total energy              =    -281.18768030 Ry
     Harris-Foulkes estimate   =    -282.12689145 Ry
     estimated scf accuracy    <       2.46113572 Ry

[...]

     iteration #  6     ecut=    45.00 Ry     beta= 0.70
     Davidson diagonalization with overlap
     c_bands:  1 eigenvalues not converged
     c_bands:  1 eigenvalues not converged
     ethr =  3.98E-06,  avg # of iterations =  8.9

[...]

     total energy              =    -281.68086842 Ry
     Harris-Foulkes estimate   =    -281.68086932 Ry
     estimated scf accuracy    <       0.00000306 Ry

     iteration # 13     ecut=    45.00 Ry     beta= 0.70
     Davidson diagonalization with overlap
     ethr =  4.25E-09,  avg # of iterations =  2.1

     End of self-consistent calculation

          k = 0.0000 0.0000 0.0000 (  9761 PWs)   bands (ev):

    -9.1144  -8.9333  -8.1588  -7.9575  -7.3461  -7.3263  -7.2241  -7.2087
    -1.0057  -0.8347  -0.6397  -0.0816   0.2446   0.4198   0.6459   0.7361
     1.6664   1.7151   1.8009   1.8069   1.9970   2.2798   2.5150   2.5849
     2.8160   3.4914   3.6040   3.8705   3.9001   3.9852   4.3215   4.5662
     4.7130   4.8897   4.9238   5.0240   5.3775   5.4120   5.5337   5.6644
     6.7758   6.9507   7.0584

[...]

          k = 0.4000-0.1847-0.0318 (  9676 PWs)   bands (ev):

    -7.7789  -7.6015  -7.5568  -7.4706  -7.1899  -7.1379  -6.8285  -6.8099
    -0.7872  -0.6912  -0.4007  -0.2440  -0.0043   0.1835   0.4816   0.7315
     0.9869   1.1297   1.2224   1.4729   1.5057   1.5637   1.8651   2.1432
     2.2658   2.4414   2.6175   2.8842   3.1382   3.1987   3.3308   3.4171
     3.7661   3.7988   3.9309   4.0489   6.3571   6.4224   6.6639   6.6838
     7.1184   7.3114   7.4272

     the Fermi energy is     5.0513 ev

!    total energy              =    -281.68086885 Ry
     Harris-Foulkes estimate   =    -281.68086886 Ry
     estimated scf accuracy    <       0.00000002 Ry

     The total energy is the sum of the following terms:

     one-electron contribution =    -246.86926539 Ry
     hartree contribution      =     160.55546232 Ry
     xc contribution           =    -111.26849084 Ry
     ewald contribution        =     -84.09974536 Ry
     smearing contrib. (-TS)   =       0.00117042 Ry

     convergence has been achieved in  13 iterations

     Forces acting on atoms (cartesian axes, Ry/au):

     atom    1 type  1   force =     0.00034856    0.00450285    0.00436105
     atom    2 type  1   force =    -0.00001278   -0.00139941    0.00315832
     atom    3 type  1   force =    -0.00049718   -0.00450668   -0.00444993
     atom    4 type  1   force =    -0.00010774    0.00145831   -0.00310433
     atom    5 type  2   force =     0.00020691    0.00325993   -0.00529521
     atom    6 type  2   force =     0.00012868   -0.00361256    0.00511288
     atom    7 type  2   force =    -0.00031119    0.00086839    0.00772164
     atom    8 type  2   force =    -0.00034580    0.00486952   -0.00029216
     atom    9 type  2   force =     0.00020087    0.00148259    0.00496380
     atom   10 type  2   force =     0.00001811   -0.00150150   -0.00501855
     atom   11 type  2   force =     0.00008896   -0.00487215    0.00074203
     atom   12 type  2   force =     0.00028260   -0.00054928   -0.00789955

     Total force =     0.020179     Total SCF correction =     0.000326

     General routines

     Parallel routines

   This run was terminated on:  12:17: 6   6Oct2021

   JOB DONE.