     Program PWSCF v.6.4 starts on 23Dec2021 at 23:48:16

     R & G space division:  proc/nbgrp/npool/nimage =      40
     Waiting for input...
     Reading input from standard input
Warning: card    &IONS ignored
Warning: card      ION_DYNAMICS = 'BFGS' ignored
Warning: card   / ignored
Warning: card    &CELL ignored
Warning: card      CELL_DYNAMICS = 'BFGS', ignored
Warning: card    / ignored

     Current dimensions of program PWSCF are:
     Max number of different atomic species (ntypx) = 10
     Max number of k-points (npk) =  40000
     Max angular momentum in pseudopotentials (lmaxx) =  3

     bravais-lattice index     =            0
     lattice parameter (alat)  =      15.7390  a.u.
     unit-cell volume          =    6252.1659 (a.u.)^3
     number of atoms/cell      =           33
     number of atomic types    =            2
     number of electrons       =       198.00
     number of Kohn-Sham states=          119
     kinetic-energy cutoff     =      45.0000  Ry
     charge density cutoff     =     360.0000  Ry
     convergence threshold     =      1.0E-06
     mixing beta               =       0.7000
     number of iterations used =            8  local-TF  mixing
     Exchange-correlation      = SLA PW GGX GGC ( 1  4  2  2 0 0)

     celldm(1)=  15.739043  celldm(2)=   0.000000  celldm(3)=   0.000000
     celldm(4)=   0.000000  celldm(5)=   0.000000  celldm(6)=   0.000000

     crystal axes: (cart. coord. in units of alat)
               a(1) = (   1.000000   0.000000   0.000000 )
               a(2) = (  -0.292054   1.191872   0.000000 )
               a(3) = (  -0.062369  -0.636625   1.345445 )

     reciprocal axes: (cart. coord. in units 2 pi/alat)
               b(1) = (  1.000000  0.245038  0.162301 )
               b(2) = (  0.000000  0.839017  0.396998 )
               b(3) = (  0.000000  0.000000  0.743248 )

     PseudoPot. # 1 for Mo read from file:
     ~/pseudo/Mo.pw91-n-van.UPF
     MD5 check sum: Not computed, couldn't open file
     Pseudo is Ultrasoft + core correction, Zval =  6.0
     Generated by new atomic code, or converted to UPF format
     Using radial grid of  965 points,  3 beta functions with:
                l(1) =   1
                l(2) =   2
                l(3) =   2
     Q(r) pseudized with  8 coefficients,  rinner =    1.000   1.000   1.000
                                                       1.200   1.200

     PseudoPot. # 2 for S  read from file:
     ~/pseudo/S.pw91-van_ak.UPF
     MD5 check sum: Not computed, couldn't open file
     Pseudo is Ultrasoft, Zval =  6.0
     Generated by new atomic code, or converted to UPF format
     Using radial grid of  811 points,  6 beta functions with:
                l(1) =   0
                l(2) =   0
                l(3) =   1
                l(4) =   1
                l(5) =   2
                l(6) =   2
     Q(r) pseudized with  8 coefficients,  rinner =    1.100   1.100   1.100
                                                       1.100   1.100

     atomic species   valence    mass     pseudopotential
        Mo             6.00    95.50000     Mo( 1.00)
        S              6.00    32.06500     S ( 1.00)

     No symmetry found

   Cartesian axes

     site n.     atom                  positions (alat units)
         1           Mo  tau(   1) = (   0.3443097   0.2429680   1.1012528  )
         2           Mo  tau(   2) = (   0.7704147  -0.3339003   1.0354137  )
         3           Mo  tau(   3) = (  -0.1671013   0.7158787   0.0105251  )
         4           Mo  tau(   4) = (   0.4454452   0.6412437   0.1794356  )
         5           Mo  tau(   5) = (   0.5742403   0.4897054   1.0766822  )
         6           Mo  tau(   6) = (   0.1200387   0.6168139   0.1554842  )
         7           Mo  tau(   7) = (   0.0971066  -0.2425022   1.0619858  )
         8           Mo  tau(   8) = (   0.4333903  -0.2314327   1.0811251  )
         9           Mo  tau(   9) = (  -0.2791747   0.6905946   0.8534947  )
        10           Mo  tau(  10) = (   0.2355639   0.5832179   1.0996238  )
        11           Mo  tau(  11) = (   0.7469219   0.6348617   0.3359268  )
        12           S   tau(  12) = (  -0.0008749   0.7380280   0.9612229  )
        13           S   tau(  13) = (   0.2555809  -0.0145254   0.9758124  )
        14           S   tau(  14) = (  -0.1301214  -0.0680909   1.1308821  )
        15           S   tau(  15) = (   0.5886056  -0.1923267   0.8528581  )
        16           S   tau(  16) = (  -0.0411846  -0.2284928   0.8074977  )
        17           S   tau(  17) = (   0.5614771   0.4137986   0.3166690  )
        18           S   tau(  18) = (  -0.0498306   0.8324543   0.2544143  )
        19           S   tau(  19) = (   0.2536070   0.5982901   0.3953775  )
        20           S   tau(  20) = (   0.5589983   0.2514336   0.9171798  )
        21           S   tau(  21) = (  -0.1931021   0.5963308   0.6025860  )
        22           S   tau(  22) = (   0.4216947   0.6259471   0.8614890  )
        23           S   tau(  23) = (   0.1374318   0.3538125   0.9351221  )
        24           S   tau(  24) = (  -0.1076460   0.4543956   0.1518369  )
        25           S   tau(  25) = (  -0.1939083   0.3474845   1.2330578  )
        26           S   tau(  26) = (   0.5562567   0.8390410   0.3422335  )
        27           S   tau(  27) = (   0.2588094   0.8162108   0.0068058  )
        28           S   tau(  28) = (   0.2231478  -0.2137525   1.3370671  )
        29           S   tau(  29) = (  -0.0287279  -0.4606774   1.2323022  )
        30           S   tau(  30) = (   0.5076494   0.0195026   1.2536345  )
        31           S   tau(  31) = (   0.5944741  -0.3696055   1.2685860  )
        32           S   tau(  32) = (   0.4053499   0.4521830   1.3006367  )
        33           S   tau(  33) = (  -0.0001110   0.4991901   1.2854586  )

     number of k points=     8  Marzari-Vanderbilt smearing, width (Ry)=  0.0200
                       cart. coord. in units 2pi/alat
        k(    1) = (   0.0000000   0.0000000   0.0000000), wk =   0.2500000
        k(    2) = (   0.0000000   0.0000000  -0.3716241), wk =   0.2500000
        k(    3) = (   0.0000000  -0.4195083  -0.1984990), wk =   0.2500000
        k(    4) = (   0.0000000  -0.4195083  -0.5701232), wk =   0.2500000
        k(    5) = (  -0.5000000  -0.1225189  -0.0811503), wk =   0.2500000
        k(    6) = (  -0.5000000  -0.1225189  -0.4527745), wk =   0.2500000
        k(    7) = (  -0.5000000  -0.5420272  -0.2796494), wk =   0.2500000
        k(    8) = (  -0.5000000  -0.5420272  -0.6512735), wk =   0.2500000

     Initial potential from superposition of free atoms

     starting charge  197.98265, renormalised to  198.00000
     Starting wfcs are  187 randomized atomic wfcs

     Self-consistent Calculation

     iteration #  1     ecut=    45.00 Ry     beta= 0.70
     Davidson diagonalization with overlap
     ethr =  1.00E-02,  avg # of iterations =  2.0

     total energy              =    -772.37333308 Ry
     Harris-Foulkes estimate   =    -775.11475998 Ry
     estimated scf accuracy    <       7.32377839 Ry

[...]

     iteration #  7     ecut=    45.00 Ry     beta= 0.70
     Davidson diagonalization with overlap
     c_bands:  1 eigenvalues not converged
     ethr =  7.92E-06,  avg # of iterations =  8.6

[...]

     negative rho (up, down):  1.453E-07 0.000E+00

     total energy              =    -773.81436548 Ry
     Harris-Foulkes estimate   =    -773.81436394 Ry
     estimated scf accuracy    <       0.00000402 Ry

     iteration # 14     ecut=    45.00 Ry     beta= 0.70
     Davidson diagonalization with overlap
     ethr =  2.03E-09,  avg # of iterations =  3.5

[...]

     End of self-consistent calculation

          k = 0.0000 0.0000 0.0000 ( 31901 PWs)   bands (ev):

   -11.1537 -10.4681 -10.0480  -9.7869  -9.7013  -9.6401  -9.6066  -9.4529
    -9.2530  -9.1404  -9.1166  -9.0381  -8.9777  -8.9495  -8.9194  -8.8772
    -8.7427  -8.7148  -8.6147  -8.5457  -8.4515  -7.4040  -2.3734  -2.2048
    -2.0781  -2.0505  -1.8605  -1.8246  -1.7646  -1.6835  -1.6546  -1.5843
    -1.4703  -1.4315  -1.2682  -1.2445  -1.1816  -1.0927  -1.0025  -0.9051
    -0.8768  -0.8615  -0.7712  -0.7237  -0.7095  -0.6398  -0.6076  -0.4910
    -0.4510  -0.3590  -0.2377  -0.1751  -0.1507  -0.0665  -0.0185   0.0359
     0.0757   0.1658   0.2237   0.2729   0.3004   0.3294   0.5113   0.5538
     0.6304   0.6824   0.7783   0.7889   0.8801   0.9090   0.9998   1.0719
     1.1148   1.2222   1.2695   1.3122   1.4424   1.5528   1.6422   1.7504
     1.8687   1.9529   2.0059   2.0259   2.1662   2.1935   2.3397   2.3681
     2.5254   2.6187   2.6583   2.6741   2.8528   2.9020   3.1449   3.2650
     3.3147   3.4985   3.5856   3.6666   3.7514   3.8099   3.8889   4.0349
     4.1133   4.1519   4.2111   4.2621   4.3629   4.4855   4.5289   4.6056
     4.6529   4.7525   4.8261   5.0410   5.1614   5.2886   5.3063

[...]

          k = 0.0000-0.4195-0.5701 ( 31868 PWs)   bands (ev):

[...]

          k =-0.5000-0.1225-0.0812 ( 31854 PWs)   bands (ev):

[...]

          k =-0.5000-0.5420-0.6513 ( 31896 PWs)   bands (ev):

   -11.1131 -10.2759 -10.1459  -9.9958  -9.8230  -9.6130  -9.5593  -9.3847
    -9.3589  -9.2027  -9.1157  -9.0173  -8.9827  -8.9574  -8.9112  -8.8913
    -8.7969  -8.6170  -8.5090  -8.4888  -8.4142  -7.3859  -2.3918  -2.2285
    -2.1986  -2.1190  -1.8810  -1.7919  -1.7391  -1.7112  -1.5935  -1.5293
    -1.4408  -1.3555  -1.2969  -1.2181  -1.1306  -1.0733  -1.0559  -0.9290
    -0.8850  -0.7660  -0.7445  -0.7259  -0.6761  -0.5403  -0.5032  -0.4544
    -0.4332  -0.3898  -0.3047  -0.2519  -0.1782  -0.1491  -0.1233  -0.0402
     0.0080   0.1023   0.1742   0.2790   0.3031   0.4179   0.4487   0.5399
     0.5485   0.6379   0.6890   0.7491   0.8065   0.9079   0.9614   1.0520
     1.0740   1.2063   1.2469   1.3689   1.5212   1.6414   1.7152   1.7939
     1.8562   2.0045   2.0440   2.1044   2.1676   2.2943   2.3394   2.4341
     2.5348   2.6584   2.7460   2.8057   2.8994   3.0181   3.2176   3.2619
     3.3557   3.4738   3.5457   3.6125   3.7353   3.7735   3.8322   3.9024
     3.9932   4.1433   4.2694   4.2952   4.3224   4.4924   4.5902   4.6202
     4.6957   4.7680   4.8502   4.9935   5.1601   5.2292   5.2433

     the Fermi energy is     3.6160 ev

!    total energy              =    -773.81436634 Ry
     Harris-Foulkes estimate   =    -773.81436646 Ry
     estimated scf accuracy    <       0.00000085 Ry

     The total energy is the sum of the following terms:

     one-electron contribution =    -596.42229467 Ry
     hartree contribution      =     388.23193161 Ry
     xc contribution           =    -305.11405017 Ry
     ewald contribution        =    -260.50081499 Ry
     smearing contrib. (-TS)   =      -0.00913812 Ry

     convergence has been achieved in  14 iterations

     negative rho (up, down):  3.157E-07 0.000E+00

     Forces acting on atoms (cartesian axes, Ry/au):

     atom    1 type  1   force =    -0.04336467    0.03923653   -0.03784396
     atom    2 type  1   force =     0.01070793   -0.03785639   -0.00961307
     atom    3 type  1   force =     0.00831186    0.01962212   -0.00975319
     atom    4 type  1   force =     0.03073548   -0.02370368    0.00563245
     atom    5 type  1   force =     0.01592127    0.03224446   -0.00515433
     atom    6 type  1   force =    -0.00617797   -0.00080284    0.01250335
     atom    7 type  1   force =    -0.01206371    0.00217389    0.02124134
     atom    8 type  1   force =     0.01483650    0.00778039   -0.03760689
     atom    9 type  1   force =     0.03411734    0.00077290    0.00780836
     atom   10 type  1   force =    -0.00035258   -0.02938463   -0.03296515
     atom   11 type  1   force =    -0.02403147   -0.03335831    0.02646456
     atom   12 type  2   force =    -0.02435179   -0.01970813   -0.00497143
     atom   13 type  2   force =     0.01285833   -0.01417715   -0.00103530
     atom   14 type  2   force =    -0.00444914    0.00581206    0.00205272
     atom   15 type  2   force =    -0.01883220    0.00967290    0.03879213
     atom   16 type  2   force =    -0.02226335   -0.02233382    0.01068804
     atom   17 type  2   force =     0.01491802    0.03500108   -0.02638691
     atom   18 type  2   force =    -0.00369496   -0.00246524   -0.01972411
     atom   19 type  2   force =    -0.01940479   -0.00837733   -0.01413830
     atom   20 type  2   force =    -0.00137423    0.00940481    0.02132636
     atom   21 type  2   force =    -0.00140063    0.01151891    0.02840085
     atom   22 type  2   force =    -0.00225648   -0.00338974   -0.00351960
     atom   23 type  2   force =     0.04213309   -0.00412250    0.04913901
     atom   24 type  2   force =    -0.01221937    0.00198456   -0.00468209
     atom   25 type  2   force =     0.00394637    0.01294807   -0.03412508
     atom   26 type  2   force =     0.01297881    0.02106108   -0.00907285
     atom   27 type  2   force =    -0.00940583   -0.00064941    0.02404571
     atom   28 type  2   force =    -0.00797808   -0.00697286    0.02210867
     atom   29 type  2   force =    -0.00506715   -0.00210555   -0.03334379
     atom   30 type  2   force =     0.03022525   -0.00838997   -0.01076320
     atom   31 type  2   force =     0.00378491    0.00130584    0.00538064
     atom   32 type  2   force =    -0.01504459    0.00476474   -0.01765166
     atom   33 type  2   force =    -0.00174217    0.00249322    0.03676673

     Total force =     0.197651     Total SCF correction =     0.001588

     General routines

     Parallel routines

   This run was terminated on:  23:50:27  23Dec2021

   JOB DONE.