     Program PWSCF v.6.4 starts on  3Dec2021 at 18: 4:39

     R & G space division:  proc/nbgrp/npool/nimage =      40
     Waiting for input...
     Reading input from standard input
Warning: card    &IONS ignored
Warning: card      ION_DYNAMICS = 'BFGS' ignored
Warning: card   / ignored
Warning: card    &CELL ignored
Warning: card      CELL_DYNAMICS = 'BFGS', ignored
Warning: card    / ignored

     Current dimensions of program PWSCF are:
     Max number of different atomic species (ntypx) = 10
     Max number of k-points (npk) =  40000
     Max angular momentum in pseudopotentials (lmaxx) =  3

     bravais-lattice index     =            0
     lattice parameter (alat)  =      11.9818  a.u.
     unit-cell volume          =   13996.9379 (a.u.)^3
     number of atoms/cell      =           36
     number of atomic types    =            2
     number of electrons       =       216.00
     number of Kohn-Sham states=          130
     kinetic-energy cutoff     =      45.0000  Ry
     charge density cutoff     =     360.0000  Ry
     convergence threshold     =      1.0E-06
     mixing beta               =       0.7000
     number of iterations used =            8  local-TF  mixing
     Exchange-correlation      = SLA PW GGX GGC ( 1  4  2  2 0 0)

     celldm(1)=  11.981783  celldm(2)=   0.000000  celldm(3)=   0.000000
     celldm(4)=   0.000000  celldm(5)=   0.000000  celldm(6)=   0.000000

     crystal axes: (cart. coord. in units of alat)
               a(1) = (   1.000000   0.000000   0.000000 )
               a(2) = (   0.002115   1.769130   0.000000 )
               a(3) = (   0.467694   0.403673   4.599481 )

     reciprocal axes: (cart. coord. in units 2 pi/alat)
               b(1) = (  1.000000 -0.001195 -0.101579 )
               b(2) = (  0.000000  0.565249 -0.049609 )
               b(3) = (  0.000000  0.000000  0.217416 )

     PseudoPot. # 1 for Mo read from file:
     ~/pseudo/Mo.pw91-n-van.UPF
     MD5 check sum: Not computed, couldn't open file
     Pseudo is Ultrasoft + core correction, Zval =  6.0
     Generated by new atomic code, or converted to UPF format
     Using radial grid of  965 points,  3 beta functions with:
                l(1) =   1
                l(2) =   2
                l(3) =   2
     Q(r) pseudized with  8 coefficients,  rinner =    1.000   1.000   1.000
                                                       1.200   1.200

     PseudoPot. # 2 for S  read from file:
     ~/pseudo/S.pw91-van_ak.UPF
     MD5 check sum: Not computed, couldn't open file
     Pseudo is Ultrasoft, Zval =  6.0
     Generated by new atomic code, or converted to UPF format
     Using radial grid of  811 points,  6 beta functions with:
                l(1) =   0
                l(2) =   0
                l(3) =   1
                l(4) =   1
                l(5) =   2
                l(6) =   2
     Q(r) pseudized with  8 coefficients,  rinner =    1.100   1.100   1.100
                                                       1.100   1.100

     atomic species   valence    mass     pseudopotential
        Mo             6.00    95.50000     Mo( 1.00)
        S              6.00    32.06500     S ( 1.00)

     No symmetry found

   Cartesian axes

     site n.     atom                  positions (alat units)
         1           Mo  tau(   1) = (   0.5776631   0.2408496   1.1441623  )
         2           Mo  tau(   2) = (   0.3292617   1.5676563   1.1442577  )
         3           Mo  tau(   3) = (   1.0777947   0.2409303   1.1446356  )
         4           Mo  tau(   4) = (   0.8292435   1.5678255   1.1437695  )
         5           Mo  tau(   5) = (   1.0791476   1.1262926   1.1456268  )
         6           Mo  tau(   6) = (   0.5788677   1.1261911   1.1454102  )
         7           Mo  tau(   7) = (   0.8286029   0.6829431   1.1456356  )
         8           Mo  tau(   8) = (   0.3284578   0.6827366   1.1457539  )
         9           Mo  tau(   9) = (   1.2238832   1.4841995   4.3500552  )
        10           Mo  tau(  10) = (   0.6880096   1.4753069   4.3513470  )
        11           Mo  tau(  11) = (   0.6189378   1.1731103   0.1490634  )
        12           Mo  tau(  12) = (   0.1054413   1.2656270   0.1200985  )
        13           S   tau(  13) = (   0.3270784   0.0918417   0.8944989  )
        14           S   tau(  14) = (   0.5784679   0.5342782   0.8948010  )
        15           S   tau(  15) = (   0.8275991   0.0923176   0.8943720  )
        16           S   tau(  16) = (   1.0780681   0.5338449   0.8949818  )
        17           S   tau(  17) = (   0.4610385   1.7860404   4.3694701  )
        18           S   tau(  18) = (   0.9515738   1.2650957   4.5423875  )
        19           S   tau(  19) = (   0.3302761   1.8604551   1.3943508  )
        20           S   tau(  20) = (   0.5788259   0.5334674   1.3951179  )
        21           S   tau(  21) = (   0.8298552   1.8604054   1.3938292  )
        22           S   tau(  22) = (   1.0785674   0.5336841   1.3955155  )
        23           S   tau(  23) = (   0.8416510   1.4127385   0.3214396  )
        24           S   tau(  24) = (   0.3483354   1.2143857   0.3929838  )
        25           S   tau(  25) = (   0.0791838   1.4182810   0.8942114  )
        26           S   tau(  26) = (   0.5789709   1.4184235   0.8943648  )
        27           S   tau(  27) = (   1.0792772   1.4199015   1.3941356  )
        28           S   tau(  28) = (   0.5797322   1.4196009   1.3940539  )
        29           S   tau(  29) = (   0.8291817   0.9772711   1.3955560  )
        30           S   tau(  30) = (   0.3293520   0.9764811   1.3953814  )
        31           S   tau(  31) = (   0.9494872   0.9406906   0.0596851  )
        32           S   tau(  32) = (   0.9652828   1.4609678   4.0858559  )
        33           S   tau(  33) = (   0.8288194   0.9764701   0.8975839  )
        34           S   tau(  34) = (   0.3285714   0.9755165   0.8974420  )
        35           S   tau(  35) = (   0.4673867   1.2893369   4.1357133  )
        36           S   tau(  36) = (   0.9463716   1.7649296   4.4706608  )

     number of k points=     4  Marzari-Vanderbilt smearing, width (Ry)=  0.0200
                       cart. coord. in units 2pi/alat
        k(    1) = (   0.0000000   0.0000000   0.0000000), wk =   0.3333333
        k(    2) = (   0.0000000  -0.2826247   0.0248045), wk =   0.3333333
        k(    3) = (   0.3333333  -0.0003984  -0.0338597), wk =   0.6666667
        k(    4) = (   0.3333333  -0.2830232  -0.0090552), wk =   0.6666667

     Initial potential from superposition of free atoms

     starting charge  215.98107, renormalised to  216.00000

     negative rho (up, down):  1.947E-03 0.000E+00
     Starting wfcs are  204 randomized atomic wfcs

     Self-consistent Calculation

     iteration #  1     ecut=    45.00 Ry     beta= 0.70
     Davidson diagonalization with overlap
     ethr =  1.00E-02,  avg # of iterations =  2.0

     negative rho (up, down):  1.006E-03 0.000E+00

     total energy              =    -843.65896796 Ry
     Harris-Foulkes estimate   =    -846.40306099 Ry
     estimated scf accuracy    <       7.17818646 Ry

[...]

     total energy              =    -845.03980415 Ry
     Harris-Foulkes estimate   =    -845.03980936 Ry
     estimated scf accuracy    <       0.00000152 Ry

     iteration # 24     ecut=    45.00 Ry     beta= 0.70
     Davidson diagonalization with overlap
     ethr =  7.03E-10,  avg # of iterations =  4.0

[...]

     End of self-consistent calculation

          k = 0.0000 0.0000 0.0000 ( 71295 PWs)   bands (ev):

   -15.7272 -15.0524 -14.9710 -14.9644 -14.5412 -14.3819 -14.1921 -14.1889
   -13.9979 -13.9651 -13.9517 -13.9327 -13.9237 -13.8643 -13.7841 -13.7631
   -13.6774 -13.6711 -13.6567 -13.6554 -13.6009 -13.4089 -13.2235 -12.8040
    -7.3832  -7.3503  -7.3465  -7.2113  -6.8303  -6.7551  -6.7502  -6.7065
    -6.5939  -6.5803  -6.5393  -6.5368  -6.4404  -6.4374  -6.3973  -6.3487
    -6.2453  -6.0257  -5.7242  -5.7123  -5.7096  -5.5999  -5.5239  -5.5034
    -5.3492  -5.2737  -5.2547  -5.2151  -5.2113  -4.9952  -4.9723  -4.9355
    -4.9228  -4.8767  -4.8609  -4.8040  -4.7006  -4.6393  -4.6152  -4.5129
    -4.4981  -4.4950  -4.3616  -4.3554  -4.1502  -4.1061  -3.9817  -3.9785
    -3.9687  -3.8224  -3.7284  -3.6510  -3.5584  -3.5312  -3.5107  -3.4150
    -3.3498  -3.3363  -3.3354  -3.3246  -3.2685  -3.2220  -3.1232  -3.0518
    -3.0473  -3.0265  -2.7685  -2.6856  -2.6681  -2.6469  -2.5015  -2.4999
    -2.4762  -2.4532  -2.4365  -2.3227  -2.3030  -2.2689  -2.2462  -1.7903
    -1.7428  -1.6643  -1.3106  -0.9922  -0.9106  -0.8137  -0.3513  -0.3078
     0.0857   0.1854   0.3343   0.3491   0.3580   0.3590   0.3818   0.3928
     0.4049   0.4536   0.6232   0.6434   0.7301   0.8197   0.8492   0.9105
     0.9132   1.0023

[...]

          k = 0.3333-0.2830-0.0091 ( 71332 PWs)   bands (ev):

   -15.2512 -15.2419 -14.8295 -14.5762 -14.5663 -14.4155 -14.3101 -14.3036
   -14.1588 -14.1477 -14.0135 -13.9756 -13.9691 -13.8686 -13.8575 -13.8024
   -13.7975 -13.7381 -13.6332 -13.6259 -13.6181 -13.4970 -13.2213 -12.8529
    -6.8147  -6.8069  -6.7552  -6.7539  -6.7263  -6.7174  -6.7107  -6.6950
    -6.6783  -6.6693  -6.4657  -6.2850  -6.2664  -6.2292  -6.2217  -6.1111
    -5.9577  -5.6642  -5.6464  -5.5401  -5.5205  -5.4891  -5.4577  -5.4493
    -5.4371  -5.4273  -5.3085  -5.2276  -5.1289  -5.1223  -5.1070  -5.0572
    -4.8748  -4.8559  -4.8310  -4.8227  -4.8056  -4.6661  -4.6548  -4.5867
    -4.5487  -4.5330  -4.5192  -4.4893  -4.4855  -4.3426  -4.2667  -4.0863
    -3.9530  -3.9463  -3.9296  -3.9176  -3.8627  -3.7783  -3.7666  -3.7345
    -3.6149  -3.5566  -3.5444  -3.4300  -3.2910  -3.2810  -3.2075  -3.1959
    -3.1939  -3.1734  -3.1403  -2.9518  -2.7558  -2.7282  -2.6381  -2.6259
    -2.6081  -2.3105  -2.3028  -2.2783  -2.1456  -2.1327  -2.0221  -2.0176
    -1.9507  -1.6250  -1.3756  -1.0234  -0.8129  -0.6237  -0.3576  -0.0608
     0.1070   0.2207   0.2724   0.2767   0.2871   0.3064   0.3632   0.3862
     0.3988   0.4320   0.4471   0.5727   0.5778   0.6531   0.6831   0.6902
     0.7010   0.7154

     the Fermi energy is    -0.9306 ev

!    total energy              =    -845.03980437 Ry
     Harris-Foulkes estimate   =    -845.03980442 Ry
     estimated scf accuracy    <       0.00000039 Ry

     The total energy is the sum of the following terms:

     one-electron contribution =   -7061.10201953 Ry
     hartree contribution      =    3590.88827491 Ry
     xc contribution           =    -333.75258149 Ry
     ewald contribution        =    2958.93241353 Ry
     smearing contrib. (-TS)   =      -0.00589179 Ry

     convergence has been achieved in  24 iterations

     negative rho (up, down):  2.704E-03 0.000E+00

     Forces acting on atoms (cartesian axes, Ry/au):

     atom    1 type  1   force =     0.00110093   -0.00220597    0.00141837
     atom    2 type  1   force =     0.00137986   -0.00140069   -0.00138622
     atom    3 type  1   force =    -0.00027304   -0.00266147    0.00100013
     atom    4 type  1   force =     0.00033473   -0.00209026    0.00012016
     atom    5 type  1   force =    -0.00034192   -0.00524646    0.00120860
     atom    6 type  1   force =     0.00052956   -0.00523797    0.00151603
     atom    7 type  1   force =    -0.00063219   -0.00256953    0.00119216
     atom    8 type  1   force =     0.00113172   -0.00398901    0.00060383
     atom    9 type  1   force =    -0.01395838    0.01109125   -0.01866156
     atom   10 type  1   force =     0.01473358   -0.02255075   -0.03399414
     atom   11 type  1   force =     0.02116815   -0.00124680    0.02492906
     atom   12 type  1   force =     0.02101514    0.02020351    0.04632424
     atom   13 type  2   force =     0.00116261    0.00146817    0.00012457
     atom   14 type  2   force =    -0.00036426    0.00256113    0.00180681
     atom   15 type  2   force =     0.00011868    0.00067995   -0.00036640
     atom   16 type  2   force =     0.00082691    0.00309877    0.00157287
     atom   17 type  2   force =     0.00610061    0.00074121   -0.00737574
     atom   18 type  2   force =     0.00346000   -0.00345547    0.01320344
     atom   19 type  2   force =    -0.00115451    0.00247167   -0.00089356
     atom   20 type  2   force =    -0.00043124    0.00085365   -0.00077897
     atom   21 type  2   force =    -0.00060422    0.00269997    0.00026029
     atom   22 type  2   force =    -0.00087003    0.00069638   -0.00103541
     atom   23 type  2   force =    -0.00887430    0.01037967    0.00269833
     atom   24 type  2   force =    -0.01647818   -0.00266810    0.00075721
     atom   25 type  2   force =     0.00024563    0.00151643    0.00099520
     atom   26 type  2   force =     0.00040914    0.00143453    0.00065327
     atom   27 type  2   force =    -0.00052205    0.00062599    0.00132512
     atom   28 type  2   force =    -0.00091335    0.00116367    0.00133920
     atom   29 type  2   force =    -0.00067634   -0.00028120   -0.00089401
     atom   30 type  2   force =    -0.00098796    0.00148233    0.00006782
     atom   31 type  2   force =    -0.00575105   -0.01263734    0.01408044
     atom   32 type  2   force =    -0.01567913   -0.00912744   -0.02395709
     atom   33 type  2   force =     0.00011796    0.00122362   -0.00558141
     atom   34 type  2   force =     0.00068258    0.00207399   -0.00261112
     atom   35 type  2   force =    -0.00965408   -0.00938612   -0.02537542
     atom   36 type  2   force =     0.00364844    0.02028871    0.00571389

     Total force =     0.100866     Total SCF correction =     0.001606

     General routines

     Parallel routines

   This run was terminated on:  18:10: 1   3Dec2021

   JOB DONE.