     Program PWSCF v.6.4 starts on  2Sep2021 at 10:16:45

     R & G space division:  proc/nbgrp/npool/nimage =      40
     Waiting for input...
     Reading input from standard input
Warning: card    &IONS ignored
Warning: card      ION_DYNAMICS = 'BFGS' ignored
Warning: card   / ignored
Warning: card    &CELL ignored
Warning: card      CELL_DYNAMICS = 'BFGS', ignored
Warning: card    / ignored

     Current dimensions of program PWSCF are:
     Max number of different atomic species (ntypx) = 10
     Max number of k-points (npk) =  40000
     Max angular momentum in pseudopotentials (lmaxx) =  3

     bravais-lattice index     =            0
     lattice parameter (alat)  =      12.1786  a.u.
     unit-cell volume          =    4641.0482 (a.u.)^3
     number of atoms/cell      =           24
     number of atomic types    =            2
     number of electrons       =       144.00
     number of Kohn-Sham states=           86
     kinetic-energy cutoff     =      45.0000  Ry
     charge density cutoff     =     360.0000  Ry
     convergence threshold     =      1.0E-06
     mixing beta               =       0.7000
     number of iterations used =            8  local-TF  mixing
     Exchange-correlation      = SLA PW GGX GGC ( 1  4  2  2 0 0)

     celldm(1)=  12.178612  celldm(2)=   0.000000  celldm(3)=   0.000000
     celldm(4)=   0.000000  celldm(5)=   0.000000  celldm(6)=   0.000000

     crystal axes: (cart. coord. in units of alat)
               a(1) = (   1.000000   0.000000   0.000000 )
               a(2) = (   0.499992   0.866146   0.000000 )
               a(3) = (   0.064781   0.053557   2.966413 )

     reciprocal axes: (cart. coord. in units 2 pi/alat)
               b(1) = (  1.000000 -0.577261 -0.011416 )
               b(2) = (  0.000000  1.154540 -0.020845 )
               b(3) = (  0.000000  0.000000  0.337107 )

     PseudoPot. # 1 for Mo read from file:
     ~/pseudo/Mo.pw91-n-van.UPF
     MD5 check sum: Not computed, couldn't open file
     Pseudo is Ultrasoft + core correction, Zval =  6.0
     Generated by new atomic code, or converted to UPF format
     Using radial grid of  965 points,  3 beta functions with:
                l(1) =   1
                l(2) =   2
                l(3) =   2
     Q(r) pseudized with  8 coefficients,  rinner =    1.000   1.000   1.000
                                                       1.200   1.200

     PseudoPot. # 2 for S  read from file:
     ~/pseudo/S.pw91-van_ak.UPF
     MD5 check sum: Not computed, couldn't open file
     Pseudo is Ultrasoft, Zval =  6.0
     Generated by new atomic code, or converted to UPF format
     Using radial grid of  811 points,  6 beta functions with:
                l(1) =   0
                l(2) =   0
                l(3) =   1
                l(4) =   1
                l(5) =   2
                l(6) =   2
     Q(r) pseudized with  8 coefficients,  rinner =    1.100   1.100   1.100
                                                       1.100   1.100

     atomic species   valence    mass     pseudopotential
        Mo             6.00    95.50000     Mo( 1.00)
        S              6.00    32.06500     S ( 1.00)

     No symmetry found

   Cartesian axes

     site n.     atom                  positions (alat units)
         1           Mo  tau(   1) = (   0.2114457   0.0908550   2.3560943  )
         2           Mo  tau(   2) = (   0.4614973   0.5238927   2.3560691  )
         3           Mo  tau(   3) = (   0.9614454   0.5239872   2.3560974  )
         4           Mo  tau(   4) = (   0.7114814   0.0908955   2.3560815  )
         5           Mo  tau(   5) = (   1.3513553   0.8310188   0.6017589  )
         6           Mo  tau(   6) = (   1.1013955   0.3980206   0.6017888  )
         7           Mo  tau(   7) = (   0.6013266   0.3979901   0.6017867  )
         8           Mo  tau(   8) = (   0.8514033   0.8310739   0.6017842  )
         9           S   tau(   9) = (   0.9614547   0.8127155   2.6009959  )
        10           S   tau(  10) = (   0.7114764   0.3795897   2.6010191  )
        11           S   tau(  11) = (   1.2114392   0.3795932   2.6009605  )
        12           S   tau(  12) = (   1.4614292   0.8126044   2.6009691  )
        13           S   tau(  13) = (   0.1013990   0.1092814   0.3569179  )
        14           S   tau(  14) = (   0.3513763   0.5423268   0.3568209  )
        15           S   tau(  15) = (   0.8513668   0.5423371   0.3569144  )
        16           S   tau(  16) = (   0.6014038   0.1092826   0.3568623  )
        17           S   tau(  17) = (   0.1013663   0.1093044   0.8457737  )
        18           S   tau(  18) = (   0.3513661   0.5423913   0.8458788  )
        19           S   tau(  19) = (   0.8513528   0.5423823   0.8458021  )
        20           S   tau(  20) = (   0.6014147   0.1093087   0.8458296  )
        21           S   tau(  21) = (   0.9614587   0.8126681   2.1120463  )
        22           S   tau(  22) = (   0.7115129   0.3795549   2.1120051  )
        23           S   tau(  23) = (   1.2114274   0.3795469   2.1120742  )
        24           S   tau(  24) = (   1.4614477   0.8125794   2.1120514  )

     number of k points=     5  Marzari-Vanderbilt smearing, width (Ry)=  0.0200
                       cart. coord. in units 2pi/alat
        k(    1) = (   0.0000000   0.0000000   0.0000000), wk =   0.2222222
        k(    2) = (   0.0000000   0.3848466  -0.0069482), wk =   0.4444444
        k(    3) = (   0.3333333  -0.1924203  -0.0038053), wk =   0.4444444
        k(    4) = (   0.3333333   0.1924263  -0.0107536), wk =   0.4444444
        k(    5) = (   0.3333333  -0.5772669   0.0031429), wk =   0.4444444

     Initial potential from superposition of free atoms

     starting charge  143.98738, renormalised to  144.00000

     negative rho (up, down):  5.245E-06 0.000E+00
     Starting wfcs are  136 randomized atomic wfcs

     Self-consistent Calculation

     iteration #  1     ecut=    45.00 Ry     beta= 0.70
     Davidson diagonalization with overlap
     ethr =  1.00E-02,  avg # of iterations =  2.0

     total energy              =    -562.82019201 Ry
     Harris-Foulkes estimate   =    -564.57711434 Ry
     estimated scf accuracy    <       4.49060748 Ry

[...]

     negative rho (up, down):  2.203E-05 0.000E+00

[...]

     total energy              =    -563.69391555 Ry
     Harris-Foulkes estimate   =    -563.69391588 Ry
     estimated scf accuracy    <       0.00000127 Ry

     iteration # 14     ecut=    45.00 Ry     beta= 0.70
     Davidson diagonalization with overlap
     ethr =  8.81E-10,  avg # of iterations =  4.0

[...]

     End of self-consistent calculation

          k = 0.0000 0.0000 0.0000 ( 23571 PWs)   bands (ev):

   -11.1193 -11.1149  -9.9177  -9.9095  -9.4010  -9.4004  -9.4000  -9.3999
    -9.3988  -9.3982  -9.1224  -9.1215  -9.1214  -9.1211  -9.1198  -9.1192
    -2.7466  -2.7464  -2.7463  -2.7406  -2.7401  -2.7397  -2.6181  -2.5708
    -1.7994  -1.7980  -1.7946  -1.7939  -1.7909  -1.7887  -1.1351  -1.1331
    -1.1282  -1.1172  -1.1123  -1.1104  -0.2466  -0.2466  -0.2462  -0.2457
    -0.2451  -0.2443   0.2584   0.2586   0.2597   0.2598   1.0209   1.0259
     1.0366   1.0418   1.0522   1.0559   1.1088   1.2995   1.3750   1.3754
     1.3766   1.3768   1.9000   1.9005   1.9014   1.9019   1.9029   1.9040
     2.2122   2.2133   2.2206   2.2207   2.2273   2.2279   2.8016   2.9278
     4.8567   4.8569   4.8573   4.8576   4.8580   4.8582   5.3740   5.3742
     5.3760   5.3875   5.3897   5.3899   5.5532   5.5541

[...]

          k = 0.3333-0.5773 0.0031 ( 23717 PWs)   bands (ev):

   -10.1491 -10.1490 -10.1487 -10.1455 -10.1453 -10.1450  -9.4559  -9.4558
    -9.4554  -9.4507  -9.4505  -9.4501  -9.1632  -9.1622  -8.9628  -8.9615
    -2.3692  -2.3664  -1.9410  -1.9409  -1.9408  -1.9168  -1.9166  -1.9166
    -1.5822  -1.5802  -1.0921  -1.0870  -0.9143  -0.9136  -0.9122  -0.8974
    -0.8958  -0.8953  -0.6794  -0.6788  -0.6785  -0.6714  -0.6682  -0.6678
    -0.6676  -0.6603  -0.2446  -0.2438  -0.2434  -0.2165  -0.2162  -0.2155
     0.0260   0.0300   0.7319   0.7486   0.9201   0.9207   0.9210   0.9212
     0.9216   0.9222   1.7889   1.7897   1.7925   1.8329   1.8358   1.8365
     2.0667   2.0672   2.0683   2.0712   2.0723   2.0726   2.8048   2.8094
     4.4164   4.4166   4.6739   4.6745   4.6747   4.7535   4.7543   4.7549
     5.1539   5.1544   5.1551   5.1972   5.1977   5.1985

     the Fermi energy is     2.9428 ev

!    total energy              =    -563.69391575 Ry
     Harris-Foulkes estimate   =    -563.69391620 Ry
     estimated scf accuracy    <       0.00000048 Ry

     The total energy is the sum of the following terms:

     one-electron contribution =    -924.85618603 Ry
     hartree contribution      =     526.32244920 Ry
     xc contribution           =    -222.71746783 Ry
     ewald contribution        =      57.54256867 Ry
     smearing contrib. (-TS)   =       0.01472024 Ry

     convergence has been achieved in  14 iterations

     negative rho (up, down):  3.412E-05 0.000E+00

     Forces acting on atoms (cartesian axes, Ry/au):

     atom    1 type  1   force =    -0.00000705    0.00065271    0.00430080
     atom    2 type  1   force =    -0.00061336   -0.00035578    0.00419914
     atom    3 type  1   force =     0.00052588   -0.00050510    0.00411238
     atom    4 type  1   force =    -0.00006082   -0.00000107    0.00408430
     atom    5 type  1   force =    -0.00045998    0.00028146   -0.00276620
     atom    6 type  1   force =    -0.00009679    0.00013141   -0.00304234
     atom    7 type  1   force =     0.00020520   -0.00043027   -0.00304302
     atom    8 type  1   force =     0.00050474    0.00009438   -0.00299179
     atom    9 type  2   force =     0.00014026   -0.00010160   -0.00079412
     atom   10 type  2   force =     0.00000524   -0.00008621   -0.00103284
     atom   11 type  2   force =     0.00004607    0.00008611   -0.00073118
     atom   12 type  2   force =     0.00004797   -0.00006109   -0.00092747
     atom   13 type  2   force =    -0.00019679   -0.00009837    0.00005642
     atom   14 type  2   force =     0.00007676    0.00016212    0.00032408
     atom   15 type  2   force =    -0.00020633    0.00005209    0.00018079
     atom   16 type  2   force =     0.00002945    0.00016015    0.00025181
     atom   17 type  2   force =     0.00007172   -0.00004468    0.00292773
     atom   18 type  2   force =     0.00007073   -0.00006263    0.00244073
     atom   19 type  2   force =    -0.00000255   -0.00009602    0.00270080
     atom   20 type  2   force =    -0.00001161   -0.00001643    0.00255690
     atom   21 type  2   force =    -0.00004107    0.00002393   -0.00297752
     atom   22 type  2   force =    -0.00001613   -0.00008124   -0.00318547
     atom   23 type  2   force =     0.00006033   -0.00005425   -0.00340301
     atom   24 type  2   force =    -0.00007187    0.00035037   -0.00324091

     Total force =     0.013425     Total SCF correction =     0.001506
     SCF correction compared to forces is large: reduce conv_thr to get better values

     General routines

     Parallel routines

   This run was terminated on:  10:17:38   2Sep2021

   JOB DONE.