     Program PWSCF v.6.4 starts on 24Dec2021 at  0: 9: 1

     R & G space division:  proc/nbgrp/npool/nimage =      40
     Waiting for input...
     Reading input from standard input
Warning: card    &IONS ignored
Warning: card      ION_DYNAMICS = 'BFGS' ignored
Warning: card   / ignored
Warning: card    &CELL ignored
Warning: card      CELL_DYNAMICS = 'BFGS', ignored
Warning: card    / ignored

     Current dimensions of program PWSCF are:
     Max number of different atomic species (ntypx) = 10
     Max number of k-points (npk) =  40000
     Max angular momentum in pseudopotentials (lmaxx) =  3

     bravais-lattice index     =            0
     lattice parameter (alat)  =      12.6873  a.u.
     unit-cell volume          =    3591.5932 (a.u.)^3
     number of atoms/cell      =           24
     number of atomic types    =            2
     number of electrons       =       144.00
     number of Kohn-Sham states=           86
     kinetic-energy cutoff     =      45.0000  Ry
     charge density cutoff     =     360.0000  Ry
     convergence threshold     =      1.0E-06
     mixing beta               =       0.7000
     number of iterations used =            8  local-TF  mixing
     Exchange-correlation      = SLA PW GGX GGC ( 1  4  2  2 0 0)

     celldm(1)=  12.687312  celldm(2)=   0.000000  celldm(3)=   0.000000
     celldm(4)=   0.000000  celldm(5)=   0.000000  celldm(6)=   0.000000

     crystal axes: (cart. coord. in units of alat)
               a(1) = (   1.000000   0.000000   0.000000 )
               a(2) = (   0.139192   1.105205   0.000000 )
               a(3) = (   0.232481   0.400785   1.591240 )

     reciprocal axes: (cart. coord. in units 2 pi/alat)
               b(1) = (  1.000000 -0.125943 -0.114380 )
               b(2) = (  0.000000  0.904810 -0.227894 )
               b(3) = (  0.000000  0.000000  0.628441 )

     PseudoPot. # 1 for Mo read from file:
     ~/pseudo/Mo.pw91-n-van.UPF
     MD5 check sum: Not computed, couldn't open file
     Pseudo is Ultrasoft + core correction, Zval =  6.0
     Generated by new atomic code, or converted to UPF format
     Using radial grid of  965 points,  3 beta functions with:
                l(1) =   1
                l(2) =   2
                l(3) =   2
     Q(r) pseudized with  8 coefficients,  rinner =    1.000   1.000   1.000
                                                       1.200   1.200

     PseudoPot. # 2 for S  read from file:
     ~/pseudo/S.pw91-van_ak.UPF
     MD5 check sum: Not computed, couldn't open file
     Pseudo is Ultrasoft, Zval =  6.0
     Generated by new atomic code, or converted to UPF format
     Using radial grid of  811 points,  6 beta functions with:
                l(1) =   0
                l(2) =   0
                l(3) =   1
                l(4) =   1
                l(5) =   2
                l(6) =   2
     Q(r) pseudized with  8 coefficients,  rinner =    1.100   1.100   1.100
                                                       1.100   1.100

     atomic species   valence    mass     pseudopotential
        Mo             6.00    95.50000     Mo( 1.00)
        S              6.00    32.06500     S ( 1.00)

     No symmetry found

   Cartesian axes

     site n.     atom                  positions (alat units)
         1           Mo  tau(   1) = (   0.5069569   0.8721408   0.2016371  )
         2           Mo  tau(   2) = (   0.3213635   0.5762360   0.6400684  )
         3           Mo  tau(   3) = (   0.8254571   0.3734591   1.4574743  )
         4           Mo  tau(   4) = (   0.3334261   0.2338029   0.0463900  )
         5           Mo  tau(   5) = (   0.5827273   0.5031613   0.9762448  )
         6           Mo  tau(   6) = (   0.8977350   0.2199936   0.0254483  )
         7           Mo  tau(   7) = (   0.8119055   0.5685756   0.6383456  )
         8           Mo  tau(   8) = (   1.0320640   0.4977791   0.9878004  )
         9           S   tau(   9) = (   0.9401732   1.3350212   1.1071611  )
        10           S   tau(  10) = (   0.5702864   0.8524690   0.5489405  )
        11           S   tau(  11) = (   0.3048199   0.7451768   0.9532357  )
        12           S   tau(  12) = (   1.0570161   0.8207288   0.5272398  )
        13           S   tau(  13) = (   0.2568318   1.1334628   0.2371364  )
        14           S   tau(  14) = (   0.6101127   0.0692721   0.2310905  )
        15           S   tau(  15) = (   0.8106045   0.7675101   0.9459177  )
        16           S   tau(  16) = (   0.5613776   0.3068384   0.6781460  )
        17           S   tau(  17) = (   0.3479772   0.8429996   1.4474294  )
        18           S   tau(  18) = (   0.7818895   0.7666361   0.0176904  )
        19           S   tau(  19) = (   1.1471092   0.4007332   1.3225061  )
        20           S   tau(  20) = (   1.0703922   0.3165423   0.6855156  )
        21           S   tau(  21) = (   0.5076432   0.4254349   1.3238958  )
        22           S   tau(  22) = (   0.3516869   0.5414485   0.2558198  )
        23           S   tau(  23) = (   0.8427125   0.7470418   1.4317983  )
        24           S   tau(  24) = (   0.8406135   0.4521029   0.2894849  )

     number of k points=     8  Marzari-Vanderbilt smearing, width (Ry)=  0.0200
                       cart. coord. in units 2pi/alat
        k(    1) = (   0.0000000   0.0000000   0.0000000), wk =   0.1666667
        k(    2) = (   0.0000000   0.0000000  -0.3142204), wk =   0.1666667
        k(    3) = (   0.0000000  -0.4524049   0.1139471), wk =   0.1666667
        k(    4) = (   0.0000000  -0.4524049  -0.2002733), wk =   0.1666667
        k(    5) = (   0.3333333  -0.0419809  -0.0381265), wk =   0.3333333
        k(    6) = (   0.3333333  -0.0419809  -0.3523469), wk =   0.3333333
        k(    7) = (   0.3333333  -0.4943858   0.0758206), wk =   0.3333333
        k(    8) = (   0.3333333  -0.4943858  -0.2383998), wk =   0.3333333

     Initial potential from superposition of free atoms

     starting charge  143.98738, renormalised to  144.00000
     Starting wfcs are  136 randomized atomic wfcs

     Self-consistent Calculation

     iteration #  1     ecut=    45.00 Ry     beta= 0.70
     Davidson diagonalization with overlap
     ethr =  1.00E-02,  avg # of iterations =  2.0

     total energy              =    -561.59963438 Ry
     Harris-Foulkes estimate   =    -563.84960539 Ry
     estimated scf accuracy    <       6.04157804 Ry

[...]

     iteration #  7     ecut=    45.00 Ry     beta= 0.70
     Davidson diagonalization with overlap
     c_bands:  1 eigenvalues not converged
     ethr =  6.49E-06,  avg # of iterations =  5.1

[...]

     total energy              =    -562.82257053 Ry
     Harris-Foulkes estimate   =    -562.82257082 Ry
     estimated scf accuracy    <       0.00000150 Ry

     iteration # 13     ecut=    45.00 Ry     beta= 0.70
     Davidson diagonalization with overlap
     ethr =  1.04E-09,  avg # of iterations =  2.6

     End of self-consistent calculation

          k = 0.0000 0.0000 0.0000 ( 18311 PWs)   bands (ev):

    -8.6533  -7.8761  -7.5511  -7.1992  -7.0065  -6.8721  -6.8342  -6.7419
    -6.7162  -6.6209  -6.5962  -6.4940  -6.3939  -6.1026  -5.9858  -5.6931
    -0.4911   0.0165   0.0900   0.3006   0.3952   0.5134   0.6573   0.7224
     0.9480   1.0558   1.1270   1.1697   1.3033   1.4761   1.6017   1.6594
     1.7841   1.8515   1.8857   1.9915   2.2337   2.3389   2.3547   2.3872
     2.5536   2.5864   2.6419   2.6475   2.7018   2.8340   2.8441   3.0073
     3.1106   3.2769   3.4206   3.5144   3.6804   3.7065   3.8332   3.9459
     4.1650   4.3347   4.3718   4.4993   4.5669   4.6485   4.7229   4.9071
     4.9906   5.0662   5.2744   5.4300   5.4520   5.6154   5.7924   5.8448
     6.0374   6.2308   6.3319   6.3885   6.5999   6.7783   6.8657   6.9816
     7.1734   7.2717   7.4148   7.5184   7.6873   7.8806

[...]

          k = 0.3333-0.4944-0.2384 ( 18313 PWs)   bands (ev):

    -8.4011  -7.6238  -7.5325  -7.3227  -7.2157  -7.0930  -7.0297  -6.8923
    -6.7939  -6.6914  -6.5702  -6.4763  -6.1564  -6.0585  -5.9584  -5.6911
    -0.3168   0.1158   0.3567   0.4275   0.6580   0.7286   0.7983   0.8927
     0.9572   1.0867   1.1687   1.3079   1.4527   1.5124   1.5550   1.6200
     1.7082   1.8377   1.9125   1.9802   2.0409   2.1113   2.1707   2.2684
     2.5046   2.5430   2.5779   2.6575   2.7619   2.8211   2.9730   3.0611
     3.1153   3.2529   3.3083   3.4001   3.4847   3.6220   3.7146   3.8487
     4.0042   4.0612   4.1895   4.3609   4.5512   4.6145   4.7610   4.9156
     5.0224   5.1038   5.2826   5.3350   5.5213   5.5830   5.7311   5.8795
     5.9818   6.1188   6.3070   6.4304   6.5417   6.6243   6.8015   6.9052
     7.0859   7.1568   7.2825   7.6105   7.7204   7.7766

     the Fermi energy is     5.9450 ev

!    total energy              =    -562.82257064 Ry
     Harris-Foulkes estimate   =    -562.82257076 Ry
     estimated scf accuracy    <       0.00000019 Ry

     The total energy is the sum of the following terms:

     one-electron contribution =     -80.95141191 Ry
     hartree contribution      =     118.80072204 Ry
     xc contribution           =    -222.24090165 Ry
     ewald contribution        =    -378.43177323 Ry
     smearing contrib. (-TS)   =       0.00079411 Ry

     convergence has been achieved in  13 iterations

     Forces acting on atoms (cartesian axes, Ry/au):

     atom    1 type  1   force =    -0.00047419   -0.01114202    0.00523327
     atom    2 type  1   force =    -0.01256481    0.01934121    0.01838107
     atom    3 type  1   force =    -0.01923574   -0.00483642   -0.03000961
     atom    4 type  1   force =    -0.03049304   -0.00415108   -0.00761166
     atom    5 type  1   force =    -0.00561157   -0.00810967   -0.02852225
     atom    6 type  1   force =     0.03935082    0.05917501    0.05219018
     atom    7 type  1   force =     0.02498544    0.01534719   -0.03678975
     atom    8 type  1   force =    -0.00756153   -0.01362945   -0.02095858
     atom    9 type  2   force =     0.01361613    0.00870403   -0.02130191
     atom   10 type  2   force =    -0.00484214   -0.01399095   -0.01286155
     atom   11 type  2   force =     0.00219008   -0.00596291    0.03328966
     atom   12 type  2   force =     0.00695900   -0.02605839    0.01541189
     atom   13 type  2   force =    -0.00256678   -0.02091124    0.00137587
     atom   14 type  2   force =    -0.01893557    0.00300002   -0.00349712
     atom   15 type  2   force =     0.00743771   -0.00446476    0.00609868
     atom   16 type  2   force =    -0.00025989    0.00854011    0.00217154
     atom   17 type  2   force =    -0.02539855    0.00033051    0.00942733
     atom   18 type  2   force =    -0.01594679   -0.02336171    0.00539561
     atom   19 type  2   force =     0.00552713   -0.01865243   -0.00610940
     atom   20 type  2   force =    -0.00965349   -0.00434979    0.00541527
     atom   21 type  2   force =     0.02398038    0.00778618    0.04230510
     atom   22 type  2   force =     0.00961097    0.02544370   -0.00705661
     atom   23 type  2   force =     0.00427571    0.01581451   -0.00463588
     atom   24 type  2   force =     0.01561071   -0.00386166   -0.01734116

     Total force =     0.159104     Total SCF correction =     0.000806

     General routines

     Parallel routines

   This run was terminated on:   0: 9:52  24Dec2021

   JOB DONE.