     Program PWSCF v.6.4 starts on  8Sep2021 at 12: 1:36

     R & G space division:  proc/nbgrp/npool/nimage =      40
     Waiting for input...
     Reading input from standard input
Warning: card    &IONS ignored
Warning: card      ION_DYNAMICS = 'BFGS' ignored
Warning: card   / ignored
Warning: card    &CELL ignored
Warning: card      CELL_DYNAMICS = 'BFGS', ignored
Warning: card    / ignored

     Current dimensions of program PWSCF are:
     Max number of different atomic species (ntypx) = 10
     Max number of k-points (npk) =  40000
     Max angular momentum in pseudopotentials (lmaxx) =  3

     bravais-lattice index     =            0
     lattice parameter (alat)  =      12.4847  a.u.
     unit-cell volume          =    6349.9096 (a.u.)^3
     number of atoms/cell      =           36
     number of atomic types    =            2
     number of electrons       =       216.00
     number of Kohn-Sham states=          130
     kinetic-energy cutoff     =      45.0000  Ry
     charge density cutoff     =     360.0000  Ry
     convergence threshold     =      1.0E-06
     mixing beta               =       0.7000
     number of iterations used =            8  local-TF  mixing
     Exchange-correlation      = SLA PW GGX GGC ( 1  4  2  2 0 0)

     celldm(1)=  12.484737  celldm(2)=   0.000000  celldm(3)=   0.000000
     celldm(4)=   0.000000  celldm(5)=   0.000000  celldm(6)=   0.000000

     crystal axes: (cart. coord. in units of alat)
               a(1) = (   0.999762  -0.021576   0.003299 )
               a(2) = (  -0.501189   0.866116  -0.011321 )
               a(3) = (   0.311231  -0.108735   3.818235 )

     reciprocal axes: (cart. coord. in units 2 pi/alat)
               b(1) = (  1.013089  0.585376 -0.065908 )
               b(2) = (  0.025137  1.169534  0.031257 )
               b(3) = ( -0.000801  0.002962  0.262051 )

     PseudoPot. # 1 for Mo read from file:
     ~/pseudo/Mo.pw91-n-van.UPF
     MD5 check sum: Not computed, couldn't open file
     Pseudo is Ultrasoft + core correction, Zval =  6.0
     Generated by new atomic code, or converted to UPF format
     Using radial grid of  965 points,  3 beta functions with:
                l(1) =   1
                l(2) =   2
                l(3) =   2
     Q(r) pseudized with  8 coefficients,  rinner =    1.000   1.000   1.000
                                                       1.200   1.200

     PseudoPot. # 2 for S  read from file:
     ~/pseudo/S.pw91-van_ak.UPF
     MD5 check sum: Not computed, couldn't open file
     Pseudo is Ultrasoft, Zval =  6.0
     Generated by new atomic code, or converted to UPF format
     Using radial grid of  811 points,  6 beta functions with:
                l(1) =   0
                l(2) =   0
                l(3) =   1
                l(4) =   1
                l(5) =   2
                l(6) =   2
     Q(r) pseudized with  8 coefficients,  rinner =    1.100   1.100   1.100
                                                       1.100   1.100

     atomic species   valence    mass     pseudopotential
        Mo             6.00    95.50000     Mo( 1.00)
        S              6.00    32.06500     S ( 1.00)

     No symmetry found

   Cartesian axes

     site n.     atom                  positions (alat units)
         1           Mo  tau(   1) = (   0.3398393   0.0947842   0.0057892  )
         2           Mo  tau(   2) = (   0.0347503   0.4934052   0.0039800  )
         3           Mo  tau(   3) = (   0.7868512   0.1007963   0.0094434  )
         4           Mo  tau(   4) = (   0.5701165   0.4717677  -0.0029681  )
         5           Mo  tau(   5) = (   0.1985769   0.2643198   2.8464051  )
         6           Mo  tau(   6) = (  -0.1294344   0.7367855   2.8501431  )
         7           Mo  tau(   7) = (   0.6222593   0.3014788   2.8624236  )
         8           Mo  tau(   8) = (   0.4443543   0.6865111   2.8500966  )
         9           Mo  tau(   9) = (   0.0343866   0.2508298   0.9609958  )
        10           Mo  tau(  10) = (  -0.2828591   0.7318725   0.9407641  )
        11           Mo  tau(  11) = (   0.4618615   0.2908100   0.9404474  )
        12           Mo  tau(  12) = (   0.2812442   0.6763989   0.9557383  )
        13           S   tau(  13) = (   0.0640224   0.2325293   0.2384636  )
        14           S   tau(  14) = (  -0.1881149   0.6641473   0.2280172  )
        15           S   tau(  15) = (   0.5583595   0.2319087   0.2652935  )
        16           S   tau(  16) = (   0.3173376   0.6527196   0.2012333  )
        17           S   tau(  17) = (   0.4143665   0.1372819   3.1145626  )
        18           S   tau(  18) = (   0.1588356   0.5777098   3.0563437  )
        19           S   tau(  19) = (   0.9152541   0.1452707   3.0585385  )
        20           S   tau(  20) = (   0.6658484   0.5580024   3.1131206  )
        21           S   tau(  21) = (   0.5071972  -0.0080474   1.1596608  )
        22           S   tau(  22) = (   0.2482315   0.4173818   1.2171378  )
        23           S   tau(  23) = (   0.9906250  -0.0349361   1.2156524  )
        24           S   tau(  24) = (   0.7534754   0.4113295   1.1587266  )
        25           S   tau(  25) = (   0.1233577   0.2618362   3.5577323  )
        26           S   tau(  26) = (  -0.1361448   0.6977311   3.6114128  )
        27           S   tau(  27) = (   0.6180803   0.2516891   3.5838427  )
        28           S   tau(  28) = (   0.3732304   0.6868704   3.5842321  )
        29           S   tau(  29) = (   0.6611232  -0.0191826   2.6586172  )
        30           S   tau(  30) = (   0.4054697   0.4325878   2.5930821  )
        31           S   tau(  31) = (   1.1493886  -0.0215017   2.5969702  )
        32           S   tau(  32) = (   0.9041587   0.4053336   2.6418206  )
        33           S   tau(  33) = (   0.2562159   0.1249277   0.6924198  )
        34           S   tau(  34) = (  -0.0059854   0.5472216   0.7429835  )
        35           S   tau(  35) = (   0.7494157   0.1202176   0.7512674  )
        36           S   tau(  36) = (   0.5097500   0.5530879   0.6895988  )

     number of k points=     5  Marzari-Vanderbilt smearing, width (Ry)=  0.0200
                       cart. coord. in units 2pi/alat
        k(    1) = (   0.0000000   0.0000000   0.0000000), wk =   0.2222222
        k(    2) = (   0.0083791   0.3898448   0.0104189), wk =   0.4444444
        k(    3) = (   0.3376964   0.1951253  -0.0219695), wk =   0.4444444
        k(    4) = (   0.3460755   0.5849701  -0.0115506), wk =   0.4444444
        k(    5) = (   0.3293173  -0.1947195  -0.0323884), wk =   0.4444444

     Initial potential from superposition of free atoms

     starting charge  215.98107, renormalised to  216.00000

     negative rho (up, down):  1.561E-04 0.000E+00
     Starting wfcs are  204 randomized atomic wfcs

     Self-consistent Calculation

     iteration #  1     ecut=    45.00 Ry     beta= 0.70
     Davidson diagonalization with overlap
     ethr =  1.00E-02,  avg # of iterations =  2.0

     negative rho (up, down):  5.360E-06 0.000E+00

     total energy              =    -843.49307457 Ry
     Harris-Foulkes estimate   =    -846.40740649 Ry
     estimated scf accuracy    <       7.77916976 Ry

[...]

     iteration #  6     ecut=    45.00 Ry     beta= 0.70
     Davidson diagonalization with overlap
     c_bands:  1 eigenvalues not converged
     ethr =  5.80E-06,  avg # of iterations =  6.8

[...]

     total energy              =    -844.99118979 Ry
     Harris-Foulkes estimate   =    -844.99119031 Ry
     estimated scf accuracy    <       0.00000254 Ry

     iteration # 15     ecut=    45.00 Ry     beta= 0.70
     Davidson diagonalization with overlap
     ethr =  1.18E-09,  avg # of iterations =  3.2

[...]

     End of self-consistent calculation

          k = 0.0000 0.0000 0.0000 ( 32343 PWs)   bands (ev):

   -10.2117 -10.0792 -10.0309  -9.1950  -9.0864  -9.0023  -8.8946  -8.7513
    -8.6826  -8.6525  -8.6213  -8.6145  -8.5405  -8.4293  -8.4104  -8.3322
    -8.2417  -8.2391  -8.1061  -8.0436  -8.0042  -7.9568  -7.9344  -7.9113
    -2.2036  -2.1484  -2.0721  -2.0241  -1.9915  -1.9785  -1.9733  -1.9664
    -1.9462  -1.7752  -1.4457  -1.2023  -0.7492  -0.7021  -0.6925  -0.6636
    -0.6291  -0.6010  -0.5564  -0.5402  -0.5071  -0.4347  -0.3485  -0.1986
    -0.1121  -0.0597   0.0171   0.1087   0.1240   0.1681   0.2142   0.4353
     0.4673   0.4962   0.5299   0.5634   0.5973   0.7021   0.7396   0.7495
     0.7765   0.8168   0.8338   1.0697   1.1251   1.3960   1.4275   1.4719
     1.4878   1.5178   1.5675   1.6416   1.6981   1.7378   1.7573   1.9308
     1.9917   1.9936   2.0276   2.0792   2.1230   2.2774   2.3534   2.4606
     2.7265   2.7360   2.7971   2.8165   2.8590   2.9736   2.9827   2.9942
     3.0809   3.0929   3.1384   3.4079   3.5790   3.6421   3.6506   3.6934
     3.7200   3.7390   3.7710   3.8787   3.9723   4.0786   4.0965   4.1886
     4.3744   4.4162   5.1182   5.4446   5.4510   5.4651   5.4736   5.4788
     5.6897   5.7344   5.7633   5.8863   5.8969   5.9842   6.1638   6.2488
     6.3187   6.3363

[...]

          k = 0.3293-0.1947-0.0324 ( 32333 PWs)   bands (ev):

    -9.8677  -9.7482  -9.6957  -9.1878  -9.1452  -9.0600  -8.9477  -8.7931
    -8.7410  -8.7091  -8.6462  -8.6133  -8.5848  -8.5396  -8.5334  -8.5185
    -8.3804  -8.3606  -8.2465  -8.1475  -8.1115  -8.0377  -8.0126  -7.9935
    -1.6587  -1.6288  -1.5891  -1.5510  -1.5332  -1.5097  -1.4677  -1.4379
    -1.4001  -1.3600  -1.2841  -1.0680  -0.9547  -0.8843  -0.8000  -0.7636
    -0.7483  -0.7168  -0.6934  -0.5594  -0.4975  -0.2589  -0.1759  -0.0636
    -0.0346  -0.0038   0.0688   0.0781   0.1236   0.1450   0.2002   0.4332
     0.4641   0.4949   0.5110   0.5662   0.5836   0.6925   0.7229   0.7411
     0.7564   0.7721   0.8215   0.8609   0.8988   0.9815   1.0646   1.0771
     1.1705   1.2555   1.2688   1.4829   1.5712   1.6471   1.6977   1.7958
     1.9273   1.9644   1.9900   2.0489   2.0687   2.1087   2.1573   2.3297
     2.4664   2.5298   2.5921   2.6146   2.7151   2.7495   2.7576   2.7992
     2.8708   2.9767   3.0296   3.0743   3.1447   3.1633   3.1931   3.1990
     3.3144   3.4108   3.5762   3.6633   4.0319   4.0762   4.2676   4.3153
     4.3939   4.4982   4.9498   5.4247   5.5874   5.5918   5.6075   5.6534
     5.7650   5.8433   5.8873   6.0114   6.0411   6.0801   6.1108   6.1171
     6.1600   6.2359

     the Fermi energy is     3.8689 ev

!    total energy              =    -844.99119019 Ry
     Harris-Foulkes estimate   =    -844.99119053 Ry
     estimated scf accuracy    <       0.00000087 Ry

     The total energy is the sum of the following terms:

     one-electron contribution =   -2443.55524335 Ry
     hartree contribution      =    1324.42799578 Ry
     xc contribution           =    -333.79492750 Ry
     ewald contribution        =     607.91595179 Ry
     smearing contrib. (-TS)   =       0.01503310 Ry

     convergence has been achieved in  15 iterations

     negative rho (up, down):  2.718E-04 0.000E+00

     Forces acting on atoms (cartesian axes, Ry/au):

     atom    1 type  1   force =     0.00304126    0.00021669    0.00533573
     atom    2 type  1   force =    -0.00774542    0.01317009   -0.02317858
     atom    3 type  1   force =    -0.00934805    0.01409867    0.00563005
     atom    4 type  1   force =     0.02015093   -0.02391095   -0.00577110
     atom    5 type  1   force =     0.00291075   -0.00991204   -0.03598817
     atom    6 type  1   force =    -0.00053867    0.02044974    0.02489966
     atom    7 type  1   force =    -0.00160641   -0.00750981    0.00608778
     atom    8 type  1   force =     0.00359280    0.00335549   -0.03140766
     atom    9 type  1   force =     0.02060752    0.00599635    0.02613040
     atom   10 type  1   force =    -0.01763444    0.00103296   -0.02535336
     atom   11 type  1   force =    -0.00291845    0.00674654    0.00154903
     atom   12 type  1   force =     0.01590487   -0.01080087   -0.00777433
     atom   13 type  2   force =    -0.00113921   -0.01993133    0.00922685
     atom   14 type  2   force =    -0.00218096    0.00597513    0.01000228
     atom   15 type  2   force =     0.00599081   -0.01755300    0.01259962
     atom   16 type  2   force =    -0.00705385    0.00825600    0.01464290
     atom   17 type  2   force =    -0.00222611   -0.00600135    0.00440871
     atom   18 type  2   force =    -0.01022459    0.00194086    0.00276098
     atom   19 type  2   force =    -0.02234428   -0.01575491    0.01238161
     atom   20 type  2   force =     0.00134962    0.00532414    0.01566073
     atom   21 type  2   force =    -0.00123378   -0.01315499    0.00510017
     atom   22 type  2   force =    -0.00748689   -0.00545195   -0.01694069
     atom   23 type  2   force =     0.01149106    0.01936898    0.02953219
     atom   24 type  2   force =     0.00096097   -0.01659476    0.00253727
     atom   25 type  2   force =    -0.00311124    0.01041800    0.00196368
     atom   26 type  2   force =     0.00636942    0.01229277   -0.00835855
     atom   27 type  2   force =    -0.00180151    0.00830479   -0.00923640
     atom   28 type  2   force =    -0.00351608   -0.00731115   -0.01819018
     atom   29 type  2   force =     0.00730328    0.00716755   -0.00827824
     atom   30 type  2   force =    -0.00231348   -0.01084944   -0.00701501
     atom   31 type  2   force =     0.00843952    0.00793398    0.00499563
     atom   32 type  2   force =     0.01386512    0.00139063    0.00472808
     atom   33 type  2   force =    -0.00017295   -0.00298745   -0.00000392
     atom   34 type  2   force =     0.00302638    0.02799401    0.00221234
     atom   35 type  2   force =    -0.00973926   -0.00969196   -0.00102002
     atom   36 type  2   force =    -0.01066870   -0.00401742   -0.00386944

     Total force =     0.126952     Total SCF correction =     0.002117

     General routines

     Parallel routines

   This run was terminated on:  12: 3:21   8Sep2021

   JOB DONE.