     Program PWSCF v.6.4 starts on 24Dec2021 at  0: 3:22

     R & G space division:  proc/nbgrp/npool/nimage =      40
     Waiting for input...
     Reading input from standard input
Warning: card    &IONS ignored
Warning: card      ION_DYNAMICS = 'BFGS' ignored
Warning: card   / ignored
Warning: card    &CELL ignored
Warning: card      CELL_DYNAMICS = 'BFGS', ignored
Warning: card    / ignored

     Current dimensions of program PWSCF are:
     Max number of different atomic species (ntypx) = 10
     Max number of k-points (npk) =  40000
     Max angular momentum in pseudopotentials (lmaxx) =  3

     bravais-lattice index     =            0
     lattice parameter (alat)  =      12.0514  a.u.
     unit-cell volume          =    6293.9965 (a.u.)^3
     number of atoms/cell      =           24
     number of atomic types    =            2
     number of electrons       =       144.00
     number of Kohn-Sham states=           86
     kinetic-energy cutoff     =      45.0000  Ry
     charge density cutoff     =     360.0000  Ry
     convergence threshold     =      1.0E-06
     mixing beta               =       0.7000
     number of iterations used =            8  local-TF  mixing
     Exchange-correlation      = SLA PW GGX GGC ( 1  4  2  2 0 0)

     celldm(1)=  12.051358  celldm(2)=   0.000000  celldm(3)=   0.000000
     celldm(4)=   0.000000  celldm(5)=   0.000000  celldm(6)=   0.000000

     crystal axes: (cart. coord. in units of alat)
               a(1) = (   1.000000   0.000000   0.000000 )
               a(2) = (   0.283857   2.058566   0.000000 )
               a(3) = (   0.141999   0.097342   1.746843 )

     reciprocal axes: (cart. coord. in units 2 pi/alat)
               b(1) = (  1.000000 -0.137891 -0.073605 )
               b(2) = (  0.000000  0.485775 -0.027070 )
               b(3) = (  0.000000  0.000000  0.572461 )

     PseudoPot. # 1 for Mo read from file:
     ~/pseudo/Mo.pw91-n-van.UPF
     MD5 check sum: Not computed, couldn't open file
     Pseudo is Ultrasoft + core correction, Zval =  6.0
     Generated by new atomic code, or converted to UPF format
     Using radial grid of  965 points,  3 beta functions with:
                l(1) =   1
                l(2) =   2
                l(3) =   2
     Q(r) pseudized with  8 coefficients,  rinner =    1.000   1.000   1.000
                                                       1.200   1.200

     PseudoPot. # 2 for S  read from file:
     ~/pseudo/S.pw91-van_ak.UPF
     MD5 check sum: Not computed, couldn't open file
     Pseudo is Ultrasoft, Zval =  6.0
     Generated by new atomic code, or converted to UPF format
     Using radial grid of  811 points,  6 beta functions with:
                l(1) =   0
                l(2) =   0
                l(3) =   1
                l(4) =   1
                l(5) =   2
                l(6) =   2
     Q(r) pseudized with  8 coefficients,  rinner =    1.100   1.100   1.100
                                                       1.100   1.100

     atomic species   valence    mass     pseudopotential
        Mo             6.00    95.50000     Mo( 1.00)
        S              6.00    32.06500     S ( 1.00)

     No symmetry found

   Cartesian axes

     site n.     atom                  positions (alat units)
         1           Mo  tau(   1) = (   0.7902323   0.6474278   0.7838227  )
         2           Mo  tau(   2) = (   0.8254967   1.5063588   0.4068425  )
         3           Mo  tau(   3) = (   1.0352869   0.2395218   0.6503622  )
         4           Mo  tau(   4) = (   0.5355261   0.2428071   0.6449142  )
         5           Mo  tau(   5) = (   1.0706797   1.8643418   0.5060272  )
         6           Mo  tau(   6) = (   0.2890149   0.6486156   0.7790918  )
         7           Mo  tau(   7) = (   0.3138185   1.5009490   0.4002191  )
         8           Mo  tau(   8) = (   0.5691600   1.8596940   0.5029054  )
         9           S   tau(   9) = (   1.3156987   1.9447267   0.7869299  )
        10           S   tau(  10) = (   1.0689421   1.6478911   0.1706268  )
        11           S   tau(  11) = (   0.5337450   0.0398162   0.3301495  )
        12           S   tau(  12) = (   0.5681294   1.6415032   0.1711328  )
        13           S   tau(  13) = (   0.5384239   0.7257753   1.0627456  )
        14           S   tau(  14) = (   1.0363330   0.7337027   1.0559187  )
        15           S   tau(  15) = (   0.0370867   0.0341638   0.3254241  )
        16           S   tau(  16) = (   1.0719227   1.4965330   0.6802329  )
        17           S   tau(  17) = (   0.2821777   0.3009899   0.9258429  )
        18           S   tau(  18) = (   0.2813801   0.4609589   0.4552199  )
        19           S   tau(  19) = (   0.8196094   1.9422781   0.7887697  )
        20           S   tau(  20) = (   0.5693698   1.5019921   0.6767430  )
        21           S   tau(  21) = (   0.7822987   0.3016249   0.9253150  )
        22           S   tau(  22) = (   1.0380995   0.8757327   0.6098011  )
        23           S   tau(  23) = (   0.7841896   0.4609465   0.4631697  )
        24           S   tau(  24) = (   0.5399126   0.8810477   0.6193475  )

     number of k points=     8  Marzari-Vanderbilt smearing, width (Ry)=  0.0200
                       cart. coord. in units 2pi/alat
        k(    1) = (   0.0000000   0.0000000   0.0000000), wk =   0.1666667
        k(    2) = (   0.0000000   0.0000000  -0.2862307), wk =   0.1666667
        k(    3) = (   0.0000000  -0.2428875   0.0135348), wk =   0.1666667
        k(    4) = (   0.0000000  -0.2428875  -0.2726959), wk =   0.1666667
        k(    5) = (   0.3333333  -0.0459635  -0.0245350), wk =   0.3333333
        k(    6) = (   0.3333333  -0.0459635  -0.3107657), wk =   0.3333333
        k(    7) = (   0.3333333  -0.2888511  -0.0110002), wk =   0.3333333
        k(    8) = (   0.3333333  -0.2888511  -0.2972309), wk =   0.3333333

     Initial potential from superposition of free atoms

     starting charge  143.98738, renormalised to  144.00000

     negative rho (up, down):  3.232E-06 0.000E+00
     Starting wfcs are  136 randomized atomic wfcs

     Self-consistent Calculation

     iteration #  1     ecut=    45.00 Ry     beta= 0.70
     Davidson diagonalization with overlap
     ethr =  1.00E-02,  avg # of iterations =  2.0

     negative rho (up, down):  1.362E-08 0.000E+00

     total energy              =    -562.04187340 Ry
     Harris-Foulkes estimate   =    -564.08108858 Ry
     estimated scf accuracy    <       5.74558052 Ry

[...]

     total energy              =    -563.02020634 Ry
     Harris-Foulkes estimate   =    -563.02020606 Ry
     estimated scf accuracy    <       0.00000682 Ry

     iteration # 18     ecut=    45.00 Ry     beta= 0.70
     Davidson diagonalization with overlap
     ethr =  4.06E-09,  avg # of iterations =  2.0

[...]

     End of self-consistent calculation

          k = 0.0000 0.0000 0.0000 ( 32059 PWs)   bands (ev):

   -13.2963 -12.8556 -12.3025 -12.1705 -12.0006 -11.8983 -11.8465 -11.7292
   -11.6950 -11.6061 -11.4630 -11.4305 -11.3746 -10.7284 -10.6667 -10.2336
    -4.9325  -4.9092  -4.8969  -4.8141  -4.6365  -4.4719  -4.2584  -4.0837
    -3.9397  -3.9211  -3.8152  -3.6466  -3.5828  -3.5246  -3.4486  -3.3405
    -3.1996  -3.1347  -3.1046  -2.9051  -2.7885  -2.6179  -2.5167  -2.4913
    -2.3299  -2.1506  -2.0883  -2.0416  -1.9223  -1.9062  -1.9010  -1.7219
    -1.6762  -1.4006  -1.3471  -1.3066  -1.1901  -1.1009  -1.0258  -1.0087
    -0.9774  -0.7969  -0.7776  -0.4795  -0.4181  -0.3990  -0.3718  -0.1830
    -0.0307   0.0431   0.1866   0.3960   0.4227   0.7799   0.8802   1.1369
     1.1738   1.1991   1.3497   1.4443   1.7167   2.1592   2.3665   2.4085
     2.7025   2.7528   2.9317   2.9534   3.0151   3.1563

[...]

          k = 0.3333-0.2889-0.2972 ( 32070 PWs)   bands (ev):

   -13.0236 -12.6069 -12.3653 -12.1252 -12.0733 -12.0127 -11.9480 -11.8815
   -11.7386 -11.6496 -11.6059 -11.4160 -11.2894 -10.9103 -10.5771 -10.3473
    -4.5793  -4.5574  -4.5290  -4.4537  -4.3693  -4.2477  -4.1430  -4.1198
    -3.9170  -3.8823  -3.6366  -3.4631  -3.3923  -3.3372  -3.2193  -3.1961
    -3.1800  -3.1407  -3.0481  -2.8379  -2.7975  -2.6919  -2.6441  -2.6193
    -2.5504  -2.5082  -2.3124  -2.2486  -2.1432  -2.0331  -1.8201  -1.7946
    -1.7415  -1.6620  -1.5736  -1.4914  -1.3545  -1.2947  -1.2360  -0.9478
    -0.8956  -0.8038  -0.7892  -0.7569  -0.6819  -0.6361  -0.6270  -0.2016
    -0.1449  -0.0036   0.0585   0.2556   0.4080   0.8178   0.9318   0.9970
     1.1643   1.2502   1.3986   1.7843   1.8504   1.9176   2.1598   2.4297
     2.5688   2.7151   2.7762   2.8962   2.9642   3.0170

     the Fermi energy is     1.1066 ev

!    total energy              =    -563.02020656 Ry
     Harris-Foulkes estimate   =    -563.02020678 Ry
     estimated scf accuracy    <       0.00000020 Ry

     The total energy is the sum of the following terms:

     one-electron contribution =    -976.14140144 Ry
     hartree contribution      =     540.41181844 Ry
     xc contribution           =    -222.26978378 Ry
     ewald contribution        =      94.98982806 Ry
     smearing contrib. (-TS)   =      -0.01066785 Ry

     convergence has been achieved in  18 iterations

     negative rho (up, down):  3.566E-05 0.000E+00

     Forces acting on atoms (cartesian axes, Ry/au):

     atom    1 type  1   force =    -0.01441378    0.05270777    0.03541977
     atom    2 type  1   force =    -0.01375842   -0.04520083   -0.00803208
     atom    3 type  1   force =    -0.00495027   -0.00933410   -0.03187709
     atom    4 type  1   force =    -0.02164064   -0.01977138    0.01098153
     atom    5 type  1   force =    -0.00853066    0.01665135    0.01477773
     atom    6 type  1   force =    -0.00219658    0.04478534    0.02914649
     atom    7 type  1   force =     0.01419789   -0.03530448    0.00865012
     atom    8 type  1   force =    -0.00165674    0.02877410    0.03330239
     atom    9 type  2   force =     0.01252692   -0.01517703   -0.00168658
     atom   10 type  2   force =    -0.00091440    0.03138005   -0.03132131
     atom   11 type  2   force =     0.00607720   -0.02353664   -0.02526632
     atom   12 type  2   force =     0.00598110    0.02774973   -0.01798370
     atom   13 type  2   force =    -0.00036622   -0.00980320   -0.01632162
     atom   14 type  2   force =     0.00455511   -0.01235777   -0.00498305
     atom   15 type  2   force =    -0.00308705   -0.00733858   -0.00731174
     atom   16 type  2   force =     0.00193277    0.01019352    0.02734417
     atom   17 type  2   force =     0.01287534   -0.00517752    0.01748645
     atom   18 type  2   force =     0.00758522   -0.01692697   -0.00978761
     atom   19 type  2   force =    -0.00333241   -0.00089562   -0.01451630
     atom   20 type  2   force =    -0.00609008    0.01539673    0.01535259
     atom   21 type  2   force =     0.00488200   -0.01652168    0.02332649
     atom   22 type  2   force =     0.00443147    0.00295343   -0.00639510
     atom   23 type  2   force =     0.00831321   -0.01161993   -0.03360168
     atom   24 type  2   force =    -0.00242095   -0.00162630   -0.00670354

     Total force =     0.160474     Total SCF correction =     0.000841

     General routines

     Parallel routines

   This run was terminated on:   0: 5: 8  24Dec2021

   JOB DONE.