     Program PWSCF v.6.4 starts on  2Dec2021 at 18:41:11

     R & G space division:  proc/nbgrp/npool/nimage =      40
     Waiting for input...
     Reading input from standard input
Warning: card    &IONS ignored
Warning: card      ION_DYNAMICS = 'BFGS' ignored
Warning: card   / ignored
Warning: card    &CELL ignored
Warning: card      CELL_DYNAMICS = 'BFGS', ignored
Warning: card    / ignored

     Current dimensions of program PWSCF are:
     Max number of different atomic species (ntypx) = 10
     Max number of k-points (npk) =  40000
     Max angular momentum in pseudopotentials (lmaxx) =  3

     bravais-lattice index     =            0
     lattice parameter (alat)  =      10.8287  a.u.
     unit-cell volume          =    5791.3204 (a.u.)^3
     number of atoms/cell      =           15
     number of atomic types    =            2
     number of electrons       =        90.00
     number of Kohn-Sham states=           54
     kinetic-energy cutoff     =      45.0000  Ry
     charge density cutoff     =     360.0000  Ry
     convergence threshold     =      1.0E-06
     mixing beta               =       0.7000
     number of iterations used =            8  local-TF  mixing
     Exchange-correlation      = SLA PW GGX GGC ( 1  4  2  2 0 0)

     celldm(1)=  10.828660  celldm(2)=   0.000000  celldm(3)=   0.000000
     celldm(4)=   0.000000  celldm(5)=   0.000000  celldm(6)=   0.000000

     crystal axes: (cart. coord. in units of alat)
               a(1) = (   1.000000   0.000000   0.000000 )
               a(2) = (  -0.501440   1.032914   0.000000 )
               a(3) = (  -0.455123  -0.501128   4.415595 )

     reciprocal axes: (cart. coord. in units 2 pi/alat)
               b(1) = (  1.000000  0.485462  0.158167 )
               b(2) = (  0.000000  0.968135  0.109874 )
               b(3) = (  0.000000  0.000000  0.226470 )

     PseudoPot. # 1 for Mo read from file:
     ~/pseudo/Mo.pw91-n-van.UPF
     MD5 check sum: Not computed, couldn't open file
     Pseudo is Ultrasoft + core correction, Zval =  6.0
     Generated by new atomic code, or converted to UPF format
     Using radial grid of  965 points,  3 beta functions with:
                l(1) =   1
                l(2) =   2
                l(3) =   2
     Q(r) pseudized with  8 coefficients,  rinner =    1.000   1.000   1.000
                                                       1.200   1.200

     PseudoPot. # 2 for S  read from file:
     ~/pseudo/S.pw91-van_ak.UPF
     MD5 check sum: Not computed, couldn't open file
     Pseudo is Ultrasoft, Zval =  6.0
     Generated by new atomic code, or converted to UPF format
     Using radial grid of  811 points,  6 beta functions with:
                l(1) =   0
                l(2) =   0
                l(3) =   1
                l(4) =   1
                l(5) =   2
                l(6) =   2
     Q(r) pseudized with  8 coefficients,  rinner =    1.100   1.100   1.100
                                                       1.100   1.100

     atomic species   valence    mass     pseudopotential
        Mo             6.00    95.50000     Mo( 1.00)
        S              6.00    32.06500     S ( 1.00)

     No symmetry found

   Cartesian axes

     site n.     atom                  positions (alat units)
         1           Mo  tau(   1) = (   0.2803289   0.3063218   0.9095414  )
         2           Mo  tau(   2) = (  -0.1750848   0.5514629   0.8909147  )
         3           Mo  tau(   3) = (   0.2934127   0.7851288   0.8952384  )
         4           Mo  tau(   4) = (   0.3524288  -0.4736359   4.3393797  )
         5           Mo  tau(   5) = (  -0.1474983  -0.4733614   4.3373539  )
         6           S   tau(   6) = (   0.1639205   0.5419270   0.5988712  )
         7           S   tau(   7) = (   0.6710391   0.1539581   0.7955408  )
         8           S   tau(   8) = (  -0.3253413   0.9418570   0.7574921  )
         9           S   tau(   9) = (   0.1035744  -0.2550112   4.1156404  )
        10           S   tau(  10) = (   0.0591583   0.2504942   0.1429855  )
        11           S   tau(  11) = (   0.5003016   0.5544867   1.1676615  )
        12           S   tau(  12) = (   0.0240349   0.3793296   1.2445792  )
        13           S   tau(  13) = (   0.0251830   0.7461288   1.2264191  )
        14           S   tau(  14) = (   0.0559648   0.8413168   0.1471924  )
        15           S   tau(  15) = (   0.1006058   0.3385641   4.1178265  )

     number of k points=     5  Marzari-Vanderbilt smearing, width (Ry)=  0.0200
                       cart. coord. in units 2pi/alat
        k(    1) = (   0.0000000   0.0000000   0.0000000), wk =   0.2222222
        k(    2) = (   0.0000000   0.3227116   0.0366247), wk =   0.4444444
        k(    3) = (   0.3333333   0.1618206   0.0527223), wk =   0.4444444
        k(    4) = (   0.3333333   0.4845322   0.0893470), wk =   0.4444444
        k(    5) = (   0.3333333  -0.1608910   0.0160977), wk =   0.4444444

     Initial potential from superposition of free atoms

     starting charge   89.99211, renormalised to   90.00000

     negative rho (up, down):  8.002E-04 0.000E+00
     Starting wfcs are   85 randomized atomic wfcs

     Self-consistent Calculation

     iteration #  1     ecut=    45.00 Ry     beta= 0.70
     Davidson diagonalization with overlap
     ethr =  1.00E-02,  avg # of iterations =  2.4

     negative rho (up, down):  3.339E-05 0.000E+00

     total energy              =    -351.34966026 Ry
     Harris-Foulkes estimate   =    -352.26322030 Ry
     estimated scf accuracy    <       2.65847221 Ry

[...]

     total energy              =    -351.76297932 Ry
     Harris-Foulkes estimate   =    -351.76298190 Ry
     estimated scf accuracy    <       0.00000117 Ry

     iteration # 17     ecut=    45.00 Ry     beta= 0.70
     Davidson diagonalization with overlap
     ethr =  1.30E-09,  avg # of iterations =  3.8

[...]

     End of self-consistent calculation

          k = 0.0000 0.0000 0.0000 ( 29531 PWs)   bands (ev):

   -16.7817 -14.3596 -13.8445 -13.6012 -13.5803 -13.1696 -13.1256 -13.0147
   -12.8345 -12.6955  -7.2951  -6.7461  -6.5021  -6.0806  -5.6030  -5.5885
    -5.4615  -5.2687  -4.9341  -4.8895  -4.7741  -4.6364  -4.5712  -4.5030
    -4.4970  -4.4250  -4.4089  -4.2124  -4.0105  -3.7014  -3.6224  -3.5496
    -3.5008  -3.1269  -2.9809  -2.5667  -2.4898  -2.3188  -1.9812  -1.7650
    -1.5753  -1.5054  -1.3909  -1.1845  -0.9203  -0.8169  -0.7561  -0.0765
     0.0960   0.6229   0.6832   0.7647   0.9280   1.0583

[...]

          k = 0.3333-0.1609 0.0161 ( 29524 PWs)   bands (ev):

   -16.7106 -14.2173 -13.9383 -13.6133 -13.4343 -13.3160 -13.1608 -13.0399
   -12.9817 -12.7198  -6.8137  -6.7239  -6.3121  -6.0729  -5.8564  -5.7699
    -5.2909  -5.1004  -4.9892  -4.7657  -4.6506  -4.6011  -4.4832  -4.4420
    -4.3530  -4.2259  -4.0090  -3.9881  -3.8746  -3.7068  -3.6389  -3.6013
    -3.5608  -3.3872  -3.2588  -3.1360  -2.9373  -2.8034  -2.7098  -2.2199
    -1.7038  -1.4862  -1.2675  -0.9542  -0.8818  -0.5176  -0.2878   0.1551
     0.2297   0.5038   0.6078   0.6695   0.7319   0.9123

     the Fermi energy is    -0.7699 ev

!    total energy              =    -351.76297785 Ry
     Harris-Foulkes estimate   =    -351.76297961 Ry
     estimated scf accuracy    <       0.00000096 Ry

     The total energy is the sum of the following terms:

     one-electron contribution =   -2273.36154468 Ry
     hartree contribution      =    1163.05943861 Ry
     xc contribution           =    -138.76198594 Ry
     ewald contribution        =     897.30471605 Ry
     smearing contrib. (-TS)   =      -0.00360188 Ry

     convergence has been achieved in  17 iterations

     negative rho (up, down):  1.107E-03 0.000E+00

     Forces acting on atoms (cartesian axes, Ry/au):

     atom    1 type  1   force =     0.05207920   -0.00454139    0.00144965
     atom    2 type  1   force =     0.00289820    0.01249865    0.04289432
     atom    3 type  1   force =     0.05496447    0.01370328   -0.00513254
     atom    4 type  1   force =     0.00225336    0.00078740    0.00299366
     atom    5 type  1   force =     0.00253383   -0.00140376    0.00601637
     atom    6 type  2   force =    -0.03008749   -0.00645156   -0.00233516
     atom    7 type  2   force =    -0.01964366    0.01705432    0.01199208
     atom    8 type  2   force =    -0.02709100   -0.02251635    0.01663809
     atom    9 type  2   force =     0.00003144    0.00712981   -0.01137777
     atom   10 type  2   force =    -0.00359558   -0.00062634    0.00018107
     atom   11 type  2   force =     0.01440874   -0.00359951    0.00623270
     atom   12 type  2   force =    -0.02256104   -0.02419356   -0.03181093
     atom   13 type  2   force =    -0.02160561    0.01807300   -0.02674046
     atom   14 type  2   force =    -0.00367809    0.00122131   -0.00041802
     atom   15 type  2   force =    -0.00090677   -0.00713530   -0.01058308

     Total force =     0.124785     Total SCF correction =     0.002188

     General routines

     Parallel routines

   This run was terminated on:  18:42: 1   2Dec2021

   JOB DONE.