     Program PWSCF v.6.4 starts on  3Dec2021 at 18: 1:19

     R & G space division:  proc/nbgrp/npool/nimage =      40
     Waiting for input...
     Reading input from standard input
Warning: card    &IONS ignored
Warning: card      ION_DYNAMICS = 'BFGS' ignored
Warning: card   / ignored
Warning: card    &CELL ignored
Warning: card      CELL_DYNAMICS = 'BFGS', ignored
Warning: card    / ignored

     Current dimensions of program PWSCF are:
     Max number of different atomic species (ntypx) = 10
     Max number of k-points (npk) =  40000
     Max angular momentum in pseudopotentials (lmaxx) =  3

     bravais-lattice index     =            0
     lattice parameter (alat)  =      11.5160  a.u.
     unit-cell volume          =   14722.0297 (a.u.)^3
     number of atoms/cell      =           36
     number of atomic types    =            2
     number of electrons       =       216.00
     number of Kohn-Sham states=          130
     kinetic-energy cutoff     =      45.0000  Ry
     charge density cutoff     =     360.0000  Ry
     convergence threshold     =      1.0E-06
     mixing beta               =       0.7000
     number of iterations used =            8  local-TF  mixing
     Exchange-correlation      = SLA PW GGX GGC ( 1  4  2  2 0 0)

     celldm(1)=  11.515990  celldm(2)=   0.000000  celldm(3)=   0.000000
     celldm(4)=   0.000000  celldm(5)=   0.000000  celldm(6)=   0.000000

     crystal axes: (cart. coord. in units of alat)
               a(1) = (   1.000000   0.000000   0.000000 )
               a(2) = (   0.500111   1.922483   0.000000 )
               a(3) = (  -0.124071   0.579163   5.014196 )

     reciprocal axes: (cart. coord. in units 2 pi/alat)
               b(1) = (  1.000000 -0.260138  0.054791 )
               b(2) = (  0.000000  0.520161 -0.060081 )
               b(3) = (  0.000000  0.000000  0.199434 )

     PseudoPot. # 1 for Mo read from file:
     ~/pseudo/Mo.pw91-n-van.UPF
     MD5 check sum: Not computed, couldn't open file
     Pseudo is Ultrasoft + core correction, Zval =  6.0
     Generated by new atomic code, or converted to UPF format
     Using radial grid of  965 points,  3 beta functions with:
                l(1) =   1
                l(2) =   2
                l(3) =   2
     Q(r) pseudized with  8 coefficients,  rinner =    1.000   1.000   1.000
                                                       1.200   1.200

     PseudoPot. # 2 for S  read from file:
     ~/pseudo/S.pw91-van_ak.UPF
     MD5 check sum: Not computed, couldn't open file
     Pseudo is Ultrasoft, Zval =  6.0
     Generated by new atomic code, or converted to UPF format
     Using radial grid of  811 points,  6 beta functions with:
                l(1) =   0
                l(2) =   0
                l(3) =   1
                l(4) =   1
                l(5) =   2
                l(6) =   2
     Q(r) pseudized with  8 coefficients,  rinner =    1.100   1.100   1.100
                                                       1.100   1.100

     atomic species   valence    mass     pseudopotential
        Mo             6.00    95.50000     Mo( 1.00)
        S              6.00    32.06500     S ( 1.00)

     No symmetry found

   Cartesian axes

     site n.     atom                  positions (alat units)
         1           Mo  tau(   1) = (   0.9710337   2.1117516   1.7045102  )
         2           Mo  tau(   2) = (   0.9778100   0.7076978   1.4966440  )
         3           Mo  tau(   3) = (   0.4727051   2.1128968   1.7059791  )
         4           Mo  tau(   4) = (   0.4785813   0.7071516   1.4967573  )
         5           Mo  tau(   5) = (   1.2289227   1.1528199   1.4797050  )
         6           Mo  tau(   6) = (   0.7273944   1.1533193   1.4770899  )
         7           Mo  tau(   7) = (   1.2247828   1.6685671   1.6909208  )
         8           Mo  tau(   8) = (   0.7236818   1.6683043   1.6909756  )
         9           Mo  tau(   9) = (   0.7454208   1.0508187   0.4724797  )
        10           Mo  tau(  10) = (   1.2478509   1.0500103   0.4719597  )
        11           Mo  tau(  11) = (   0.4018160   1.8488253   3.0617181  )
        12           Mo  tau(  12) = (   0.9020082   1.8493299   3.0608952  )
        13           S   tau(  13) = (   0.7227518   0.3771919   1.4500004  )
        14           S   tau(  14) = (   0.4737605   1.8240188   1.4268394  )
        15           S   tau(  15) = (   0.2223607   0.3776081   1.4492094  )
        16           S   tau(  16) = (   0.9731320   1.8200592   1.4254142  )
        17           S   tau(  17) = (   1.1513067   1.9022895   3.3388345  )
        18           S   tau(  18) = (   0.6532750   1.5722416   3.1169402  )
        19           S   tau(  19) = (   0.7189234   0.3513239   1.9518180  )
        20           S   tau(  20) = (   0.4755280   1.8105786   1.9688157  )
        21           S   tau(  21) = (   0.2212426   0.3502382   1.9537436  )
        22           S   tau(  22) = (   0.9751555   1.8093524   1.9675595  )
        23           S   tau(  23) = (   1.1524029   1.7917583   2.7843274  )
        24           S   tau(  24) = (   0.6506429   2.1266149   3.0077997  )
        25           S   tau(  25) = (   0.2298296   0.8517317   1.2215228  )
        26           S   tau(  26) = (   0.7290184   0.8513908   1.2207046  )
        27           S   tau(  27) = (   0.2275162   0.8612660   1.7605959  )
        28           S   tau(  28) = (   0.7268199   0.8638005   1.7599569  )
        29           S   tau(  29) = (   0.4763394   1.3389447   1.7374874  )
        30           S   tau(  30) = (   0.9760319   1.3384196   1.7333875  )
        31           S   tau(  31) = (   0.4962725   1.0384780   0.7538884  )
        32           S   tau(  32) = (   0.9966775   1.3308432   0.4963590  )
        33           S   tau(  33) = (   0.4858648   1.3216181   1.2415905  )
        34           S   tau(  34) = (   0.9846936   1.3114420   1.2309772  )
        35           S   tau(  35) = (   0.4968239   1.0724612   0.1903601  )
        36           S   tau(  36) = (   0.9963919   0.7682197   0.4491153  )

     number of k points=     4  Marzari-Vanderbilt smearing, width (Ry)=  0.0200
                       cart. coord. in units 2pi/alat
        k(    1) = (   0.0000000   0.0000000   0.0000000), wk =   0.3333333
        k(    2) = (   0.0000000  -0.2600803   0.0300405), wk =   0.3333333
        k(    3) = (   0.3333333  -0.0867127   0.0182637), wk =   0.6666667
        k(    4) = (   0.3333333  -0.3467930   0.0483042), wk =   0.6666667

     Initial potential from superposition of free atoms

     starting charge  215.98107, renormalised to  216.00000

     negative rho (up, down):  1.298E-03 0.000E+00
     Starting wfcs are  204 randomized atomic wfcs

     Self-consistent Calculation

     iteration #  1     ecut=    45.00 Ry     beta= 0.70
     Davidson diagonalization with overlap
     ethr =  1.00E-02,  avg # of iterations =  2.5

     negative rho (up, down):  6.423E-05 0.000E+00

     total energy              =    -843.10406830 Ry
     Harris-Foulkes estimate   =    -845.86525476 Ry
     estimated scf accuracy    <       7.35839353 Ry

[...]

     total energy              =    -844.49549397 Ry
     Harris-Foulkes estimate   =    -844.49549325 Ry
     estimated scf accuracy    <       0.00000497 Ry

     iteration # 19     ecut=    45.00 Ry     beta= 0.70
     Davidson diagonalization with overlap
     ethr =  2.30E-09,  avg # of iterations =  1.0

[...]

     End of self-consistent calculation

          k = 0.0000 0.0000 0.0000 ( 75071 PWs)   bands (ev):

   -16.1157 -15.5097 -15.4699 -14.8207 -14.7868 -14.6716 -14.4145 -14.3946
   -14.1796 -14.1659 -14.1455 -14.1365 -14.0604 -14.0516 -14.0120 -13.9050
   -13.6629 -13.5905 -13.5895 -13.5892 -13.4871 -13.4614 -13.2438 -13.1507
    -8.0864  -7.9136  -7.9048  -7.4764  -7.2723  -7.2679  -7.2018  -7.1372
    -7.0842  -6.6480  -6.4352  -6.4018  -6.3639  -6.3186  -6.2641  -6.2400
    -6.2018  -6.1719  -6.1139  -6.0577  -6.0083  -5.8745  -5.8324  -5.2854
    -5.2571  -5.2423  -5.1759  -5.1576  -5.1526  -5.0974  -5.0657  -4.9475
    -4.9139  -4.8607  -4.8476  -4.7452  -4.7092  -4.6434  -4.5955  -4.4952
    -4.4716  -4.4608  -4.4489  -4.4467  -4.4412  -4.4363  -4.3603  -4.2940
    -4.2549  -4.1308  -4.1262  -4.1090  -3.9374  -3.8717  -3.7592  -3.6858
    -3.4431  -3.4197  -3.4006  -3.3060  -3.2582  -3.2187  -3.1829  -3.1625
    -3.1582  -3.0815  -3.0380  -3.0223  -3.0058  -2.8124  -2.6170  -2.5521
    -2.5335  -2.2121  -2.1703  -2.1298  -2.1216  -1.7472  -1.6681  -1.6110
    -1.5248  -1.5154  -1.5142  -1.5108  -1.4499  -1.4236  -1.1040  -1.0756
    -0.9927  -0.9078  -0.5826  -0.4981  -0.1449  -0.0359   0.1330   0.1942
     0.2032   0.2157   0.3261   0.3410   0.4466   0.4921   0.5102   0.7474
     0.7505   0.7665

[...]

          k = 0.3333-0.3468 0.0483 ( 74993 PWs)   bands (ev):

   -15.7135 -15.5145 -14.9578 -14.9246 -14.7661 -14.7086 -14.6204 -14.5644
   -14.4994 -14.3028 -14.2667 -14.2350 -14.0001 -13.9592 -13.8431 -13.7373
   -13.6766 -13.6221 -13.6136 -13.5827 -13.5824 -13.5823 -13.4315 -13.3474
    -7.4850  -7.3613  -7.3152  -7.2003  -7.0911  -6.9905  -6.8721  -6.8310
    -6.7831  -6.6948  -6.5302  -6.4796  -6.4456  -6.2216  -5.9137  -5.8777
    -5.8620  -5.7782  -5.7007  -5.6621  -5.6547  -5.4765  -5.4634  -5.4511
    -5.2440  -5.1994  -5.1376  -5.1101  -5.0746  -5.0251  -4.9971  -4.9725
    -4.9694  -4.9353  -4.9205  -4.9199  -4.9060  -4.8525  -4.7884  -4.7759
    -4.7172  -4.6258  -4.5641  -4.5530  -4.4911  -4.4739  -4.4519  -4.4500
    -4.4470  -4.4408  -4.4174  -4.3652  -4.3311  -4.3199  -4.2733  -4.1313
    -3.9120  -3.8641  -3.8156  -3.7042  -3.6726  -3.6675  -3.6611  -3.4778
    -3.4574  -3.4496  -3.2757  -3.2018  -2.9476  -2.8780  -2.7923  -2.7084
    -2.5646  -2.5405  -2.4954  -2.4115  -1.7311  -1.5985  -1.5647  -1.4519
    -1.4409  -1.4191  -1.4093  -1.2489  -1.1169  -1.1029  -0.9484  -0.8838
    -0.5549  -0.5062  -0.4937  -0.4874  -0.3220  -0.2342   0.0349   0.0664
     0.0995   0.2841   0.3246   0.3598   0.3619   0.3661   0.4885   0.5055
     0.5530   0.5832

     the Fermi energy is    -1.2754 ev

!    total energy              =    -844.49549557 Ry
     Harris-Foulkes estimate   =    -844.49549413 Ry
     estimated scf accuracy    <       0.00000060 Ry

     The total energy is the sum of the following terms:

     one-electron contribution =   -6260.08342253 Ry
     hartree contribution      =    3189.13019955 Ry
     xc contribution           =    -333.50915008 Ry
     ewald contribution        =    2559.96793053 Ry
     smearing contrib. (-TS)   =      -0.00105304 Ry

     convergence has been achieved in  19 iterations

     negative rho (up, down):  2.017E-03 0.000E+00

     Forces acting on atoms (cartesian axes, Ry/au):

     atom    1 type  1   force =     0.00441060    0.04940446    0.01339062
     atom    2 type  1   force =    -0.00291753   -0.01854708    0.00602475
     atom    3 type  1   force =    -0.00392908    0.05012934    0.01590341
     atom    4 type  1   force =    -0.00370609   -0.02133168    0.00329990
     atom    5 type  1   force =     0.00380895    0.04418162   -0.00279201
     atom    6 type  1   force =     0.01897126    0.03902997    0.00867232
     atom    7 type  1   force =    -0.00157558   -0.02284772   -0.00408781
     atom    8 type  1   force =     0.00426047   -0.02258242   -0.00343565
     atom    9 type  1   force =     0.00602694   -0.00178315   -0.00050832
     atom   10 type  1   force =    -0.00656360    0.00146605    0.00025813
     atom   11 type  1   force =    -0.00052712   -0.00317085    0.00165675
     atom   12 type  1   force =    -0.00012695    0.00135189    0.00099071
     atom   13 type  2   force =     0.00034650   -0.01068964   -0.03432774
     atom   14 type  2   force =     0.00029862   -0.01114252   -0.00279112
     atom   15 type  2   force =     0.00238615   -0.00941249   -0.03311825
     atom   16 type  2   force =     0.00149973   -0.00954766   -0.00184661
     atom   17 type  2   force =     0.00049479    0.00396115    0.01455854
     atom   18 type  2   force =    -0.00225897   -0.01466806    0.00265815
     atom   19 type  2   force =     0.00569873   -0.00168321    0.02334361
     atom   20 type  2   force =    -0.00330422   -0.00448170   -0.00915080
     atom   21 type  2   force =     0.00254752   -0.00057275    0.02225644
     atom   22 type  2   force =    -0.00215429   -0.00306793   -0.00861329
     atom   23 type  2   force =    -0.00026855   -0.00174040   -0.01486438
     atom   24 type  2   force =     0.00208006    0.01416454   -0.00375076
     atom   25 type  2   force =    -0.00159606   -0.01093326    0.00251064
     atom   26 type  2   force =     0.00056695   -0.01166636    0.00253172
     atom   27 type  2   force =     0.00102683   -0.00911149    0.00140739
     atom   28 type  2   force =     0.00280746   -0.01011109    0.00077369
     atom   29 type  2   force =     0.00045855   -0.01133621    0.03870302
     atom   30 type  2   force =     0.00140653   -0.00750434    0.03435794
     atom   31 type  2   force =    -0.00034810   -0.00238184    0.01723825
     atom   32 type  2   force =     0.00132509    0.01503781   -0.00023208
     atom   33 type  2   force =    -0.02017695    0.00660353   -0.04567278
     atom   34 type  2   force =    -0.01049693    0.00436855   -0.02930357
     atom   35 type  2   force =     0.00019977    0.00090809   -0.01721355
     atom   36 type  2   force =    -0.00067149   -0.01029315    0.00117273

     Total force =     0.155224     Total SCF correction =     0.001689

     General routines

     Parallel routines

   This run was terminated on:  18: 6:39   3Dec2021

   JOB DONE.