     Program PWSCF v.6.4 starts on  4Aug2021 at 16:29:14

     R & G space division:  proc/nbgrp/npool/nimage =      40
     Waiting for input...
     Reading input from standard input
Warning: card    &IONS ignored
Warning: card      ION_DYNAMICS = 'BFGS' ignored
Warning: card   / ignored
Warning: card    &CELL ignored
Warning: card      CELL_DYNAMICS = 'BFGS', ignored
Warning: card    / ignored

     Current dimensions of program PWSCF are:
     Max number of different atomic species (ntypx) = 10
     Max number of k-points (npk) =  40000
     Max angular momentum in pseudopotentials (lmaxx) =  3

     bravais-lattice index     =            0
     lattice parameter (alat)  =      12.8211  a.u.
     unit-cell volume          =    3313.7743 (a.u.)^3
     number of atoms/cell      =           24
     number of atomic types    =            2
     number of electrons       =       144.00
     number of Kohn-Sham states=           86
     kinetic-energy cutoff     =      45.0000  Ry
     charge density cutoff     =     360.0000  Ry
     convergence threshold     =      1.0E-06
     mixing beta               =       0.7000
     number of iterations used =            8  local-TF  mixing
     Exchange-correlation      = SLA PW GGX GGC ( 1  4  2  2 0 0)

     celldm(1)=  12.821117  celldm(2)=   0.000000  celldm(3)=   0.000000
     celldm(4)=   0.000000  celldm(5)=   0.000000  celldm(6)=   0.000000

     crystal axes: (cart. coord. in units of alat)
               a(1) = (   0.999997   0.002169   0.001191 )
               a(2) = (  -0.249333   0.440186  -0.000758 )
               a(3) = (   0.070316   1.378766   3.566254 )

     reciprocal axes: (cart. coord. in units 2 pi/alat)
               b(1) = (  0.999060  0.565485 -0.238324 )
               b(2) = ( -0.003875  2.268064 -0.876791 )
               b(3) = ( -0.000334  0.000293  0.280300 )

     PseudoPot. # 1 for Mo read from file:
     ~/pseudo/Mo.pw91-n-van.UPF
     MD5 check sum: Not computed, couldn't open file
     Pseudo is Ultrasoft + core correction, Zval =  6.0
     Generated by new atomic code, or converted to UPF format
     Using radial grid of  965 points,  3 beta functions with:
                l(1) =   1
                l(2) =   2
                l(3) =   2
     Q(r) pseudized with  8 coefficients,  rinner =    1.000   1.000   1.000
                                                       1.200   1.200

     PseudoPot. # 2 for S  read from file:
     ~/pseudo/S.pw91-van_ak.UPF
     MD5 check sum: Not computed, couldn't open file
     Pseudo is Ultrasoft, Zval =  6.0
     Generated by new atomic code, or converted to UPF format
     Using radial grid of  811 points,  6 beta functions with:
                l(1) =   0
                l(2) =   0
                l(3) =   1
                l(4) =   1
                l(5) =   2
                l(6) =   2
     Q(r) pseudized with  8 coefficients,  rinner =    1.100   1.100   1.100
                                                       1.100   1.100

     atomic species   valence    mass     pseudopotential
        Mo             6.00    95.50000     Mo( 1.00)
        S              6.00    32.06500     S ( 1.00)

      2 Sym. Ops., with inversion, found

   Cartesian axes

     site n.     atom                  positions (alat units)
         1           Mo  tau(   1) = (   0.0250314   0.6089385   1.3353708  )
         2           Mo  tau(   2) = (   0.0601867   1.2983193   3.1185185  )
         3           Mo  tau(   3) = (   0.5250278   0.6100157   1.3359639  )
         4           Mo  tau(   4) = (   0.5601869   1.2994110   3.1191133  )
         5           Mo  tau(   5) = (   0.0101293   0.0804470   0.4477352  )
         6           Mo  tau(   6) = (   0.0452846   0.7698278   2.2308828  )
         7           Mo  tau(   7) = (   0.5101261   0.0815241   0.4483312  )
         8           Mo  tau(   8) = (   0.5452852   0.7709195   2.2314806  )
         9           S   tau(   9) = (   0.2760939   0.7675900   1.5675473  )
        10           S   tau(  10) = (   0.3112550   1.4569779   3.3506934  )
        11           S   tau(  11) = (   0.7760959   0.7686776   1.5681399  )
        12           S   tau(  12) = (   0.8112503   1.4580579   3.3512932  )
        13           S   tau(  13) = (   0.0097293   0.3630630   0.2153936  )
        14           S   tau(  14) = (   0.0448836   1.0524433   1.9985469  )
        15           S   tau(  15) = (   0.5097245   0.3641431   0.2159934  )
        16           S   tau(  16) = (   0.5448856   1.0535310   1.9991395  )
        17           S   tau(  17) = (   0.0108310   0.6549571   0.6820076  )
        18           S   tau(  18) = (   0.0459829   1.3443366   2.4651610  )
        19           S   tau(  19) = (   0.5108226   0.6560395   0.6826028  )
        20           S   tau(  20) = (   0.5459863   1.3454230   2.4657559  )
        21           S   tau(  21) = (   0.2749932   0.4756979   1.1009309  )
        22           S   tau(  22) = (   0.3101569   1.1650814   2.8840840  )
        23           S   tau(  23) = (   0.7749967   0.4767843   1.1015258  )
        24           S   tau(  24) = (   0.8101486   1.1661638   2.8846792  )

     number of k points=    10  Marzari-Vanderbilt smearing, width (Ry)=  0.0200
                       cart. coord. in units 2pi/alat
        k(    1) = (   0.0000000   0.0000000   0.0000000), wk =   0.1111111
        k(    2) = (  -0.0006458   0.3780107  -0.1461318), wk =   0.2222222
        k(    3) = (  -0.0012916   0.7560214  -0.2922636), wk =   0.2222222
        k(    4) = (   0.0019374  -1.1340321   0.4383953), wk =   0.1111111
        k(    5) = (   0.3330201   0.1884951  -0.0794412), wk =   0.2222222
        k(    6) = (   0.3323743   0.5665058  -0.2255730), wk =   0.2222222
        k(    7) = (   0.3317285   0.9445165  -0.3717047), wk =   0.2222222
        k(    8) = (   0.3349576  -0.9455369   0.3589542), wk =   0.2222222
        k(    9) = (   0.3343118  -0.5675262   0.2128224), wk =   0.2222222
        k(   10) = (   0.3336660  -0.1895156   0.0666906), wk =   0.2222222

     Initial potential from superposition of free atoms

     starting charge  143.98738, renormalised to  144.00000
     Starting wfcs are  136 randomized atomic wfcs

     Self-consistent Calculation

     iteration #  1     ecut=    45.00 Ry     beta= 0.70
     Davidson diagonalization with overlap
     ethr =  1.00E-02,  avg # of iterations =  2.0

     total energy              =    -561.65531410 Ry
     Harris-Foulkes estimate   =    -564.22774839 Ry
     estimated scf accuracy    <       6.90928545 Ry

[...]

     total energy              =    -563.02264879 Ry
     Harris-Foulkes estimate   =    -563.02265220 Ry
     estimated scf accuracy    <       0.00001564 Ry

     iteration # 12     ecut=    45.00 Ry     beta= 0.70
     Davidson diagonalization with overlap
     ethr =  2.03E-09,  avg # of iterations =  3.0

     End of self-consistent calculation

          k = 0.0000 0.0000 0.0000 ( 16829 PWs)   bands (ev):

    -6.9757  -6.8431  -6.8322  -6.6024  -6.1368  -5.8390  -5.8025  -5.7392
    -5.6992  -5.6001  -5.5970  -5.5014  -5.3310  -5.2093  -5.1424  -5.0792
     1.0713   1.1857   1.2328   1.3166   1.4045   1.5330   1.5650   2.3116
     2.4722   2.4745   2.5401   2.7978   2.8717   2.9857   2.9935   3.3338
     3.3871   3.4408   3.4415   3.4499   3.4686   3.4751   3.4936   3.4982
     3.5402   3.5530   3.5556   3.5691   3.9878   4.3597   4.3707   4.7924
     4.9455   4.9596   4.9825   5.1406   5.2170   5.4764   5.5926   5.8096
     5.8911   5.9176   5.9805   6.0359   6.0564   6.0603   6.0951   6.1405
     6.1435   6.1828   6.1865   6.2777   6.3392   6.7134   6.8063   6.8334
     6.8402   6.8465   6.8891   6.9253   6.9404   7.1238   7.1808   7.3004
     7.5969   7.5977   7.5984   7.5994   8.2630   8.2784

          k =-0.0006 0.3780-0.1461 ( 16894 PWs)   bands (ev):

[...]

          k =-0.0013 0.7560-0.2923 ( 16941 PWs)   bands (ev):

[...]

          k = 0.3337-0.1895 0.0667 ( 16847 PWs)   bands (ev):

    -6.6580  -6.5983  -6.4679  -6.3380  -5.9749  -5.8184  -5.6674  -5.6473
    -5.6376  -5.5499  -5.5320  -5.4566  -5.3992  -5.3062  -5.2505  -5.2128
     1.5366   1.6764   1.7280   1.7345   1.8607   1.8955   2.1003   2.2734
     2.3049   2.3618   2.5799   2.5968   2.8428   2.9203   2.9904   3.0006
     3.0688   3.0817   3.1400   3.1541   3.4761   3.5298   3.5855   3.6006
     3.6318   3.6448   3.7423   3.8184   3.8858   3.9361   4.0618   4.0730
     4.3332   4.4566   4.4762   4.5698   4.5698   4.6348   4.7019   4.9020
     4.9440   5.0987   5.3527   5.3711   5.4835   5.4879   5.7055   5.9693
     6.2994   6.3068   6.5017   6.5146   6.5981   6.6244   6.8652   6.8933
     7.2029   7.4120   7.4239   7.4572   7.4790   7.5140   7.5636   7.6552
     7.6698   7.6806   7.6978   7.9914   7.9977   8.0234

     the Fermi energy is     7.0364 ev

!    total energy              =    -563.02265032 Ry
     Harris-Foulkes estimate   =    -563.02265036 Ry
     estimated scf accuracy    <       0.00000005 Ry

     The total energy is the sum of the following terms:

     one-electron contribution =      48.79248242 Ry
     hartree contribution      =      59.02994964 Ry
     xc contribution           =    -220.84440530 Ry
     ewald contribution        =    -450.01332265 Ry
     smearing contrib. (-TS)   =       0.01264557 Ry

     convergence has been achieved in  12 iterations

     Forces acting on atoms (cartesian axes, Ry/au):

     atom    1 type  1   force =    -0.00019081    0.01067592   -0.00072796
     atom    2 type  1   force =    -0.00020577    0.01066449   -0.00072211
     atom    3 type  1   force =    -0.00020634    0.01066930   -0.00072580
     atom    4 type  1   force =    -0.00019146    0.01067684   -0.00071810
     atom    5 type  1   force =     0.00020577   -0.01066449    0.00072211
     atom    6 type  1   force =     0.00019081   -0.01067592    0.00072796
     atom    7 type  1   force =     0.00019146   -0.01067684    0.00071810
     atom    8 type  1   force =     0.00020634   -0.01066930    0.00072580
     atom    9 type  2   force =    -0.00141174    0.00056416   -0.04514614
     atom   10 type  2   force =    -0.00142621    0.00056406   -0.04515161
     atom   11 type  2   force =    -0.00143174    0.00055655   -0.04514131
     atom   12 type  2   force =    -0.00141913    0.00056960   -0.04515713
     atom   13 type  2   force =     0.00141913   -0.00056960    0.04515713
     atom   14 type  2   force =     0.00143174   -0.00055655    0.04514131
     atom   15 type  2   force =     0.00142621   -0.00056406    0.04515161
     atom   16 type  2   force =     0.00141174   -0.00056416    0.04514614
     atom   17 type  2   force =    -0.00128520    0.00586523   -0.04396213
     atom   18 type  2   force =    -0.00127121    0.00587652   -0.04398940
     atom   19 type  2   force =    -0.00127208    0.00587049   -0.04396963
     atom   20 type  2   force =    -0.00128792    0.00586490   -0.04397979
     atom   21 type  2   force =     0.00128792   -0.00586490    0.04397979
     atom   22 type  2   force =     0.00127208   -0.00587049    0.04396963
     atom   23 type  2   force =     0.00127121   -0.00587652    0.04398940
     atom   24 type  2   force =     0.00128520   -0.00586523    0.04396213

     Total force =     0.181662     Total SCF correction =     0.000387

     General routines

     Parallel routines

   This run was terminated on:  16:30:14   4Aug2021

   JOB DONE.