     Program PWSCF v.6.4 starts on  6Oct2021 at 13: 4:19

     R & G space division:  proc/nbgrp/npool/nimage =      40
     Waiting for input...
     Reading input from standard input
Warning: card    &IONS ignored
Warning: card      ION_DYNAMICS = 'BFGS' ignored
Warning: card   / ignored
Warning: card    &CELL ignored
Warning: card      CELL_DYNAMICS = 'BFGS', ignored
Warning: card    / ignored

     Current dimensions of program PWSCF are:
     Max number of different atomic species (ntypx) = 10
     Max number of k-points (npk) =  40000
     Max angular momentum in pseudopotentials (lmaxx) =  3

     bravais-lattice index     =            0
     lattice parameter (alat)  =      12.1318  a.u.
     unit-cell volume          =    4844.3531 (a.u.)^3
     number of atoms/cell      =           36
     number of atomic types    =            2
     number of electrons       =       216.00
     number of Kohn-Sham states=          130
     kinetic-energy cutoff     =      45.0000  Ry
     charge density cutoff     =     360.0000  Ry
     convergence threshold     =      1.0E-06
     mixing beta               =       0.7000
     number of iterations used =            8  local-TF  mixing
     Exchange-correlation      = SLA PW GGX GGC ( 1  4  2  2 0 0)

     celldm(1)=  12.131843  celldm(2)=   0.000000  celldm(3)=   0.000000
     celldm(4)=   0.000000  celldm(5)=   0.000000  celldm(6)=   0.000000

     crystal axes: (cart. coord. in units of alat)
               a(1) = (   1.000000   0.000000   0.000000 )
               a(2) = (  -0.500339   0.880001   0.000000 )
               a(3) = (  -0.118287  -0.412975   3.082990 )

     reciprocal axes: (cart. coord. in units 2 pi/alat)
               b(1) = (  1.000000  0.568566  0.114529 )
               b(2) = (  0.000000  1.136362  0.152219 )
               b(3) = (  0.000000  0.000000  0.324360 )

     PseudoPot. # 1 for Mo read from file:
     ~/pseudo/Mo.pw91-n-van.UPF
     MD5 check sum: Not computed, couldn't open file
     Pseudo is Ultrasoft + core correction, Zval =  6.0
     Generated by new atomic code, or converted to UPF format
     Using radial grid of  965 points,  3 beta functions with:
                l(1) =   1
                l(2) =   2
                l(3) =   2
     Q(r) pseudized with  8 coefficients,  rinner =    1.000   1.000   1.000
                                                       1.200   1.200

     PseudoPot. # 2 for S  read from file:
     ~/pseudo/S.pw91-van_ak.UPF
     MD5 check sum: Not computed, couldn't open file
     Pseudo is Ultrasoft, Zval =  6.0
     Generated by new atomic code, or converted to UPF format
     Using radial grid of  811 points,  6 beta functions with:
                l(1) =   0
                l(2) =   0
                l(3) =   1
                l(4) =   1
                l(5) =   2
                l(6) =   2
     Q(r) pseudized with  8 coefficients,  rinner =    1.100   1.100   1.100
                                                       1.100   1.100

     atomic species   valence    mass     pseudopotential
        Mo             6.00    95.50000     Mo( 1.00)
        S              6.00    32.06500     S ( 1.00)

     No symmetry found

   Cartesian axes

     site n.     atom                  positions (alat units)
         1           Mo  tau(   1) = (  -0.0000238   0.3028671  -0.0069534  )
         2           Mo  tau(   2) = (  -0.3703810   0.2415020   3.0987505  )
         3           Mo  tau(   3) = (   0.4990217   0.3022973  -0.0080331  )
         4           Mo  tau(   4) = (   0.1305419   0.2424196   3.0999313  )
         5           Mo  tau(   5) = (   0.3867276   0.4297217   2.0802198  )
         6           Mo  tau(   6) = (   0.6364752  -0.0111720   2.0805842  )
         7           Mo  tau(   7) = (  -0.1138077   0.4298078   2.0798094  )
         8           Mo  tau(   8) = (   0.1364160  -0.0098522   2.0799703  )
         9           Mo  tau(   9) = (  -0.2493209   0.7261850   1.0010328  )
        10           Mo  tau(  10) = (   0.0001952   0.2860793   1.0022465  )
        11           Mo  tau(  11) = (   0.2506582   0.7259071   1.0006407  )
        12           Mo  tau(  12) = (   0.5004193   0.2864827   1.0010347  )
        13           S   tau(  13) = (   0.2491487   0.1071626   0.2163785  )
        14           S   tau(  14) = (  -0.0012278   0.5556083   0.2783286  )
        15           S   tau(  15) = (   0.7493222   0.1079484   0.2181339  )
        16           S   tau(  16) = (   0.4981354   0.5520081   0.2780063  )
        17           S   tau(  17) = (   0.1361205   0.5760536   2.3247900  )
        18           S   tau(  18) = (   0.3860839   0.1383465   2.3254408  )
        19           S   tau(  19) = (  -0.3635135   0.5776573   2.3257996  )
        20           S   tau(  20) = (  -0.1136384   0.1387469   2.3252107  )
        21           S   tau(  21) = (   0.0010215  -0.0063182   1.2467198  )
        22           S   tau(  22) = (  -0.2504648   0.4349588   1.2470662  )
        23           S   tau(  23) = (   0.5015039  -0.0051345   1.2445252  )
        24           S   tau(  24) = (   0.2509696   0.4343154   1.2473990  )
        25           S   tau(  25) = (   0.1314128  -0.0072493   2.8135024  )
        26           S   tau(  26) = (  -0.1197405   0.4363470   2.8730358  )
        27           S   tau(  27) = (   0.6313255  -0.0109051   2.8133346  )
        28           S   tau(  28) = (   0.3808932   0.4368239   2.8742609  )
        29           S   tau(  29) = (   0.1368292   0.5753459   1.8345810  )
        30           S   tau(  30) = (   0.3866866   0.1366625   1.8353176  )
        31           S   tau(  31) = (  -0.3636796   0.5796715   1.8356511  )
        32           S   tau(  32) = (  -0.1135161   0.1366068   1.8351497  )
        33           S   tau(  33) = (   0.0010581  -0.0070663   0.7566160  )
        34           S   tau(  34) = (  -0.2502579   0.4328088   0.7566007  )
        35           S   tau(  35) = (   0.5006599  -0.0059889   0.7553057  )
        36           S   tau(  36) = (   0.2501985   0.4322158   0.7568524  )

     number of k points=     5  Marzari-Vanderbilt smearing, width (Ry)=  0.0200
                       cart. coord. in units 2pi/alat
        k(    1) = (   0.0000000   0.0000000   0.0000000), wk =   0.2222222
        k(    2) = (   0.0000000   0.3787873   0.0507396), wk =   0.4444444
        k(    3) = (   0.3333333   0.1895221   0.0381762), wk =   0.4444444
        k(    4) = (   0.3333333   0.5683095   0.0889158), wk =   0.4444444
        k(    5) = (   0.3333333  -0.1892652  -0.0125633), wk =   0.4444444

     Initial potential from superposition of free atoms

     starting charge  215.98107, renormalised to  216.00000
     Starting wfcs are  204 randomized atomic wfcs

     Self-consistent Calculation

     iteration #  1     ecut=    45.00 Ry     beta= 0.70
     Davidson diagonalization with overlap
     ethr =  1.00E-02,  avg # of iterations =  2.0

     total energy              =    -844.00362322 Ry
     Harris-Foulkes estimate   =    -846.69728920 Ry
     estimated scf accuracy    <       7.06114025 Ry

[...]

     iteration #  6     ecut=    45.00 Ry     beta= 0.70
     Davidson diagonalization with overlap
     c_bands:  5 eigenvalues not converged
     c_bands:  2 eigenvalues not converged
     c_bands:  1 eigenvalues not converged
     c_bands:  1 eigenvalues not converged
     ethr =  1.45E-06,  avg # of iterations = 18.0

[...]

     total energy              =    -845.36836617 Ry
     Harris-Foulkes estimate   =    -845.36836673 Ry
     estimated scf accuracy    <       0.00000233 Ry

     iteration # 14     ecut=    45.00 Ry     beta= 0.70
     Davidson diagonalization with overlap
     ethr =  1.08E-09,  avg # of iterations =  3.2

     End of self-consistent calculation

          k = 0.0000 0.0000 0.0000 ( 24635 PWs)   bands (ev):

    -7.2785  -7.2322  -7.0804  -6.1646  -6.0646  -5.9566  -5.6221  -5.6158
    -5.6057  -5.5881  -5.5527  -5.5495  -5.5377  -5.5292  -5.3802  -5.3137
    -5.3050  -5.2604  -5.2533  -5.2397  -5.2313  -5.1663  -4.9095  -4.9019
     0.9431   0.9434   0.9827   1.0503   1.1042   1.1187   1.1221   1.1302
     1.1480   1.1592   1.3250   1.6824   2.0215   2.0349   2.0516   2.0648
     2.0795   2.0825   2.3685   2.3742   2.3888   2.5258   2.6630   2.7073
     2.7158   2.7572   2.7707   2.8086   3.0720   3.1102   3.5334   3.5385
     3.5458   3.5498   3.5615   3.6985   3.7127   3.7278   3.8777   3.9000
     4.0141   4.0266   4.1719   4.1816   4.1881   4.4259   4.4625   4.5108
     4.6662   4.7859   4.7873   4.8570   4.8822   4.9975   5.0033   5.0631
     5.1398   5.1460   5.2429   5.2576   5.2598   5.2662   5.5619   5.6523
     5.6586   5.6713   5.6753   5.7817   5.8052   5.9014   5.9631   5.9938
     6.0168   6.0296   6.0590   6.0945   6.1072   6.1545   6.1863   6.2940
     6.7342   6.7767   6.9689   7.0334   7.4233   7.6858   8.5954   8.6056
     8.6567   8.6612   8.6633   8.6673   8.6715   8.6727   8.9507   9.0984
     9.1452   9.1618   9.1776   9.1932   9.2041   9.2207   9.3191   9.3384
     9.3896   9.3942

[...]

          k = 0.3333-0.1893-0.0126 ( 24707 PWs)   bands (ev):

    -6.9168  -6.8755  -6.7003  -6.0742  -6.0498  -6.0098  -5.8885  -5.8731
    -5.8067  -5.6690  -5.6152  -5.5976  -5.5865  -5.5691  -5.4817  -5.4570
    -5.3727  -5.3232  -5.2959  -5.2629  -5.2552  -5.2314  -5.2012  -4.9757
     1.3909   1.4691   1.5396   1.5502   1.5643   1.5972   1.6000   1.6090
     1.6406   1.6786   1.9386   1.9725   1.9762   2.0070   2.0114   2.0474
     2.1845   2.2170   2.5463   2.5899   2.7597   2.7647   2.7898   2.8919
     2.9001   2.9323   2.9594   2.9906   3.0438   3.2935   3.2991   3.3452
     3.4077   3.4205   3.5168   3.5426   3.6087   3.6308   3.7038   3.8517
     3.8644   3.8788   3.9392   3.9620   4.0321   4.3279   4.3566   4.3902
     4.4134   4.4485   4.4616   4.4673   4.4919   4.5146   4.6032   4.6354
     4.6459   4.8441   4.9240   4.9528   5.0321   5.0785   5.1081   5.2034
     5.2632   5.2780   5.3970   5.5079   5.5518   5.5763   5.7399   5.7967
     5.8493   5.9273   6.0374   6.1775   6.1909   6.2103   6.2224   6.2492
     6.2779   6.3915   6.5569   6.6721   7.2711   8.0491   8.1362   8.4686
     8.6698   8.6776   8.6906   8.7062   8.7241   8.7305   8.8219   8.8707
     8.9815   9.0295   9.0807   9.1102   9.1223   9.1403   9.1565   9.1901
     9.2065   9.2386

     the Fermi energy is     6.9599 ev

!    total energy              =    -845.36836580 Ry
     Harris-Foulkes estimate   =    -845.36836664 Ry
     estimated scf accuracy    <       0.00000094 Ry

     The total energy is the sum of the following terms:

     one-electron contribution =     -36.39280202 Ry
     hartree contribution      =     144.83080869 Ry
     xc contribution           =    -334.05281951 Ry
     ewald contribution        =    -619.76688996 Ry
     smearing contrib. (-TS)   =       0.01333700 Ry

     convergence has been achieved in  14 iterations

     Forces acting on atoms (cartesian axes, Ry/au):

     atom    1 type  1   force =    -0.00286176   -0.00061360   -0.00144087
     atom    2 type  1   force =     0.00421528   -0.00016335   -0.00088663
     atom    3 type  1   force =     0.00119109   -0.00065168   -0.00019488
     atom    4 type  1   force =    -0.00153910   -0.00039337   -0.00406998
     atom    5 type  1   force =     0.00065822    0.00096832   -0.00077542
     atom    6 type  1   force =     0.00048684    0.00129566   -0.00101679
     atom    7 type  1   force =    -0.00093131    0.00052568   -0.00046493
     atom    8 type  1   force =    -0.00033718    0.00205870    0.00645488
     atom    9 type  1   force =    -0.00070571    0.00065793   -0.00070123
     atom   10 type  1   force =    -0.00003641   -0.00045230   -0.00031675
     atom   11 type  1   force =     0.00033680    0.00054568    0.00107949
     atom   12 type  1   force =    -0.00005417   -0.00022126    0.00227244
     atom   13 type  2   force =    -0.00044452    0.00247485   -0.00022322
     atom   14 type  2   force =    -0.00117014   -0.00346280   -0.00132868
     atom   15 type  2   force =     0.00008606    0.00311738   -0.00313444
     atom   16 type  2   force =     0.00194074    0.00085057    0.00001211
     atom   17 type  2   force =     0.00039305    0.00128544   -0.00086510
     atom   18 type  2   force =     0.00173154   -0.00271986   -0.00456716
     atom   19 type  2   force =    -0.00002102   -0.00044736   -0.00478714
     atom   20 type  2   force =    -0.00092489   -0.00320796   -0.00445890
     atom   21 type  2   force =    -0.00063890   -0.00118399   -0.00331680
     atom   22 type  2   force =     0.00220082   -0.00232272   -0.00341818
     atom   23 type  2   force =    -0.00072457   -0.00306231    0.00235789
     atom   24 type  2   force =    -0.00134363   -0.00119803   -0.00524632
     atom   25 type  2   force =    -0.00161908   -0.00051540    0.00046770
     atom   26 type  2   force =     0.00028873   -0.00218194    0.00395977
     atom   27 type  2   force =     0.00039715    0.00300521    0.00051123
     atom   28 type  2   force =    -0.00006283   -0.00119679    0.00178175
     atom   29 type  2   force =    -0.00101995    0.00404026    0.00327734
     atom   30 type  2   force =     0.00074703    0.00127234    0.00202478
     atom   31 type  2   force =    -0.00016420   -0.00521068   -0.00043924
     atom   32 type  2   force =    -0.00202302    0.00141458    0.00200135
     atom   33 type  2   force =    -0.00042291    0.00342121    0.00198056
     atom   34 type  2   force =     0.00328628    0.00103793    0.00478585
     atom   35 type  2   force =     0.00089890   -0.00052248    0.00448281
     atom   36 type  2   force =    -0.00181325    0.00175611    0.00420270

     Total force =     0.023039     Total SCF correction =     0.002693
     SCF correction compared to forces is large: reduce conv_thr to get better values

     General routines

     Parallel routines

   This run was terminated on:  13: 5:40   6Oct2021

   JOB DONE.