     Program PWSCF v.6.4 starts on  2Sep2021 at 13: 8: 0

     R & G space division:  proc/nbgrp/npool/nimage =      40
     Waiting for input...
     Reading input from standard input
Warning: card    &IONS ignored
Warning: card      ION_DYNAMICS = 'BFGS' ignored
Warning: card   / ignored
Warning: card    &CELL ignored
Warning: card      CELL_DYNAMICS = 'BFGS', ignored
Warning: card    / ignored

     Current dimensions of program PWSCF are:
     Max number of different atomic species (ntypx) = 10
     Max number of k-points (npk) =  40000
     Max angular momentum in pseudopotentials (lmaxx) =  3

     bravais-lattice index     =            0
     lattice parameter (alat)  =      12.2311  a.u.
     unit-cell volume          =    6169.1220 (a.u.)^3
     number of atoms/cell      =           36
     number of atomic types    =            2
     number of electrons       =       216.00
     number of Kohn-Sham states=          130
     kinetic-energy cutoff     =      45.0000  Ry
     charge density cutoff     =     360.0000  Ry
     convergence threshold     =      1.0E-06
     mixing beta               =       0.7000
     number of iterations used =            8  local-TF  mixing
     Exchange-correlation      = SLA PW GGX GGC ( 1  4  2  2 0 0)

     celldm(1)=  12.231051  celldm(2)=   0.000000  celldm(3)=   0.000000
     celldm(4)=   0.000000  celldm(5)=   0.000000  celldm(6)=   0.000000

     crystal axes: (cart. coord. in units of alat)
               a(1) = (   1.000000   0.000000   0.000000 )
               a(2) = (   0.500179   0.861603   0.000000 )
               a(3) = (   0.473613  -0.215631   3.913134 )

     reciprocal axes: (cart. coord. in units 2 pi/alat)
               b(1) = (  1.000000 -0.580521 -0.153021 )
               b(2) = (  0.000000  1.160627  0.063956 )
               b(3) = (  0.000000  0.000000  0.255550 )

     PseudoPot. # 1 for Mo read from file:
     ~/pseudo/Mo.pw91-n-van.UPF
     MD5 check sum: Not computed, couldn't open file
     Pseudo is Ultrasoft + core correction, Zval =  6.0
     Generated by new atomic code, or converted to UPF format
     Using radial grid of  965 points,  3 beta functions with:
                l(1) =   1
                l(2) =   2
                l(3) =   2
     Q(r) pseudized with  8 coefficients,  rinner =    1.000   1.000   1.000
                                                       1.200   1.200

     PseudoPot. # 2 for S  read from file:
     ~/pseudo/S.pw91-van_ak.UPF
     MD5 check sum: Not computed, couldn't open file
     Pseudo is Ultrasoft, Zval =  6.0
     Generated by new atomic code, or converted to UPF format
     Using radial grid of  811 points,  6 beta functions with:
                l(1) =   0
                l(2) =   0
                l(3) =   1
                l(4) =   1
                l(5) =   2
                l(6) =   2
     Q(r) pseudized with  8 coefficients,  rinner =    1.100   1.100   1.100
                                                       1.100   1.100

     atomic species   valence    mass     pseudopotential
        Mo             6.00    95.50000     Mo( 1.00)
        S              6.00    32.06500     S ( 1.00)

     No symmetry found

   Cartesian axes

     site n.     atom                  positions (alat units)
         1           Mo  tau(   1) = (   0.6944557   0.0713016   2.3993977  )
         2           Mo  tau(   2) = (   1.2006448   0.0672133   2.3807169  )
         3           Mo  tau(   3) = (   1.4542298   0.5024471   2.3824149  )
         4           Mo  tau(   4) = (   0.9684346   0.4884921   2.3939550  )
         5           Mo  tau(   5) = (   1.2640354   0.4852289   1.2686423  )
         6           Mo  tau(   6) = (   0.7712800   0.4918591   1.2807851  )
         7           Mo  tau(   7) = (   0.5001870   0.0616440   1.2700416  )
         8           Mo  tau(   8) = (   1.0060807   0.0763850   1.2724893  )
         9           Mo  tau(   9) = (   1.2538696   0.5300987   0.2640743  )
        10           Mo  tau(  10) = (   0.7571771   0.5094987   0.2480304  )
        11           Mo  tau(  11) = (   0.5175449   0.0692912   0.2304082  )
        12           Mo  tau(  12) = (   0.9917387   0.0896565   0.2679977  )
        13           S   tau(  13) = (   1.4888484   0.1553694   3.9312502  )
        14           S   tau(  14) = (   0.9675941   0.1592107   3.9277529  )
        15           S   tau(  15) = (   1.2100284   0.5878691   3.9282350  )
        16           S   tau(  16) = (   1.7507156   0.5815127   3.9077145  )
        17           S   tau(  17) = (   0.7037042   0.3670227   2.6326214  )
        18           S   tau(  18) = (   1.2209698   0.3465887   2.6336231  )
        19           S   tau(  19) = (   0.9530262  -0.0725878   2.6276917  )
        20           S   tau(  20) = (   0.4425505  -0.0814275   2.6311489  )
        21           S   tau(  21) = (   0.7110407   0.3533032   2.1510575  )
        22           S   tau(  22) = (   1.2107961   0.3519535   2.1350583  )
        23           S   tau(  23) = (   0.9370766  -0.0677179   2.1436735  )
        24           S   tau(  24) = (   0.4548604  -0.0866932   2.1502933  )
        25           S   tau(  25) = (   0.5109715   0.3467238   1.5143766  )
        26           S   tau(  26) = (   1.0181393   0.3512354   1.5287731  )
        27           S   tau(  27) = (   0.7525792  -0.0837717   1.5056812  )
        28           S   tau(  28) = (   0.2489328  -0.0780898   1.5166759  )
        29           S   tau(  29) = (   0.5283303   0.3493246   1.0300138  )
        30           S   tau(  30) = (   1.0149435   0.3590624   1.0198982  )
        31           S   tau(  31) = (   1.2608557   0.7802967   1.0332181  )
        32           S   tau(  32) = (   0.7485599   0.7783455   1.0334735  )
        33           S   tau(  33) = (   1.0042770   0.3829166   0.5100897  )
        34           S   tau(  34) = (   0.5077719   0.3520096   0.4822260  )
        35           S   tau(  35) = (   0.7622327   0.8018131   0.4825148  )
        36           S   tau(  36) = (   1.2431334   0.8119380   0.5142001  )

     number of k points=     5  Marzari-Vanderbilt smearing, width (Ry)=  0.0200
                       cart. coord. in units 2pi/alat
        k(    1) = (   0.0000000   0.0000000   0.0000000), wk =   0.2222222
        k(    2) = (   0.0000000   0.3868756   0.0213185), wk =   0.4444444
        k(    3) = (   0.3333333  -0.1935071  -0.0510069), wk =   0.4444444
        k(    4) = (   0.3333333   0.1933685  -0.0296884), wk =   0.4444444
        k(    5) = (   0.3333333  -0.5803828  -0.0723255), wk =   0.4444444

     Initial potential from superposition of free atoms

     starting charge  215.98107, renormalised to  216.00000

     negative rho (up, down):  1.647E-05 0.000E+00
     Starting wfcs are  204 randomized atomic wfcs

     Self-consistent Calculation

     iteration #  1     ecut=    45.00 Ry     beta= 0.70
     Davidson diagonalization with overlap
     ethr =  1.00E-02,  avg # of iterations =  2.0

     negative rho (up, down):  7.618E-08 0.000E+00

     total energy              =    -844.11004727 Ry
     Harris-Foulkes estimate   =    -846.76680593 Ry
     estimated scf accuracy    <       6.80419124 Ry

[...]

     iteration #  6     ecut=    45.00 Ry     beta= 0.70
     Davidson diagonalization with overlap
     c_bands:  1 eigenvalues not converged
     c_bands:  1 eigenvalues not converged
     c_bands:  2 eigenvalues not converged
     ethr =  2.72E-06,  avg # of iterations = 14.4

[...]

     total energy              =    -845.43534420 Ry
     Harris-Foulkes estimate   =    -845.43534451 Ry
     estimated scf accuracy    <       0.00000127 Ry

     iteration # 17     ecut=    45.00 Ry     beta= 0.70
     Davidson diagonalization with overlap
     ethr =  5.88E-10,  avg # of iterations =  1.2

[...]

     End of self-consistent calculation

          k = 0.0000 0.0000 0.0000 ( 31363 PWs)   bands (ev):

   -10.0845  -9.9656  -9.8864  -8.9202  -8.7625  -8.6889  -8.4412  -8.3762
    -8.3346  -8.2783  -8.2409  -8.2187  -8.1994  -8.1862  -8.1370  -8.1204
    -8.0513  -7.9782  -7.9713  -7.9254  -7.9142  -7.8971  -7.8658  -7.8464
    -1.7474  -1.6920  -1.6509  -1.6435  -1.6010  -1.5637  -1.5514  -1.5322
    -1.4865  -1.4797  -1.3954  -1.3027  -0.8350  -0.8054  -0.7555  -0.6528
    -0.6113  -0.6004  -0.5715  -0.5678  -0.5383  -0.1651  -0.1515  -0.0656
     0.0774   0.0961   0.1185   0.1270   0.1622   0.1952   0.8179   0.8564
     0.8878   0.8984   0.9220   0.9388   0.9654   1.0029   1.0166   1.3095
     1.3780   1.3838   1.4293   1.4661   1.5142   1.5535   1.6383   2.0175
     2.0508   2.1106   2.2268   2.3096   2.3498   2.3848   2.3974   2.4386
     2.5160   2.5405   2.5801   2.5942   2.6184   2.6272   2.6487   2.7812
     2.8456   2.9714   2.9925   3.0297   3.0393   3.0932   3.1100   3.1514
     3.1964   3.2614   3.3882   3.4287   3.4564   3.4777   3.4985   3.5315
     3.5533   3.8207   4.1187   4.2913   5.7364   5.7856   5.8811   5.9162
     5.9728   6.0390   6.1010   6.1081   6.1366   6.2568   6.3242   6.3725
     6.4524   6.4700   6.4922   6.5503   6.5609   6.5837   6.5885   6.6149
     6.6430   6.6602

[...]

          k = 0.3333-0.5804-0.0723 ( 31511 PWs)   bands (ev):

    -9.2020  -9.1277  -9.0963  -9.0428  -9.0081  -8.9690  -8.9581  -8.9296
    -8.8958  -8.4640  -8.4279  -8.3432  -8.3117  -8.2553  -8.2398  -8.2316
    -8.2247  -8.1878  -8.0940  -8.0133  -7.9277  -7.8454  -7.7708  -7.6936
    -1.2703  -1.2015  -1.1237  -0.9634  -0.9479  -0.9144  -0.7798  -0.7582
    -0.7419  -0.6996  -0.6815  -0.6733  -0.5153  -0.4326  -0.3679  -0.1826
    -0.1437  -0.0213   0.0344   0.0721   0.0899   0.1783   0.2192   0.2456
     0.2616   0.2892   0.3229   0.3330   0.3659   0.3889   0.4344   0.4692
     0.4789   0.5242   0.5567   0.5679   0.5927   0.6051   0.6288   0.7502
     0.7903   0.8717   0.9169   0.9415   1.0224   1.0718   1.1096   1.1624
     1.2089   1.3075   1.3711   1.6535   1.7630   1.9073   1.9849   2.0507
     2.0699   2.0745   2.0920   2.1738   2.2212   2.2422   2.2684   2.5966
     2.7319   2.8114   2.9423   2.9864   3.0011   3.0301   3.0842   3.0977
     3.1477   3.1975   3.2344   3.2617   3.2833   3.2967   3.3079   3.3171
     3.3439   4.0121   4.0635   4.0750   5.1339   5.3594   5.4682   5.5502
     5.5964   5.6561   5.7742   5.8373   5.8648   5.8981   5.9718   5.9900
     6.1972   6.2287   6.2608   6.3195   6.3364   6.3482   6.3800   6.4222
     6.4413   6.4708

     the Fermi energy is     4.2197 ev

!    total energy              =    -845.43534399 Ry
     Harris-Foulkes estimate   =    -845.43534427 Ry
     estimated scf accuracy    <       0.00000038 Ry

     The total energy is the sum of the following terms:

     one-electron contribution =   -1618.48795695 Ry
     hartree contribution      =     914.21399590 Ry
     xc contribution           =    -334.03448481 Ry
     ewald contribution        =     192.85518160 Ry
     smearing contrib. (-TS)   =       0.01792028 Ry

     convergence has been achieved in  17 iterations

     negative rho (up, down):  6.900E-05 0.000E+00

     Forces acting on atoms (cartesian axes, Ry/au):

     atom    1 type  1   force =     0.01733160   -0.00894195   -0.02985207
     atom    2 type  1   force =     0.00807953   -0.01230358    0.01033803
     atom    3 type  1   force =     0.00969229   -0.00521181    0.00758926
     atom    4 type  1   force =    -0.03967765    0.02350737   -0.01547720
     atom    5 type  1   force =     0.00567964    0.03378488    0.00659460
     atom    6 type  1   force =    -0.03384786    0.00965839   -0.01835562
     atom    7 type  1   force =     0.03086247   -0.00533555    0.00089278
     atom    8 type  1   force =    -0.00319058   -0.04769129    0.00245246
     atom    9 type  1   force =     0.01330084   -0.05623264   -0.01474719
     atom   10 type  1   force =    -0.01555870    0.01464749    0.02036807
     atom   11 type  1   force =    -0.05401575    0.04287345    0.05038539
     atom   12 type  1   force =     0.05204589   -0.00661398   -0.02462224
     atom   13 type  2   force =    -0.01233898    0.00762311   -0.00325626
     atom   14 type  2   force =     0.01883248   -0.00628096   -0.02218003
     atom   15 type  2   force =     0.02069427   -0.00595151   -0.01715677
     atom   16 type  2   force =    -0.02533670    0.00835243    0.02740411
     atom   17 type  2   force =     0.00221771   -0.01580979    0.00633860
     atom   18 type  2   force =    -0.01327253    0.00568219   -0.00767174
     atom   19 type  2   force =    -0.00538313   -0.00045732    0.00850008
     atom   20 type  2   force =     0.01133973    0.00164283    0.00852280
     atom   21 type  2   force =    -0.00433670    0.00354386   -0.00197285
     atom   22 type  2   force =    -0.00084610    0.00154187    0.01361000
     atom   23 type  2   force =     0.01307938   -0.00360109    0.00526744
     atom   24 type  2   force =     0.00138649    0.01060423   -0.00132710
     atom   25 type  2   force =     0.00717415   -0.00168606    0.00547787
     atom   26 type  2   force =    -0.00050787    0.00491573   -0.02103200
     atom   27 type  2   force =     0.00709623    0.00540711    0.01195174
     atom   28 type  2   force =     0.01075862    0.00425474    0.00245510
     atom   29 type  2   force =    -0.02167834   -0.00197675    0.00606046
     atom   30 type  2   force =    -0.00359567   -0.01178176    0.02815797
     atom   31 type  2   force =    -0.00865199    0.00242637   -0.00121860
     atom   32 type  2   force =     0.01045752    0.00543555   -0.00070612
     atom   33 type  2   force =    -0.00447338   -0.00615926   -0.02496578
     atom   34 type  2   force =    -0.00077655    0.01990868    0.00554871
     atom   35 type  2   force =    -0.00564331   -0.00240253    0.01058515
     atom   36 type  2   force =     0.01310296   -0.00737243   -0.03395904

     Total force =     0.187782     Total SCF correction =     0.001573

     General routines

     Parallel routines

   This run was terminated on:  13:10:18   2Sep2021

   JOB DONE.