     Program PWSCF v.6.4 starts on 24Dec2021 at 20: 6:23

     R & G space division:  proc/nbgrp/npool/nimage =      40
     Waiting for input...
     Reading input from standard input
Warning: card    &IONS ignored
Warning: card      ION_DYNAMICS = 'BFGS' ignored
Warning: card   / ignored
Warning: card    &CELL ignored
Warning: card      CELL_DYNAMICS = 'BFGS', ignored
Warning: card    / ignored

     Current dimensions of program PWSCF are:
     Max number of different atomic species (ntypx) = 10
     Max number of k-points (npk) =  40000
     Max angular momentum in pseudopotentials (lmaxx) =  3

     bravais-lattice index     =            0
     lattice parameter (alat)  =      18.5566  a.u.
     unit-cell volume          =    6347.7278 (a.u.)^3
     number of atoms/cell      =           48
     number of atomic types    =            2
     number of electrons       =       288.00
     number of Kohn-Sham states=          173
     kinetic-energy cutoff     =      45.0000  Ry
     charge density cutoff     =     360.0000  Ry
     convergence threshold     =      1.0E-06
     mixing beta               =       0.7000
     number of iterations used =            8  local-TF  mixing
     Exchange-correlation      = SLA PW GGX GGC ( 1  4  2  2 0 0)

     celldm(1)=  18.556601  celldm(2)=   0.000000  celldm(3)=   0.000000
     celldm(4)=   0.000000  celldm(5)=   0.000000  celldm(6)=   0.000000

     crystal axes: (cart. coord. in units of alat)
               a(1) = (   1.000000   0.000000   0.000000 )
               a(2) = (  -0.007460   0.992855   0.000000 )
               a(3) = (  -0.018572  -0.018310   1.000546 )

     reciprocal axes: (cart. coord. in units 2 pi/alat)
               b(1) = (  1.000000  0.007514  0.018699 )
               b(2) = (  0.000000  1.007196  0.018432 )
               b(3) = (  0.000000  0.000000  0.999454 )

     PseudoPot. # 1 for Mo read from file:
     ~/pseudo/Mo.pw91-n-van.UPF
     MD5 check sum: Not computed, couldn't open file
     Pseudo is Ultrasoft + core correction, Zval =  6.0
     Generated by new atomic code, or converted to UPF format
     Using radial grid of  965 points,  3 beta functions with:
                l(1) =   1
                l(2) =   2
                l(3) =   2
     Q(r) pseudized with  8 coefficients,  rinner =    1.000   1.000   1.000
                                                       1.200   1.200

     PseudoPot. # 2 for S  read from file:
     ~/pseudo/S.pw91-van_ak.UPF
     MD5 check sum: Not computed, couldn't open file
     Pseudo is Ultrasoft, Zval =  6.0
     Generated by new atomic code, or converted to UPF format
     Using radial grid of  811 points,  6 beta functions with:
                l(1) =   0
                l(2) =   0
                l(3) =   1
                l(4) =   1
                l(5) =   2
                l(6) =   2
     Q(r) pseudized with  8 coefficients,  rinner =    1.100   1.100   1.100
                                                       1.100   1.100

     atomic species   valence    mass     pseudopotential
        Mo             6.00    95.50000     Mo( 1.00)
        S              6.00    32.06500     S ( 1.00)

     No symmetry found

   Cartesian axes

     site n.     atom                  positions (alat units)
         1           Mo  tau(   1) = (   0.3863264   0.5931762   0.1163471  )
         2           Mo  tau(   2) = (   0.1243941   0.5553261   0.3836015  )
         3           Mo  tau(   3) = (   0.0902883   0.8764562   0.1243133  )
         4           Mo  tau(   4) = (   0.3800365   0.8855014   0.4037075  )
         5           Mo  tau(   5) = (   0.3731311   0.0921898   0.6228548  )
         6           Mo  tau(   6) = (   0.1163612   0.1386249   0.8613373  )
         7           Mo  tau(   7) = (   0.1222082   0.3360385   0.6509114  )
         8           Mo  tau(   8) = (   0.3557377   0.3707053   0.8873113  )
         9           Mo  tau(   9) = (   0.8556104   0.1308676   0.1641674  )
        10           Mo  tau(  10) = (   0.6375084   0.1312766   0.3660260  )
        11           Mo  tau(  11) = (   0.6471178   0.3379954   0.1651770  )
        12           Mo  tau(  12) = (   0.8592892   0.3267345   0.3677830  )
        13           Mo  tau(  13) = (   0.9799153   0.7510422   0.5075809  )
        14           Mo  tau(  14) = (   0.5691494   0.5820681   0.9033726  )
        15           Mo  tau(  15) = (   0.5752629   0.8707750   0.6205203  )
        16           Mo  tau(  16) = (   0.8486748   0.8627952   0.9175842  )
        17           S   tau(  17) = (   0.1317614   0.6284351   0.1378480  )
        18           S   tau(  18) = (   0.8871656   0.3830280   0.1285449  )
        19           S   tau(  19) = (   0.3574646   0.6256133   0.3631475  )
        20           S   tau(  20) = (   0.3821646   0.1311475   0.3784414  )
        21           S   tau(  21) = (   0.1121341   0.1327038   0.1129056  )
        22           S   tau(  22) = (   0.1153417   0.3134183   0.3915751  )
        23           S   tau(  23) = (   0.3860303   0.3570920   0.1308480  )
        24           S   tau(  24) = (   0.6171504   0.3764164   0.3976306  )
        25           S   tau(  25) = (   0.1208744   0.0911708   0.6149381  )
        26           S   tau(  26) = (   0.8290187   0.8608011   0.6538571  )
        27           S   tau(  27) = (   0.3580738   0.1154019   0.8727097  )
        28           S   tau(  28) = (   0.3323668   0.6213983   0.8707051  )
        29           S   tau(  29) = (   0.1141191   0.5875958   0.6290838  )
        30           S   tau(  30) = (   0.0992983   0.8736667   0.8803999  )
        31           S   tau(  31) = (   0.3295349   0.8377927   0.6498697  )
        32           S   tau(  32) = (   0.5966012   0.8424155   0.8739219  )
        33           S   tau(  33) = (   0.6133998   0.1033943   0.1157188  )
        34           S   tau(  34) = (   0.3492871   0.8532037   0.1554264  )
        35           S   tau(  35) = (   0.8786362   0.0868389   0.3959864  )
        36           S   tau(  36) = (   0.8797239   0.5911597   0.3742005  )
        37           S   tau(  37) = (   0.6226727   0.5914514   0.1460522  )
        38           S   tau(  38) = (   0.6215093   0.8651259   0.3854762  )
        39           S   tau(  39) = (   0.8536290   0.8695796   0.1599291  )
        40           S   tau(  40) = (   0.1269240   0.8838305   0.3702469  )
        41           S   tau(  41) = (   0.5870085   0.6297845   0.6489949  )
        42           S   tau(  42) = (   0.3700876   0.3465190   0.6357572  )
        43           S   tau(  43) = (   0.8265400   0.6179029   0.8796761  )
        44           S   tau(  44) = (   0.8641810   0.1183708   0.9028617  )
        45           S   tau(  45) = (   0.6140765   0.1282365   0.6164413  )
        46           S   tau(  46) = (   0.6048069   0.3449136   0.8999129  )
        47           S   tau(  47) = (   0.8746882   0.3465837   0.6220232  )
        48           S   tau(  48) = (   0.1095578   0.3768082   0.8911373  )

     number of k points=     8  Marzari-Vanderbilt smearing, width (Ry)=  0.0200
                       cart. coord. in units 2pi/alat
        k(    1) = (   0.0000000   0.0000000   0.0000000), wk =   0.2500000
        k(    2) = (   0.0000000   0.0000000  -0.4997270), wk =   0.2500000
        k(    3) = (   0.0000000  -0.5035982  -0.0092160), wk =   0.2500000
        k(    4) = (   0.0000000  -0.5035982  -0.5089430), wk =   0.2500000
        k(    5) = (  -0.5000000  -0.0037570  -0.0093497), wk =   0.2500000
        k(    6) = (  -0.5000000  -0.0037570  -0.5090767), wk =   0.2500000
        k(    7) = (  -0.5000000  -0.5073552  -0.0185657), wk =   0.2500000
        k(    8) = (  -0.5000000  -0.5073552  -0.5182927), wk =   0.2500000

     Initial potential from superposition of free atoms

     starting charge  287.97477, renormalised to  288.00000
     Starting wfcs are  272 randomized atomic wfcs

     Self-consistent Calculation

     iteration #  1     ecut=    45.00 Ry     beta= 0.70
     Davidson diagonalization with overlap
     ethr =  1.00E-02,  avg # of iterations =  2.0

     total energy              =   -1123.70996641 Ry
     Harris-Foulkes estimate   =   -1128.14439919 Ry
     estimated scf accuracy    <      12.01613610 Ry

[...]

     iteration #  8     ecut=    45.00 Ry     beta= 0.70
     Davidson diagonalization with overlap
     c_bands:  1 eigenvalues not converged
     ethr =  3.27E-06,  avg # of iterations = 14.8

[...]

     total energy              =   -1126.02745718 Ry
     Harris-Foulkes estimate   =   -1126.02745792 Ry
     estimated scf accuracy    <       0.00000660 Ry

     iteration # 14     ecut=    45.00 Ry     beta= 0.70
     Davidson diagonalization with overlap
     ethr =  2.29E-09,  avg # of iterations =  1.0

     End of self-consistent calculation

          k = 0.0000 0.0000 0.0000 ( 32345 PWs)   bands (ev):

    -6.9173  -6.2346  -6.1704  -6.1100  -6.0512  -6.0124  -5.8949  -5.6861
    -5.6124  -5.5796  -5.5362  -5.4785  -5.4585  -5.4139  -5.3595  -5.3478
    -5.3429  -5.3106  -5.2957  -5.2221  -5.1384  -5.0945  -5.0781  -5.0202
    -4.9608  -4.9396  -4.8029  -4.7811  -4.5950  -4.3119  -4.2684  -4.2086
     1.1784   1.2345   1.3785   1.4440   1.7344   1.7522   1.8500   1.8755
     1.9436   2.0672   2.2003   2.2248   2.3211   2.3778   2.4144   2.4614
     2.4976   2.5733   2.5907   2.6622   2.7269   2.7440   2.8012   2.8286
     2.9078   2.9140   2.9725   3.0491   3.0579   3.1130   3.1329   3.1492
     3.2306   3.2763   3.3133   3.3183   3.4016   3.4170   3.4535   3.4897
     3.5549   3.6187   3.6310   3.6882   3.7115   3.7597   3.7689   3.8118
     3.8629   3.8732   3.9418   3.9651   3.9891   4.0082   4.0596   4.0663
     4.0902   4.1761   4.2175   4.2680   4.2980   4.3237   4.3929   4.4033
     4.4139   4.4655   4.5002   4.6137   4.6933   4.8295   4.8557   4.8635
     4.9282   4.9575   5.0683   5.1161   5.1914   5.2455   5.2795   5.3021
     5.3537   5.4285   5.4791   5.5702   5.6309   5.7203   5.7565   5.8280
     5.8627   5.8833   5.9231   6.0460   6.0782   6.1217   6.2509   6.2804
     6.3905   6.4206   6.5008   6.5353   6.6280   6.6485   6.7032   6.7770
     6.8393   6.8463   6.9787   7.0793   7.1791   7.2566   7.3035   7.3805
     7.5082   7.5257   7.5991   7.6276   7.7194   7.7897   7.8613   7.9063
     8.0044   8.0414   8.1203   8.1886   8.2734   8.3076   8.4074   8.4622
     8.4696   8.5924   8.6600   8.7368   9.0078   9.0122   9.0896   9.1379
     9.2329   9.2921   9.3466   9.3519   9.4159

[...]

          k = 0.0000-0.5036-0.5089 ( 32348 PWs)   bands (ev):

[...]

          k =-0.5000-0.0038-0.0093 ( 32372 PWs)   bands (ev):

[...]

          k =-0.5000-0.5074-0.5183 ( 32370 PWs)   bands (ev):

    -6.4932  -6.4324  -6.3631  -6.2401  -6.1583  -6.0179  -5.9372  -5.8167
    -5.6299  -5.5979  -5.5350  -5.4695  -5.4298  -5.3922  -5.3723  -5.3598
    -5.3180  -5.2837  -5.2158  -5.1654  -5.1129  -5.1000  -5.0492  -4.9863
    -4.9379  -4.9018  -4.7919  -4.7287  -4.5691  -4.3302  -4.2519  -4.1948
     1.5240   1.6617   1.6955   1.7642   1.8177   1.8982   1.9557   2.0242
     2.0293   2.0558   2.1543   2.1809   2.2267   2.2798   2.3079   2.3484
     2.3660   2.4139   2.4414   2.4845   2.5120   2.5147   2.5680   2.6467
     2.6971   2.7217   2.7791   2.8269   2.8969   2.9774   3.0460   3.0604
     3.0841   3.2279   3.2458   3.2910   3.3328   3.3604   3.3767   3.4174
     3.4565   3.4961   3.5620   3.5836   3.5935   3.6389   3.6660   3.7312
     3.8006   3.8139   3.8856   3.9079   3.9418   3.9719   4.0021   4.0707
     4.0832   4.1380   4.1939   4.2504   4.3281   4.3627   4.4267   4.5001
     4.5477   4.6701   4.7553   4.7621   4.8058   4.9558   4.9666   5.0578
     5.0903   5.0992   5.2340   5.3228   5.3592   5.4338   5.4634   5.5051
     5.5485   5.5568   5.6322   5.6827   5.7306   5.7598   5.8556   5.8869
     5.9417   6.0044   6.0220   6.1657   6.2092   6.2265   6.2727   6.3100
     6.3820   6.4349   6.5356   6.5699   6.6465   6.6786   6.7268   6.7753
     6.8774   6.9112   7.0225   7.0747   7.1381   7.1856   7.2624   7.3339
     7.4690   7.4986   7.5849   7.6004   7.6161   7.6453   7.7481   7.7870
     7.8529   7.9308   8.0371   8.1378   8.1658   8.2165   8.2415   8.2923
     8.3983   8.5892   8.6378   8.8336   8.8667   9.0213   9.1229   9.1820
     9.2922   9.3273   9.3432   9.4091   9.4306

     the Fermi energy is     7.4000 ev

!    total energy              =   -1126.02745731 Ry
     Harris-Foulkes estimate   =   -1126.02745773 Ry
     estimated scf accuracy    <       0.00000072 Ry

     The total energy is the sum of the following terms:

     one-electron contribution =      78.78976929 Ry
     hartree contribution      =     132.79870470 Ry
     xc contribution           =    -444.61430169 Ry
     ewald contribution        =    -892.99694151 Ry
     smearing contrib. (-TS)   =      -0.00468810 Ry

     convergence has been achieved in  14 iterations

     Forces acting on atoms (cartesian axes, Ry/au):

     atom    1 type  1   force =    -0.01181600    0.01262038   -0.06963950
     atom    2 type  1   force =     0.04668020   -0.03357013   -0.02400784
     atom    3 type  1   force =    -0.00921485    0.04639439   -0.04750882
     atom    4 type  1   force =     0.01980561   -0.00414541    0.05817656
     atom    5 type  1   force =    -0.01339271   -0.04307259    0.00127665
     atom    6 type  1   force =     0.03779280    0.00580896   -0.03968833
     atom    7 type  1   force =    -0.00836931   -0.03298758   -0.00303496
     atom    8 type  1   force =    -0.01003650    0.02877222   -0.01790298
     atom    9 type  1   force =     0.01471389   -0.00914815   -0.09513433
     atom   10 type  1   force =    -0.01255111   -0.00923559   -0.01588112
     atom   11 type  1   force =     0.00909314    0.01094025   -0.04508324
     atom   12 type  1   force =    -0.00349250    0.04054072    0.04462267
     atom   13 type  1   force =     0.00166268   -0.00197378    0.02500943
     atom   14 type  1   force =    -0.00615535    0.00212381   -0.00992851
     atom   15 type  1   force =    -0.05284031    0.00760727    0.00474385
     atom   16 type  1   force =     0.02915515   -0.03899901    0.00269015
     atom   17 type  2   force =    -0.01736785   -0.01199076    0.01227907
     atom   18 type  2   force =    -0.02758822   -0.04163167    0.00853095
     atom   19 type  2   force =    -0.00399827   -0.01180599    0.03726413
     atom   20 type  2   force =    -0.01683922    0.00473094   -0.00606404
     atom   21 type  2   force =     0.00624009   -0.01620993    0.02096764
     atom   22 type  2   force =     0.00250288    0.03577593   -0.01081649
     atom   23 type  2   force =    -0.01135467   -0.03080118    0.01480530
     atom   24 type  2   force =     0.00910435   -0.02042655    0.02220288
     atom   25 type  2   force =    -0.02449032    0.02288081    0.02636839
     atom   26 type  2   force =     0.03273171   -0.00490110   -0.00759332
     atom   27 type  2   force =     0.01496345   -0.01097049    0.01499957
     atom   28 type  2   force =     0.01349820   -0.02786116    0.03285272
     atom   29 type  2   force =    -0.00786457    0.04598704   -0.00795785
     atom   30 type  2   force =    -0.02677120   -0.02229514    0.01928792
     atom   31 type  2   force =     0.03905092    0.04805634   -0.04403343
     atom   32 type  2   force =     0.00924212    0.01882408    0.02900869
     atom   33 type  2   force =     0.01387019    0.00472762    0.03079835
     atom   34 type  2   force =     0.00549142   -0.00128267   -0.01487247
     atom   35 type  2   force =    -0.00701936    0.01311104    0.03609607
     atom   36 type  2   force =    -0.03171064    0.01083743   -0.01695498
     atom   37 type  2   force =     0.02320778    0.04804640    0.00045392
     atom   38 type  2   force =    -0.00648570   -0.01716943   -0.02705738
     atom   39 type  2   force =    -0.02480098   -0.02618381   -0.00566257
     atom   40 type  2   force =    -0.01129458   -0.01217141    0.02155888
     atom   41 type  2   force =     0.01183771   -0.02236640    0.01038017
     atom   42 type  2   force =    -0.00204077    0.01788009    0.00241779
     atom   43 type  2   force =     0.00257310    0.03085640    0.00690701
     atom   44 type  2   force =    -0.00435363   -0.00819356   -0.01232907
     atom   45 type  2   force =     0.02007227   -0.01026414    0.03928061
     atom   46 type  2   force =     0.00335696    0.00038037   -0.00807943
     atom   47 type  2   force =     0.02809789    0.00195466   -0.01233586
     atom   48 type  2   force =    -0.04289592    0.01080046    0.01858717

     Total force =     0.300903     Total SCF correction =     0.001528

     General routines

     Parallel routines

   This run was terminated on:  20:10: 5  24Dec2021

   JOB DONE.