     Program PWSCF v.6.4 starts on  3Aug2021 at 21: 5:33

     R & G space division:  proc/nbgrp/npool/nimage =      40
     Waiting for input...
     Reading input from standard input
Warning: card    &IONS ignored
Warning: card      ION_DYNAMICS = 'BFGS' ignored
Warning: card   / ignored
Warning: card    &CELL ignored
Warning: card      CELL_DYNAMICS = 'BFGS', ignored
Warning: card    / ignored

     Current dimensions of program PWSCF are:
     Max number of different atomic species (ntypx) = 10
     Max number of k-points (npk) =  40000
     Max angular momentum in pseudopotentials (lmaxx) =  3

     bravais-lattice index     =            0
     lattice parameter (alat)  =      12.0675  a.u.
     unit-cell volume          =    3332.3906 (a.u.)^3
     number of atoms/cell      =           24
     number of atomic types    =            2
     number of electrons       =       144.00
     number of Kohn-Sham states=           86
     kinetic-energy cutoff     =      45.0000  Ry
     charge density cutoff     =     360.0000  Ry
     convergence threshold     =      1.0E-06
     mixing beta               =       0.7000
     number of iterations used =            8  local-TF  mixing
     Exchange-correlation      = SLA PW GGX GGC ( 1  4  2  2 0 0)

     celldm(1)=  12.067481  celldm(2)=   0.000000  celldm(3)=   0.000000
     celldm(4)=   0.000000  celldm(5)=   0.000000  celldm(6)=   0.000000

     crystal axes: (cart. coord. in units of alat)
               a(1) = (   1.000000   0.000000   0.000000 )
               a(2) = (  -0.250000   0.433013   0.000000 )
               a(3) = (   0.000000   0.000000   4.379307 )

     reciprocal axes: (cart. coord. in units 2 pi/alat)
               b(1) = (  1.000000  0.577350  0.000000 )
               b(2) = (  0.000000  2.309401  0.000000 )
               b(3) = (  0.000000  0.000000  0.228347 )

     PseudoPot. # 1 for Mo read from file:
     ~/pseudo/Mo.pw91-n-van.UPF
     MD5 check sum: Not computed, couldn't open file
     Pseudo is Ultrasoft + core correction, Zval =  6.0
     Generated by new atomic code, or converted to UPF format
     Using radial grid of  965 points,  3 beta functions with:
                l(1) =   1
                l(2) =   2
                l(3) =   2
     Q(r) pseudized with  8 coefficients,  rinner =    1.000   1.000   1.000
                                                       1.200   1.200

     PseudoPot. # 2 for S  read from file:
     ~/pseudo/S.pw91-van_ak.UPF
     MD5 check sum: Not computed, couldn't open file
     Pseudo is Ultrasoft, Zval =  6.0
     Generated by new atomic code, or converted to UPF format
     Using radial grid of  811 points,  6 beta functions with:
                l(1) =   0
                l(2) =   0
                l(3) =   1
                l(4) =   1
                l(5) =   2
                l(6) =   2
     Q(r) pseudized with  8 coefficients,  rinner =    1.100   1.100   1.100
                                                       1.100   1.100

     atomic species   valence    mass     pseudopotential
        Mo             6.00    95.50000     Mo( 1.00)
        S              6.00    32.06500     S ( 1.00)

     No symmetry found

   Cartesian axes

     site n.     atom                  positions (alat units)
         1           Mo  tau(   1) = (  -0.0092734   0.0196490   1.6647971  )
         2           Mo  tau(   2) = (   0.0024548   0.0073142   3.8015394  )
         3           Mo  tau(   3) = (   0.4900069   0.0263635   1.6286019  )
         4           Mo  tau(   4) = (   0.5311943   0.0027956   3.8318500  )
         5           Mo  tau(   5) = (  -0.0258948  -0.0174748   0.5496470  )
         6           Mo  tau(   6) = (   0.0032497  -0.0017127   2.7059637  )
         7           Mo  tau(   7) = (   0.5038020  -0.0137427   0.5752985  )
         8           Mo  tau(   8) = (   0.5062346   0.0288630   2.7266285  )
         9           S   tau(   9) = (   0.2440056   0.1731315   1.8982651  )
        10           S   tau(  10) = (   0.2514894   0.1672918   4.0984095  )
        11           S   tau(  11) = (   0.7495725   0.1491752   1.8565605  )
        12           S   tau(  12) = (   0.7812727   0.1458679   4.0763856  )
        13           S   tau(  13) = (  -0.0144437   0.2773196   0.2767884  )
        14           S   tau(  14) = (   0.0034767   0.3079975   2.4674039  )
        15           S   tau(  15) = (   0.5070303   0.2984749   0.3310564  )
        16           S   tau(  16) = (   0.5121171   0.2970274   2.5194521  )
        17           S   tau(  17) = (   0.0043860   0.3111382   0.7712949  )
        18           S   tau(  18) = (  -0.0154106   0.2886693   2.9550620  )
        19           S   tau(  19) = (   0.5291802   0.2788775   0.7984537  )
        20           S   tau(  20) = (   0.5265818   0.2790087   2.9957758  )
        21           S   tau(  21) = (   0.2557459   0.1437878   1.3661964  )
        22           S   tau(  22) = (   0.2227902   0.1440716   3.6021389  )
        23           S   tau(  23) = (   0.7438818   0.1692431   1.4149562  )
        24           S   tau(  24) = (   0.7188325   0.1428163   3.5839573  )

     number of k points=    10  Marzari-Vanderbilt smearing, width (Ry)=  0.0200
                       cart. coord. in units 2pi/alat
        k(    1) = (   0.0000000   0.0000000   0.0000000), wk =   0.1111111
        k(    2) = (   0.0000000   0.3849002   0.0000000), wk =   0.2222222
        k(    3) = (   0.0000000   0.7698004   0.0000000), wk =   0.2222222
        k(    4) = (   0.0000000  -1.1547006   0.0000000), wk =   0.1111111
        k(    5) = (   0.3333333   0.1924501   0.0000000), wk =   0.2222222
        k(    6) = (   0.3333333   0.5773503   0.0000000), wk =   0.2222222
        k(    7) = (   0.3333333  -0.9622505   0.0000000), wk =   0.2222222
        k(    8) = (   0.3333333  -0.5773503   0.0000000), wk =   0.2222222
        k(    9) = (   0.3333333  -0.1924501   0.0000000), wk =   0.2222222
        k(   10) = (   0.6666667  -0.3849002   0.0000000), wk =   0.2222222

     Initial potential from superposition of free atoms

     starting charge  143.98738, renormalised to  144.00000
     Starting wfcs are  136 randomized atomic wfcs

     Self-consistent Calculation

     iteration #  1     ecut=    45.00 Ry     beta= 0.70
     Davidson diagonalization with overlap
     ethr =  1.00E-02,  avg # of iterations =  2.0

     total energy              =    -562.28766944 Ry
     Harris-Foulkes estimate   =    -563.81796436 Ry
     estimated scf accuracy    <       3.88215790 Ry

[...]

     total energy              =    -563.03811650 Ry
     Harris-Foulkes estimate   =    -563.03811671 Ry
     estimated scf accuracy    <       0.00000148 Ry

     iteration # 17     ecut=    45.00 Ry     beta= 0.70
     Davidson diagonalization with overlap
     ethr =  1.03E-09,  avg # of iterations =  5.2

     End of self-consistent calculation

          k = 0.0000 0.0000 0.0000 ( 17003 PWs)   bands (ev):

    -8.1496  -8.0471  -8.0106  -7.7882  -6.7207  -6.6740  -6.6209  -6.5191
    -6.2095  -6.1652  -6.1339  -6.1190  -5.7583  -5.6562  -5.6037  -5.4575
     0.2037   0.2992   0.3278   0.5245   0.5708   0.6724   0.7139   0.8287
     1.4273   1.4565   1.6988   1.8207   2.0835   2.0998   2.3746   2.4110
     2.5098   2.5372   2.8708   3.1411   3.2033   3.2692   3.2756   3.3401
     3.3577   3.4349   3.4512   3.6204   3.7878   3.9825   4.0545   4.1327
     4.2377   4.4562   4.5226   4.6532   4.6867   4.7188   4.8258   4.8968
     5.0505   5.1820   5.2938   5.3214   5.3719   5.4969   5.5817   5.6728
     5.7560   5.8400   5.9078   6.0809   6.5900   6.7883   6.8151   7.0626
     7.7748   7.8024   7.9991   8.1438   8.1790   8.2671   8.3399   8.3615
     8.4738   8.6381   8.6634   8.6993   8.7249   8.8619

[...]

          k = 0.6667-0.3849 0.0000 ( 16956 PWs)   bands (ev):

    -7.1155  -7.0345  -6.8426  -6.6436  -6.3121  -6.2581  -6.2020  -6.1826
    -6.0861  -5.9348  -5.8858  -5.8228  -5.6444  -5.6247  -5.3702  -5.2980
     0.4901   0.5548   0.6486   0.9281   0.9446   0.9759   0.9949   1.0383
     1.2345   1.3507   1.4210   1.6733   1.7593   1.8949   1.9492   2.1174
     2.1395   2.2208   2.2292   2.2469   2.3945   2.5298   2.6401   2.7127
     2.8826   2.9214   2.9492   3.0300   3.1614   3.2467   3.2807   3.4791
     3.7979   3.8240   4.0949   4.1577   4.3288   4.3499   4.4687   4.6310
     4.6759   4.7440   4.8147   4.8397   4.9045   5.0827   5.1153   5.1590
     5.3164   5.4508   5.8448   5.8868   5.9781   6.0180   6.1353   6.3487
     7.9464   8.0284   8.0418   8.0881   8.2241   8.3266   8.3810   8.4457
     8.5094   8.5998   8.6374   8.7146   8.7814   8.8480

     the Fermi energy is     6.8698 ev

!    total energy              =    -563.03811628 Ry
     Harris-Foulkes estimate   =    -563.03811663 Ry
     estimated scf accuracy    <       0.00000041 Ry

     The total energy is the sum of the following terms:

     one-electron contribution =     -89.42885934 Ry
     hartree contribution      =     126.90674152 Ry
     xc contribution           =    -223.80848345 Ry
     ewald contribution        =    -376.71734079 Ry
     smearing contrib. (-TS)   =       0.00982579 Ry

     convergence has been achieved in  17 iterations

     Forces acting on atoms (cartesian axes, Ry/au):

     atom    1 type  1   force =     0.16289017   -0.00373769   -0.23248626
     atom    2 type  1   force =    -0.11476421   -0.08848958    0.27373691
     atom    3 type  1   force =    -0.04010734   -0.09759406    0.02079951
     atom    4 type  1   force =    -0.22989980   -0.00531459    0.16412980
     atom    5 type  1   force =     0.29453389    0.21348890   -0.02928512
     atom    6 type  1   force =     0.09333155    0.14447379    0.17522510
     atom    7 type  1   force =     0.06106269    0.06700318   -0.20562243
     atom    8 type  1   force =    -0.01798310   -0.21260110    0.15493054
     atom    9 type  2   force =     0.01272112    0.00344716   -0.02357262
     atom   10 type  2   force =     0.03257504   -0.04896518   -0.06604214
     atom   11 type  2   force =    -0.12355039    0.04443903    0.24826409
     atom   12 type  2   force =    -0.02059474    0.02406107   -0.02973805
     atom   13 type  2   force =     0.01388278    0.00804465    0.07798361
     atom   14 type  2   force =     0.03692249   -0.02157286   -0.03008970
     atom   15 type  2   force =    -0.15046068   -0.13657279   -0.16367883
     atom   16 type  2   force =    -0.13474548    0.03181035   -0.28311622
     atom   17 type  2   force =    -0.12367511   -0.12372419    0.16857302
     atom   18 type  2   force =     0.05879468    0.00201949    0.01017677
     atom   19 type  2   force =    -0.09500851   -0.02921678    0.15199956
     atom   20 type  2   force =    -0.03632583    0.05687711   -0.02759422
     atom   21 type  2   force =    -0.04497999    0.04355372    0.05972005
     atom   22 type  2   force =     0.21864746    0.07955638   -0.18936530
     atom   23 type  2   force =     0.03284755    0.00963989   -0.07156434
     atom   24 type  2   force =     0.11388576    0.03937410   -0.15338373

     Total force =     1.043987     Total SCF correction =     0.001774

     General routines

     Parallel routines

   This run was terminated on:  21: 6:44   3Aug2021

   JOB DONE.