     Program PWSCF v.6.4 starts on  3Dec2021 at 14:57: 9

     R & G space division:  proc/nbgrp/npool/nimage =      40
     Waiting for input...
     Reading input from standard input
Warning: card    &IONS ignored
Warning: card      ION_DYNAMICS = 'BFGS' ignored
Warning: card   / ignored
Warning: card    &CELL ignored
Warning: card      CELL_DYNAMICS = 'BFGS', ignored
Warning: card    / ignored

     Current dimensions of program PWSCF are:
     Max number of different atomic species (ntypx) = 10
     Max number of k-points (npk) =  40000
     Max angular momentum in pseudopotentials (lmaxx) =  3

     bravais-lattice index     =            0
     lattice parameter (alat)  =      11.6545  a.u.
     unit-cell volume          =   22438.7281 (a.u.)^3
     number of atoms/cell      =           36
     number of atomic types    =            2
     number of electrons       =       216.00
     number of Kohn-Sham states=          130
     kinetic-energy cutoff     =      45.0000  Ry
     charge density cutoff     =     360.0000  Ry
     convergence threshold     =      1.0E-06
     mixing beta               =       0.7000
     number of iterations used =            8  local-TF  mixing
     Exchange-correlation      = SLA PW GGX GGC ( 1  4  2  2 0 0)

     celldm(1)=  11.654472  celldm(2)=   0.000000  celldm(3)=   0.000000
     celldm(4)=   0.000000  celldm(5)=   0.000000  celldm(6)=   0.000000

     crystal axes: (cart. coord. in units of alat)
               a(1) = (   1.000000   0.000000   0.000000 )
               a(2) = (   0.245347   1.859749   0.000000 )
               a(3) = (   0.456767   0.696156   7.621948 )

     reciprocal axes: (cart. coord. in units 2 pi/alat)
               b(1) = (  1.000000 -0.131925 -0.047878 )
               b(2) = (  0.000000  0.537707 -0.049112 )
               b(3) = (  0.000000  0.000000  0.131200 )

     PseudoPot. # 1 for Mo read from file:
     ~/pseudo/Mo.pw91-n-van.UPF
     MD5 check sum: Not computed, couldn't open file
     Pseudo is Ultrasoft + core correction, Zval =  6.0
     Generated by new atomic code, or converted to UPF format
     Using radial grid of  965 points,  3 beta functions with:
                l(1) =   1
                l(2) =   2
                l(3) =   2
     Q(r) pseudized with  8 coefficients,  rinner =    1.000   1.000   1.000
                                                       1.200   1.200

     PseudoPot. # 2 for S  read from file:
     ~/pseudo/S.pw91-van_ak.UPF
     MD5 check sum: Not computed, couldn't open file
     Pseudo is Ultrasoft, Zval =  6.0
     Generated by new atomic code, or converted to UPF format
     Using radial grid of  811 points,  6 beta functions with:
                l(1) =   0
                l(2) =   0
                l(3) =   1
                l(4) =   1
                l(5) =   2
                l(6) =   2
     Q(r) pseudized with  8 coefficients,  rinner =    1.100   1.100   1.100
                                                       1.100   1.100

     atomic species   valence    mass     pseudopotential
        Mo             6.00    95.50000     Mo( 1.00)
        S              6.00    32.06500     S ( 1.00)

     No symmetry found

   Cartesian axes

     site n.     atom                  positions (alat units)
         1           Mo  tau(   1) = (   0.3978992   1.0733510   1.8791157  )
         2           Mo  tau(   2) = (   1.1488450   0.6661993   1.9455300  )
         3           Mo  tau(   3) = (   0.8984689   1.0724985   1.8794562  )
         4           Mo  tau(   4) = (   0.6484961   0.6666683   1.9454277  )
         5           Mo  tau(   5) = (   0.8968873   2.0416703   2.2105070  )
         6           Mo  tau(   6) = (   0.3973463   2.0421008   2.2103267  )
         7           Mo  tau(   7) = (   0.6469980   1.6170395   2.1935752  )
         8           Mo  tau(   8) = (   1.1468642   1.6184297   2.1941072  )
         9           Mo  tau(   9) = (   0.6844481   0.6640398   0.5770571  )
        10           Mo  tau(  10) = (   0.1844939   0.6630554   0.5779657  )
        11           Mo  tau(  11) = (   0.5308917   0.9598270   6.2110139  )
        12           Mo  tau(  12) = (   1.0304969   0.9602710   6.2110027  )
        13           S   tau(  13) = (   1.1479278   0.9223102   1.6238651  )
        14           S   tau(  14) = (   0.3964807   1.4582602   1.9148201  )
        15           S   tau(  15) = (   0.6479844   0.9232416   1.6238186  )
        16           S   tau(  16) = (   0.8974859   1.4572213   1.9149034  )
        17           S   tau(  17) = (   0.7808886   0.7764654   6.0071470  )
        18           S   tau(  18) = (   1.2811195   1.1670946   6.0306880  )
        19           S   tau(  19) = (   1.1486518   0.9915280   2.1596650  )
        20           S   tau(  20) = (   0.3961296   1.4256365   2.4136074  )
        21           S   tau(  21) = (   0.6479359   0.9926326   2.1593521  )
        22           S   tau(  22) = (   0.8971873   1.4209061   2.4099118  )
        23           S   tau(  23) = (   0.7805480   1.1416894   6.4171266  )
        24           S   tau(  24) = (   1.2802063   0.7517715   6.3890987  )
        25           S   tau(  25) = (   0.8980106   0.4905676   1.7155650  )
        26           S   tau(  26) = (   0.3982403   0.4842025   1.7206237  )
        27           S   tau(  27) = (   0.8996907   0.5077069   2.2285226  )
        28           S   tau(  28) = (   0.4001714   0.5078016   2.2313767  )
        29           S   tau(  29) = (   0.6466106   1.8927959   2.4775685  )
        30           S   tau(  30) = (   1.1470630   1.8948176   2.4781443  )
        31           S   tau(  31) = (   0.9334866   0.3900727   0.6004141  )
        32           S   tau(  32) = (   0.4337059   0.6417430   0.3037551  )
        33           S   tau(  33) = (   0.6476747   1.9193282   1.9413500  )
        34           S   tau(  34) = (   1.1476299   1.9208905   1.9412470  )
        35           S   tau(  35) = (   0.9354244   0.9371682   0.5565464  )
        36           S   tau(  36) = (   0.4352440   0.6878693   0.8507424  )

     number of k points=     4  Marzari-Vanderbilt smearing, width (Ry)=  0.0200
                       cart. coord. in units 2pi/alat
        k(    1) = (   0.0000000   0.0000000   0.0000000), wk =   0.3333333
        k(    2) = (   0.0000000  -0.2688535   0.0245559), wk =   0.3333333
        k(    3) = (   0.3333333  -0.0439750  -0.0159595), wk =   0.6666667
        k(    4) = (   0.3333333  -0.3128285   0.0085965), wk =   0.6666667

     Initial potential from superposition of free atoms

     starting charge  215.98107, renormalised to  216.00000

     negative rho (up, down):  2.903E-03 0.000E+00
     Starting wfcs are  204 randomized atomic wfcs

     Self-consistent Calculation

     iteration #  1     ecut=    45.00 Ry     beta= 0.70
     Davidson diagonalization with overlap
     ethr =  1.00E-02,  avg # of iterations =  2.5

     negative rho (up, down):  5.992E-04 0.000E+00

     total energy              =    -843.05435992 Ry
     Harris-Foulkes estimate   =    -845.81209296 Ry
     estimated scf accuracy    <       7.37095531 Ry

[...]

     total energy              =    -844.43737810 Ry
     Harris-Foulkes estimate   =    -844.43737672 Ry
     estimated scf accuracy    <       0.00000216 Ry

     iteration # 22     ecut=    45.00 Ry     beta= 0.70
     Davidson diagonalization with overlap
     ethr =  1.00E-09,  avg # of iterations =  3.0

[...]

     End of self-consistent calculation

          k = 0.0000 0.0000 0.0000 (114475 PWs)   bands (ev):

   -17.2899 -16.7443 -16.4579 -16.1220 -16.0295 -15.8313 -15.7307 -15.6816
   -15.6808 -15.5449 -15.5251 -15.4020 -15.3628 -15.2413 -15.1947 -15.1844
   -15.0943 -15.0927 -15.0904 -15.0863 -14.9748 -14.9734 -14.5581 -14.5241
    -9.1428  -9.1072  -8.7840  -8.6350  -8.4474  -8.3928  -8.2961  -8.2814
    -8.1747  -8.1707  -7.8529  -7.7671  -7.7190  -7.7184  -7.6253  -7.5944
    -7.4992  -7.3653  -7.2009  -7.1874  -7.1003  -6.9562  -6.8535  -6.6970
    -6.6433  -6.6280  -6.6270  -6.6263  -6.6237  -6.5620  -6.5613  -6.3369
    -6.3359  -6.2455  -6.2056  -6.1117  -6.1095  -6.0972  -6.0502  -6.0446
    -6.0415  -6.0350  -5.9476  -5.8715  -5.7990  -5.7879  -5.6289  -5.6051
    -5.5753  -5.4744  -5.3912  -5.3848  -5.3516  -5.3213  -5.2783  -5.0759
    -5.0673  -4.7213  -4.6300  -4.6296  -4.6251  -4.6192  -4.5637  -4.5584
    -4.4489  -4.4366  -4.3883  -4.2124  -4.0340  -4.0322  -4.0068  -3.9996
    -3.8797  -3.7282  -3.6705  -3.4272  -3.2277  -3.1915  -2.9968  -2.9947
    -2.9895  -2.9893  -2.9009  -2.8325  -2.8031  -2.8012  -2.6603  -2.5102
    -2.3307  -2.2565  -1.9773  -1.9387  -1.8055  -1.4623  -1.4054  -1.2906
    -1.2787  -1.2674  -1.2517  -1.1126  -0.8095  -0.7277  -0.7036  -0.7023
    -0.6566  -0.6110

[...]

          k = 0.3333-0.3128 0.0086 (114327 PWs)   bands (ev):

   -16.9200 -16.6443 -16.1937 -16.0803 -15.9501 -15.9431 -15.8822 -15.7447
   -15.6865 -15.6285 -15.6059 -15.4976 -15.4966 -15.3548 -15.1444 -15.1431
   -15.0849 -15.0849 -15.0840 -15.0814 -15.0631 -15.0504 -14.7171 -14.7036
    -8.6574  -8.5060  -8.4532  -8.3242  -8.3030  -8.1447  -8.1338  -8.0707
    -8.0335  -7.7442  -7.7211  -7.5943  -7.4568  -7.3258  -7.2318  -7.2292
    -7.2266  -7.2097  -7.1599  -7.1434  -7.0311  -6.8290  -6.7790  -6.6789
    -6.6553  -6.6061  -6.6052  -6.5344  -6.4800  -6.4769  -6.4753  -6.4712
    -6.4529  -6.4524  -6.4444  -6.2527  -6.2335  -6.1787  -6.0328  -6.0260
    -6.0257  -5.9723  -5.9706  -5.9638  -5.9564  -5.9466  -5.9043  -5.8878
    -5.8044  -5.8018  -5.8003  -5.7489  -5.5994  -5.5360  -5.4062  -5.3422
    -5.1491  -5.1475  -5.1408  -5.1329  -5.0170  -4.9765  -4.9425  -4.9402
    -4.8838  -4.8114  -4.6229  -4.4594  -4.4316  -4.4009  -4.1123  -4.0480
    -3.9181  -3.8351  -3.7693  -3.6385  -3.3464  -2.9783  -2.9505  -2.8873
    -2.8873  -2.7883  -2.7855  -2.7811  -2.4980  -2.3636  -2.3462  -2.2895
    -2.0942  -1.9892  -1.9627  -1.9616  -1.7706  -1.5917  -1.4772  -1.3290
    -1.1718  -1.0733  -1.0295  -1.0294  -1.0228  -1.0161  -1.0135  -0.9306
    -0.9285  -0.9047

     the Fermi energy is    -2.6859 ev

!    total energy              =    -844.43737897 Ry
     Harris-Foulkes estimate   =    -844.43737824 Ry
     estimated scf accuracy    <       0.00000069 Ry

     The total energy is the sum of the following terms:

     one-electron contribution =  -10416.31738875 Ry
     hartree contribution      =    5256.58790952 Ry
     xc contribution           =    -333.37167067 Ry
     ewald contribution        =    4648.66512322 Ry
     smearing contrib. (-TS)   =      -0.00135229 Ry

     convergence has been achieved in  22 iterations

     negative rho (up, down):  4.256E-03 0.000E+00

     Forces acting on atoms (cartesian axes, Ry/au):

     atom    1 type  1   force =     0.00009129    0.03765681   -0.01833248
     atom    2 type  1   force =     0.00176682   -0.05733267   -0.02755806
     atom    3 type  1   force =    -0.00083387    0.03882557   -0.01897721
     atom    4 type  1   force =     0.00044325   -0.05709140   -0.02710108
     atom    5 type  1   force =    -0.00020457    0.04946647    0.00584213
     atom    6 type  1   force =    -0.00143342    0.04856894    0.00593952
     atom    7 type  1   force =     0.00034373   -0.06028551   -0.00598254
     atom    8 type  1   force =     0.00034886   -0.06153371   -0.00802960
     atom    9 type  1   force =    -0.00004242    0.00100799    0.00003032
     atom   10 type  1   force =    -0.00013846   -0.00013771    0.00067739
     atom   11 type  1   force =    -0.00002512   -0.00041033    0.00007088
     atom   12 type  1   force =     0.00093851    0.00045578   -0.00092493
     atom   13 type  2   force =     0.00130457   -0.00563943    0.01038516
     atom   14 type  2   force =     0.00036386    0.00882661    0.01925742
     atom   15 type  2   force =    -0.00121541   -0.00610932    0.01059670
     atom   16 type  2   force =    -0.00038478    0.01004901    0.01859135
     atom   17 type  2   force =    -0.00049348   -0.01676293   -0.02223102
     atom   18 type  2   force =    -0.00097100    0.01975922   -0.01810786
     atom   19 type  2   force =    -0.00044894    0.00914405    0.03047153
     atom   20 type  2   force =     0.00143425    0.00969928    0.00879106
     atom   21 type  2   force =     0.00034531    0.00755066    0.03078449
     atom   22 type  2   force =    -0.00034929    0.01329943    0.01180183
     atom   23 type  2   force =    -0.00032706    0.01713652    0.02045022
     atom   24 type  2   force =     0.00054928   -0.01988678    0.01990525
     atom   25 type  2   force =     0.00014789   -0.01428242   -0.00631215
     atom   26 type  2   force =     0.00063445   -0.00797310   -0.01110071
     atom   27 type  2   force =    -0.00001061    0.01854684    0.01053417
     atom   28 type  2   force =    -0.00033033    0.01939785    0.00927028
     atom   29 type  2   force =     0.00122385    0.00314369   -0.00487609
     atom   30 type  2   force =    -0.00013365    0.00175764   -0.00559178
     atom   31 type  2   force =     0.00071105   -0.02775070    0.00214830
     atom   32 type  2   force =     0.00031399   -0.00235674   -0.02684841
     atom   33 type  2   force =    -0.00089533   -0.00183382   -0.01900100
     atom   34 type  2   force =    -0.00067207   -0.00264010   -0.01976985
     atom   35 type  2   force =    -0.00112006    0.02666020   -0.00303456
     atom   36 type  2   force =    -0.00093107    0.00107412    0.02823130

     Total force =     0.189645     Total SCF correction =     0.001349

     General routines

     Parallel routines

   This run was terminated on:  15: 8:54   3Dec2021

   JOB DONE.