     Program PWSCF v.6.4 starts on 24Dec2021 at  1:23: 4

     R & G space division:  proc/nbgrp/npool/nimage =      40
     Waiting for input...
     Reading input from standard input
Warning: card    &IONS ignored
Warning: card      ION_DYNAMICS = 'BFGS' ignored
Warning: card   / ignored
Warning: card    &CELL ignored
Warning: card      CELL_DYNAMICS = 'BFGS', ignored
Warning: card    / ignored

     Current dimensions of program PWSCF are:
     Max number of different atomic species (ntypx) = 10
     Max number of k-points (npk) =  40000
     Max angular momentum in pseudopotentials (lmaxx) =  3

     bravais-lattice index     =            0
     lattice parameter (alat)  =      16.5505  a.u.
     unit-cell volume          =   29522.9867 (a.u.)^3
     number of atoms/cell      =           27
     number of atomic types    =            2
     number of electrons       =       162.00
     number of Kohn-Sham states=           97
     kinetic-energy cutoff     =      45.0000  Ry
     charge density cutoff     =     360.0000  Ry
     convergence threshold     =      1.0E-06
     mixing beta               =       0.7000
     number of iterations used =            8  local-TF  mixing
     Exchange-correlation      = SLA PW GGX GGC ( 1  4  2  2 0 0)

     celldm(1)=  16.550498  celldm(2)=   0.000000  celldm(3)=   0.000000
     celldm(4)=   0.000000  celldm(5)=   0.000000  celldm(6)=   0.000000

     crystal axes: (cart. coord. in units of alat)
               a(1) = (   1.000000   0.000000   0.000000 )
               a(2) = (   0.153824   2.244636   0.000000 )
               a(3) = (   0.274313   0.939183   2.901224 )

     reciprocal axes: (cart. coord. in units 2 pi/alat)
               b(1) = (  1.000000 -0.068530 -0.072366 )
               b(2) = (  0.000000  0.445507 -0.144219 )
               b(3) = (  0.000000  0.000000  0.344682 )

     PseudoPot. # 1 for Mo read from file:
     ~/pseudo/Mo.pw91-n-van.UPF
     MD5 check sum: Not computed, couldn't open file
     Pseudo is Ultrasoft + core correction, Zval =  6.0
     Generated by new atomic code, or converted to UPF format
     Using radial grid of  965 points,  3 beta functions with:
                l(1) =   1
                l(2) =   2
                l(3) =   2
     Q(r) pseudized with  8 coefficients,  rinner =    1.000   1.000   1.000
                                                       1.200   1.200

     PseudoPot. # 2 for S  read from file:
     ~/pseudo/S.pw91-van_ak.UPF
     MD5 check sum: Not computed, couldn't open file
     Pseudo is Ultrasoft, Zval =  6.0
     Generated by new atomic code, or converted to UPF format
     Using radial grid of  811 points,  6 beta functions with:
                l(1) =   0
                l(2) =   0
                l(3) =   1
                l(4) =   1
                l(5) =   2
                l(6) =   2
     Q(r) pseudized with  8 coefficients,  rinner =    1.100   1.100   1.100
                                                       1.100   1.100

     atomic species   valence    mass     pseudopotential
        Mo             6.00    95.50000     Mo( 1.00)
        S              6.00    32.06500     S ( 1.00)

     No symmetry found

   Cartesian axes

     site n.     atom                  positions (alat units)
         1           Mo  tau(   1) = (   0.7344120   1.3870979   1.3659890  )
         2           Mo  tau(   2) = (   0.7907423   1.0691437   1.2673035  )
         3           Mo  tau(   3) = (   0.4776438   1.1779093   1.3040405  )
         4           Mo  tau(   4) = (   1.0479241   1.5048956   1.4730207  )
         5           Mo  tau(   5) = (   0.4004865   1.4871257   1.3841787  )
         6           Mo  tau(   6) = (   1.0762868   1.2391710   1.3403243  )
         7           Mo  tau(   7) = (   1.0021300   0.6112074   1.3370194  )
         8           Mo  tau(   8) = (   1.0982112   2.5665900   1.3990853  )
         9           Mo  tau(   9) = (   1.0803995   0.9136412   1.2898552  )
        10           S   tau(  10) = (   0.6062750   1.6255304   1.2907077  )
        11           S   tau(  11) = (   0.8181361   1.5584137   1.5862816  )
        12           S   tau(  12) = (   0.8726510   2.4570376   1.4550496  )
        13           S   tau(  13) = (   1.1493622   1.3088924   1.6174467  )
        14           S   tau(  14) = (   0.2879794   2.3885943   1.4015479  )
        15           S   tau(  15) = (   0.5608251   0.9389036   1.1882374  )
        16           S   tau(  16) = (   1.0080305   1.0887780   1.1072424  )
        17           S   tau(  17) = (   0.9071273   0.4347269   1.1666968  )
        18           S   tau(  18) = (   0.6687454   1.2718659   1.1187808  )
        19           S   tau(  19) = (   0.8545528   1.1709566   1.5052963  )
        20           S   tau(  20) = (   0.2672538   1.0391982   1.4273031  )
        21           S   tau(  21) = (   1.1755982   2.7405252   1.5671010  )
        22           S   tau(  22) = (   0.9618265   1.4774089   1.2291274  )
        23           S   tau(  23) = (   0.3016093   1.3421609   1.1813969  )
        24           S   tau(  24) = (   0.2110676   0.6979154   1.2100932  )
        25           S   tau(  25) = (   0.5216770   1.3108190   1.5405761  )
        26           S   tau(  26) = (   0.2410845   1.6857179   1.4811576  )
        27           S   tau(  27) = (   0.8514907   0.8169275   1.3929025  )

     number of k points=     2  Marzari-Vanderbilt smearing, width (Ry)=  0.0200
                       cart. coord. in units 2pi/alat
        k(    1) = (   0.0000000   0.0000000   0.0000000), wk =   1.0000000
        k(    2) = (  -0.5000000   0.0342648   0.0361832), wk =   1.0000000

     Initial potential from superposition of free atoms

     starting charge  161.98581, renormalised to  162.00000

     negative rho (up, down):  4.495E-03 0.000E+00
     Starting wfcs are  153 randomized atomic wfcs

     Self-consistent Calculation

     iteration #  1     ecut=    45.00 Ry     beta= 0.70
     Davidson diagonalization with overlap
     ethr =  1.00E-02,  avg # of iterations =  2.0

     negative rho (up, down):  1.378E-03 0.000E+00

     total energy              =    -632.06027876 Ry
     Harris-Foulkes estimate   =    -634.21590850 Ry
     estimated scf accuracy    <       5.92443654 Ry

[...]

     iteration #  8     ecut=    45.00 Ry     beta= 0.70
     Davidson diagonalization with overlap
     c_bands:  1 eigenvalues not converged
     ethr =  8.16E-06,  avg # of iterations = 10.5

[...]

     total energy              =    -633.13472217 Ry
     Harris-Foulkes estimate   =    -633.13472133 Ry
     estimated scf accuracy    <       0.00000142 Ry

     iteration # 19     ecut=    45.00 Ry     beta= 0.70
     Davidson diagonalization with overlap
     ethr =  8.78E-10,  avg # of iterations =  2.5

[...]

     End of self-consistent calculation

          k = 0.0000 0.0000 0.0000 (150585 PWs)   bands (ev):

   -17.9673 -17.4275 -17.3426 -17.2115 -17.1797 -17.0752 -17.0057 -16.7749
   -16.7292 -16.6480 -16.4807 -16.4567 -16.3620 -16.3322 -16.1393 -16.0088
   -15.0152 -14.8242  -9.7553  -9.5788  -9.4210  -9.2933  -9.2424  -9.0254
    -8.9346  -8.8866  -8.8202  -8.7175  -8.5314  -8.4836  -8.4494  -8.3944
    -8.3145  -8.2481  -8.1940  -8.0938  -8.0457  -7.9722  -7.9042  -7.8614
    -7.8208  -7.6875  -7.6633  -7.6046  -7.5387  -7.5165  -7.4168  -7.3230
    -7.2676  -7.1859  -7.1181  -7.0257  -7.0060  -6.9382  -6.8808  -6.7554
    -6.6425  -6.5260  -6.4554  -6.3923  -6.3864  -6.2491  -6.2086  -6.0255
    -5.8693  -5.8420  -5.6720  -5.5890  -5.5556  -5.5319  -5.3366  -5.1599
    -5.1262  -4.9788  -4.8326  -4.6967  -4.5651  -4.4298  -4.3567  -4.2525
    -4.1644  -3.9975  -3.9284  -3.6807  -3.5914  -3.4246  -3.3314  -3.1828
    -3.1693  -3.0121  -2.8073  -2.7715  -2.6843  -2.5733  -2.3181  -2.2659
    -2.2419

          k =-0.5000 0.0343 0.0362 (150434 PWs)   bands (ev):

   -17.7961 -17.5966 -17.3995 -17.2747 -17.1512 -17.1092 -17.0368 -16.7594
   -16.6451 -16.5994 -16.4901 -16.4789 -16.3608 -16.3144 -16.1100 -16.0076
   -15.0120 -14.8277  -9.7665  -9.7066  -9.3991  -9.3157  -9.1922  -9.0297
    -8.9320  -8.8473  -8.7813  -8.7125  -8.6495  -8.5953  -8.5256  -8.4078
    -8.3895  -8.2913  -8.1124  -8.0194  -7.9686  -7.8854  -7.8131  -7.7949
    -7.7702  -7.6467  -7.5705  -7.5528  -7.4931  -7.4521  -7.4114  -7.3676
    -7.2619  -7.2215  -7.1836  -7.0987  -7.0225  -6.9494  -6.7995  -6.6280
    -6.5760  -6.5425  -6.5059  -6.4440  -6.3895  -6.3580  -6.2139  -6.1659
    -6.0111  -5.8793  -5.7028  -5.6309  -5.5736  -5.4732  -5.2234  -5.1472
    -5.0612  -4.9319  -4.8489  -4.7979  -4.7026  -4.4339  -4.3035  -4.2664
    -4.1017  -4.0077  -3.9055  -3.7282  -3.5763  -3.3985  -3.3484  -3.3108
    -3.0372  -2.9541  -2.8710  -2.7423  -2.5713  -2.4675  -2.3014  -2.2401
    -2.2131

     the Fermi energy is    -4.0678 ev

!    total energy              =    -633.13472471 Ry
     Harris-Foulkes estimate   =    -633.13472233 Ry
     estimated scf accuracy    <       0.00000026 Ry

     The total energy is the sum of the following terms:

     one-electron contribution =   -3844.92021785 Ry
     hartree contribution      =    1951.39099271 Ry
     xc contribution           =    -249.42301973 Ry
     ewald contribution        =    1509.81853982 Ry
     smearing contrib. (-TS)   =      -0.00101966 Ry

     convergence has been achieved in  19 iterations

     negative rho (up, down):  6.153E-03 0.000E+00

     Forces acting on atoms (cartesian axes, Ry/au):

     atom    1 type  1   force =     0.00212256   -0.08647456    0.00980788
     atom    2 type  1   force =    -0.02020293   -0.00917207   -0.03661019
     atom    3 type  1   force =     0.01464361   -0.00213140   -0.03991366
     atom    4 type  1   force =    -0.02849591    0.08100649    0.09908781
     atom    5 type  1   force =     0.03877617    0.03036214   -0.00206836
     atom    6 type  1   force =    -0.00845295    0.00211109    0.02608133
     atom    7 type  1   force =    -0.01846058    0.00549916   -0.05456038
     atom    8 type  1   force =    -0.02659163   -0.22941036    0.00668601
     atom    9 type  1   force =     0.04844313    0.02763650    0.00301527
     atom   10 type  2   force =    -0.05975964   -0.01650046    0.00633384
     atom   11 type  2   force =     0.03370531    0.00313701   -0.00631076
     atom   12 type  2   force =     0.04273808    0.02800039   -0.00405764
     atom   13 type  2   force =     0.00144060    0.01268714   -0.04538231
     atom   14 type  2   force =    -0.04940583    0.05066883   -0.00872251
     atom   15 type  2   force =     0.00536166    0.02402000    0.03196580
     atom   16 type  2   force =    -0.00991455    0.01234728   -0.03045359
     atom   17 type  2   force =     0.00205558    0.02300307   -0.01041430
     atom   18 type  2   force =    -0.00646982    0.00484605    0.01971893
     atom   19 type  2   force =    -0.00009998    0.01014464    0.00517832
     atom   20 type  2   force =    -0.02379946   -0.02430109    0.01809132
     atom   21 type  2   force =     0.02535676    0.04428415    0.06313995
     atom   22 type  2   force =     0.00995305   -0.01962837   -0.04523836
     atom   23 type  2   force =     0.00866706    0.00458162   -0.01323510
     atom   24 type  2   force =     0.02197925    0.00555454   -0.00824373
     atom   25 type  2   force =     0.01484320    0.00414327    0.00026669
     atom   26 type  2   force =    -0.00627564   -0.00574965   -0.00683876
     atom   27 type  2   force =    -0.01215710    0.01933460    0.02267650

     Total force =     0.351193     Total SCF correction =     0.000932

     General routines

     Parallel routines

   This run was terminated on:   1:30:23  24Dec2021

   JOB DONE.