     Program PWSCF v.6.4 starts on  8Sep2021 at 11:31: 5

     R & G space division:  proc/nbgrp/npool/nimage =      40
     Waiting for input...
     Reading input from standard input
Warning: card    &IONS ignored
Warning: card      ION_DYNAMICS = 'BFGS' ignored
Warning: card   / ignored
Warning: card    &CELL ignored
Warning: card      CELL_DYNAMICS = 'BFGS', ignored
Warning: card    / ignored

     Current dimensions of program PWSCF are:
     Max number of different atomic species (ntypx) = 10
     Max number of k-points (npk) =  40000
     Max angular momentum in pseudopotentials (lmaxx) =  3

     bravais-lattice index     =            0
     lattice parameter (alat)  =      12.7458  a.u.
     unit-cell volume          =    3357.5785 (a.u.)^3
     number of atoms/cell      =           24
     number of atomic types    =            2
     number of electrons       =       144.00
     number of Kohn-Sham states=           86
     kinetic-energy cutoff     =      45.0000  Ry
     charge density cutoff     =     360.0000  Ry
     convergence threshold     =      1.0E-06
     mixing beta               =       0.7000
     number of iterations used =            8  local-TF  mixing
     Exchange-correlation      = SLA PW GGX GGC ( 1  4  2  2 0 0)

     celldm(1)=  12.745822  celldm(2)=   0.000000  celldm(3)=   0.000000
     celldm(4)=   0.000000  celldm(5)=   0.000000  celldm(6)=   0.000000

     crystal axes: (cart. coord. in units of alat)
               a(1) = (   0.998787  -0.049220   0.001677 )
               a(2) = (  -0.483235   0.854425   0.007090 )
               a(3) = (  -0.174158  -0.276320   1.951572 )

     reciprocal axes: (cart. coord. in units 2 pi/alat)
               b(1) = (  1.029546  0.580832  0.174116 )
               b(2) = (  0.058953  1.202264  0.175488 )
               b(3) = ( -0.001099 -0.004867  0.511620 )

     PseudoPot. # 1 for Mo read from file:
     ~/pseudo/Mo.pw91-n-van.UPF
     MD5 check sum: Not computed, couldn't open file
     Pseudo is Ultrasoft + core correction, Zval =  6.0
     Generated by new atomic code, or converted to UPF format
     Using radial grid of  965 points,  3 beta functions with:
                l(1) =   1
                l(2) =   2
                l(3) =   2
     Q(r) pseudized with  8 coefficients,  rinner =    1.000   1.000   1.000
                                                       1.200   1.200

     PseudoPot. # 2 for S  read from file:
     ~/pseudo/S.pw91-van_ak.UPF
     MD5 check sum: Not computed, couldn't open file
     Pseudo is Ultrasoft, Zval =  6.0
     Generated by new atomic code, or converted to UPF format
     Using radial grid of  811 points,  6 beta functions with:
                l(1) =   0
                l(2) =   0
                l(3) =   1
                l(4) =   1
                l(5) =   2
                l(6) =   2
     Q(r) pseudized with  8 coefficients,  rinner =    1.100   1.100   1.100
                                                       1.100   1.100

     atomic species   valence    mass     pseudopotential
        Mo             6.00    95.50000     Mo( 1.00)
        S              6.00    32.06500     S ( 1.00)

     No symmetry found

   Cartesian axes

     site n.     atom                  positions (alat units)
         1           Mo  tau(   1) = (   0.0791319   0.1695089   0.5533650  )
         2           Mo  tau(   2) = (  -0.2257203   0.6296461   0.4488188  )
         3           Mo  tau(   3) = (   0.5130552   0.1715041   0.4474426  )
         4           Mo  tau(   4) = (   0.3192067   0.5715161   0.5883094  )
         5           Mo  tau(   5) = (   0.0340023  -0.0961433   1.4605795  )
         6           Mo  tau(   6) = (  -0.2268874   0.3312968   1.4793128  )
         7           Mo  tau(   7) = (   0.4916058  -0.1265089   1.4309343  )
         8           Mo  tau(   8) = (   0.2605570   0.2824718   1.4345394  )
         9           S   tau(   9) = (   0.1183687  -0.1232828   0.7481320  )
        10           S   tau(  10) = (  -0.0115027   0.4793614   0.7232557  )
        11           S   tau(  11) = (   0.7569147   0.0424679   0.7127943  )
        12           S   tau(  12) = (   0.3620238   0.2560255   0.7653447  )
        13           S   tau(  13) = (  -0.2423481   0.0305022   1.6857867  )
        14           S   tau(  14) = (  -0.4913289   0.4651131   1.6916501  )
        15           S   tau(  15) = (   0.2898382   0.0242250   1.6889999  )
        16           S   tau(  16) = (   0.0417997   0.4492976   1.6824153  )
        17           S   tau(  17) = (   0.2339286   0.0784611   0.2366641  )
        18           S   tau(  18) = (   0.0998594   0.6923335   0.2998092  )
        19           S   tau(  19) = (   0.8346954   0.2522983   0.3011828  )
        20           S   tau(  20) = (   0.4766574   0.4900969   0.2785739  )
        21           S   tau(  21) = (  -0.0059140   0.1720788   1.2193632  )
        22           S   tau(  22) = (  -0.2432471   0.5971714   1.2209550  )
        23           S   tau(  23) = (   0.5293555   0.1588666   1.2125305  )
        24           S   tau(  24) = (   0.2845631   0.5847484   1.2220202  )

     number of k points=    10  Marzari-Vanderbilt smearing, width (Ry)=  0.0200
                       cart. coord. in units 2pi/alat
        k(    1) = (   0.0000000   0.0000000   0.0000000), wk =   0.1111111
        k(    2) = (   0.0005495   0.0024336  -0.2558101), wk =   0.1111111
        k(    3) = (   0.0196510   0.4007545   0.0584959), wk =   0.2222222
        k(    4) = (   0.0202005   0.4031881  -0.1973142), wk =   0.2222222
        k(    5) = (   0.3431820   0.1936108   0.0580387), wk =   0.2222222
        k(    6) = (   0.3437315   0.1960444  -0.1977714), wk =   0.2222222
        k(    7) = (   0.3628330   0.5943653   0.1165346), wk =   0.2222222
        k(    8) = (   0.3633825   0.5967990  -0.1392755), wk =   0.2222222
        k(    9) = (   0.3235310  -0.2071437  -0.0004573), wk =   0.2222222
        k(   10) = (   0.3240805  -0.2047101  -0.2562674), wk =   0.2222222

     Initial potential from superposition of free atoms

     starting charge  143.98738, renormalised to  144.00000
     Starting wfcs are  136 randomized atomic wfcs

     Self-consistent Calculation

     iteration #  1     ecut=    45.00 Ry     beta= 0.70
     Davidson diagonalization with overlap
     ethr =  1.00E-02,  avg # of iterations =  2.0

     total energy              =    -562.03479060 Ry
     Harris-Foulkes estimate   =    -564.10317642 Ry
     estimated scf accuracy    <       5.40955679 Ry

[...]

     total energy              =    -563.13110192 Ry
     Harris-Foulkes estimate   =    -563.13110225 Ry
     estimated scf accuracy    <       0.00000266 Ry

     iteration # 14     ecut=    45.00 Ry     beta= 0.70
     Davidson diagonalization with overlap
     ethr =  1.05E-09,  avg # of iterations =  1.1

     End of self-consistent calculation

          k = 0.0000 0.0000 0.0000 ( 17111 PWs)   bands (ev):

    -7.7108  -7.3066  -6.9102  -6.3828  -6.1152  -6.0908  -5.9955  -5.8953
    -5.8312  -5.7657  -5.7082  -5.6544  -5.6212  -5.4784  -5.3046  -5.1803
     0.2359   0.7194   0.7907   0.8216   0.8553   1.1128   1.3732   1.4233
     1.5045   1.5806   1.7076   2.0467   2.0963   2.2196   2.2679   2.5105
     2.5836   2.7111   2.7423   2.8166   2.9197   2.9637   3.0511   3.1011
     3.2685   3.3245   3.4047   3.5630   3.7012   3.7491   3.8058   3.8999
     4.1882   4.3593   4.4363   4.4629   4.5663   4.7719   4.8487   5.0386
     5.1576   5.2202   5.2684   5.3156   5.3948   5.4077   5.4628   5.8146
     5.8556   5.9362   6.0934   6.1300   6.1923   6.3560   6.5135   6.5290
     6.7610   6.8961   6.9285   7.2114   7.8942   7.9569   7.9891   8.0756
     8.0934   8.4986   8.5218   8.5672   8.5879   8.8044

[...]

          k = 0.3241-0.2047-0.2563 ( 17072 PWs)   bands (ev):

    -7.3611  -7.0125  -6.7829  -6.4355  -6.3556  -6.3279  -6.2533  -6.2186
    -5.9771  -5.8572  -5.7386  -5.5914  -5.4364  -5.3790  -5.3059  -5.2678
     0.7863   0.9108   1.1086   1.2254   1.2931   1.3990   1.5440   1.6209
     1.6696   1.7829   1.8321   1.9511   2.0165   2.0914   2.1741   2.1960
     2.3774   2.5503   2.7097   2.7807   2.9916   3.0681   3.1316   3.2155
     3.3421   3.3973   3.5796   3.6346   3.6700   3.7369   3.8695   3.9431
     3.9910   4.0931   4.2014   4.2552   4.3271   4.3906   4.4820   4.5383
     4.6233   4.6968   4.8618   4.8964   5.0288   5.1448   5.4946   5.5813
     5.7563   5.9216   6.0438   6.1260   6.3888   6.4396   6.5471   6.7415
     7.0331   7.3168   7.5189   7.6406   7.8836   8.0153   8.0632   8.1350
     8.2418   8.3591   8.4223   8.4849   8.5555   8.6192

     the Fermi energy is     6.7878 ev

!    total energy              =    -563.13110121 Ry
     Harris-Foulkes estimate   =    -563.13110200 Ry
     estimated scf accuracy    <       0.00000086 Ry

     The total energy is the sum of the following terms:

     one-electron contribution =     -20.96111218 Ry
     hartree contribution      =      92.84804817 Ry
     xc contribution           =    -222.14703839 Ry
     ewald contribution        =    -412.88201800 Ry
     smearing contrib. (-TS)   =       0.01101918 Ry

     convergence has been achieved in  14 iterations

     Forces acting on atoms (cartesian axes, Ry/au):

     atom    1 type  1   force =     0.01465940   -0.00396192   -0.00463756
     atom    2 type  1   force =     0.00795407    0.00525649   -0.00527324
     atom    3 type  1   force =    -0.00343551    0.00542327    0.00469458
     atom    4 type  1   force =     0.00495260   -0.01495033   -0.00228739
     atom    5 type  1   force =     0.03432412    0.00870583   -0.00738655
     atom    6 type  1   force =    -0.00091161    0.00779930   -0.01995896
     atom    7 type  1   force =    -0.03561465    0.01631304    0.01767973
     atom    8 type  1   force =     0.00269632   -0.03609276    0.00774366
     atom    9 type  2   force =    -0.02611659   -0.01322400   -0.00524670
     atom   10 type  2   force =     0.02128307    0.01083469   -0.01865284
     atom   11 type  2   force =    -0.01873927    0.00336433   -0.00585750
     atom   12 type  2   force =    -0.00286013    0.01411287   -0.03835017
     atom   13 type  2   force =     0.01727176    0.01392049   -0.02929363
     atom   14 type  2   force =     0.02314086    0.00952633   -0.02284277
     atom   15 type  2   force =    -0.02128688   -0.00920518   -0.00433153
     atom   16 type  2   force =    -0.01618073   -0.00407771   -0.01238930
     atom   17 type  2   force =    -0.00509510   -0.00157041    0.03227087
     atom   18 type  2   force =     0.00137414    0.01643751    0.02836136
     atom   19 type  2   force =     0.00176647    0.00345116    0.00593627
     atom   20 type  2   force =     0.00179512   -0.02204455   -0.00195728
     atom   21 type  2   force =     0.01939580    0.00782543    0.01671652
     atom   22 type  2   force =     0.01676901   -0.00044385    0.00634081
     atom   23 type  2   force =    -0.02052839   -0.00950536    0.02602708
     atom   24 type  2   force =    -0.01661389   -0.00789467    0.03269455

     Total force =     0.139147     Total SCF correction =     0.001967

     General routines

     Parallel routines

   This run was terminated on:  11:32: 9   8Sep2021

   JOB DONE.