     Program PWSCF v.6.4 starts on 28Nov2021 at  9:59:16

     R & G space division:  proc/nbgrp/npool/nimage =      40
     Waiting for input...
     Reading input from standard input
Warning: card    &IONS ignored
Warning: card      ION_DYNAMICS = 'BFGS' ignored
Warning: card   / ignored
Warning: card    &CELL ignored
Warning: card      CELL_DYNAMICS = 'BFGS', ignored
Warning: card    / ignored

     Current dimensions of program PWSCF are:
     Max number of different atomic species (ntypx) = 10
     Max number of k-points (npk) =  40000
     Max angular momentum in pseudopotentials (lmaxx) =  3

     bravais-lattice index     =            0
     lattice parameter (alat)  =      12.3943  a.u.
     unit-cell volume          =    3280.9450 (a.u.)^3
     number of atoms/cell      =           24
     number of atomic types    =            2
     number of electrons       =       144.00
     number of Kohn-Sham states=           86
     kinetic-energy cutoff     =      45.0000  Ry
     charge density cutoff     =     360.0000  Ry
     convergence threshold     =      1.0E-06
     mixing beta               =       0.7000
     number of iterations used =            8  local-TF  mixing
     Exchange-correlation      = SLA PW GGX GGC ( 1  4  2  2 0 0)

     celldm(1)=  12.394312  celldm(2)=   0.000000  celldm(3)=   0.000000
     celldm(4)=   0.000000  celldm(5)=   0.000000  celldm(6)=   0.000000

     crystal axes: (cart. coord. in units of alat)
               a(1) = (   0.999999   0.000181  -0.001080 )
               a(2) = (  -0.500005   0.865729   0.000752 )
               a(3) = (  -0.298899  -0.135822   1.990526 )

     reciprocal axes: (cart. coord. in units 2 pi/alat)
               b(1) = (  1.000101  0.577448  0.189577 )
               b(2) = ( -0.000124  1.154956  0.078789 )
               b(3) = (  0.000543 -0.000123  0.502453 )

     PseudoPot. # 1 for Mo read from file:
     ~/pseudo/Mo.pw91-n-van.UPF
     MD5 check sum: Not computed, couldn't open file
     Pseudo is Ultrasoft + core correction, Zval =  6.0
     Generated by new atomic code, or converted to UPF format
     Using radial grid of  965 points,  3 beta functions with:
                l(1) =   1
                l(2) =   2
                l(3) =   2
     Q(r) pseudized with  8 coefficients,  rinner =    1.000   1.000   1.000
                                                       1.200   1.200

     PseudoPot. # 2 for S  read from file:
     ~/pseudo/S.pw91-van_ak.UPF
     MD5 check sum: Not computed, couldn't open file
     Pseudo is Ultrasoft, Zval =  6.0
     Generated by new atomic code, or converted to UPF format
     Using radial grid of  811 points,  6 beta functions with:
                l(1) =   0
                l(2) =   0
                l(3) =   1
                l(4) =   1
                l(5) =   2
                l(6) =   2
     Q(r) pseudized with  8 coefficients,  rinner =    1.100   1.100   1.100
                                                       1.100   1.100

     atomic species   valence    mass     pseudopotential
        Mo             6.00    95.50000     Mo( 1.00)
        S              6.00    32.06500     S ( 1.00)

     No symmetry found

   Cartesian axes

     site n.     atom                  positions (alat units)
         1           Mo  tau(   1) = (  -0.2323206   0.2900367   1.4339338  )
         2           Mo  tau(   2) = (  -0.0140265   0.4176207   1.0589735  )
         3           Mo  tau(   3) = (  -0.0142515   0.4172463   0.5366795  )
         4           Mo  tau(   4) = (   0.2040612   0.2917798   1.4326645  )
         5           Mo  tau(   5) = (   0.7381469  -0.0170670   0.5373742  )
         6           Mo  tau(   6) = (  -0.0126203   0.6694341   1.4335839  )
         7           Mo  tau(   7) = (   0.4857267   0.4199460   0.5376156  )
         8           Mo  tau(   8) = (   0.2331886  -0.0171358   0.5379688  )
         9           S   tau(   9) = (   0.4854709   0.7058981   0.2975138  )
        10           S   tau(  10) = (  -0.5141111   0.7055043   0.7748700  )
        11           S   tau(  11) = (   0.7365103   0.2734081   0.3000123  )
        12           S   tau(  12) = (  -0.2642742   0.2725939   0.7778242  )
        13           S   tau(  13) = (   0.2559248  -0.0041673   1.6583934  )
        14           S   tau(  14) = (  -0.2917086   0.5774936   1.2137832  )
        15           S   tau(  15) = (  -0.0146326   0.7050228   0.3009175  )
        16           S   tau(  16) = (  -0.0141434   0.7061760   0.7776065  )
        17           S   tau(  17) = (  -0.5141968   0.3953097   1.6593494  )
        18           S   tau(  18) = (   0.4856521   0.1287459   1.2322003  )
        19           S   tau(  19) = (   0.2345551   0.2732805   0.3005419  )
        20           S   tau(  20) = (   0.2362306   0.2727460   0.7771554  )
        21           S   tau(  21) = (  -0.2803288  -0.0064499   1.6589591  )
        22           S   tau(  22) = (  -0.0140910   0.0961729   1.2122180  )
        23           S   tau(  23) = (  -0.0142810   0.4170092   1.7028304  )
        24           S   tau(  24) = (   0.2646183   0.5781696   1.2120783  )

     number of k points=    10  Marzari-Vanderbilt smearing, width (Ry)=  0.0200
                       cart. coord. in units 2pi/alat
        k(    1) = (   0.0000000   0.0000000   0.0000000), wk =   0.1111111
        k(    2) = (  -0.0002713   0.0000615  -0.2512264), wk =   0.1111111
        k(    3) = (  -0.0000412   0.3849854   0.0262630), wk =   0.2222222
        k(    4) = (  -0.0003125   0.3850468  -0.2249635), wk =   0.2222222
        k(    5) = (   0.3333670   0.1924826   0.0631925), wk =   0.2222222
        k(    6) = (   0.3330957   0.1925441  -0.1880339), wk =   0.2222222
        k(    7) = (   0.3333258   0.5774680   0.0894555), wk =   0.2222222
        k(    8) = (   0.3330545   0.5775295  -0.1617710), wk =   0.2222222
        k(    9) = (   0.3334082  -0.1925027   0.0369295), wk =   0.2222222
        k(   10) = (   0.3331369  -0.1924413  -0.2142969), wk =   0.2222222

     Initial potential from superposition of free atoms

     starting charge  143.98738, renormalised to  144.00000
     Starting wfcs are  136 randomized atomic wfcs

     Self-consistent Calculation

     iteration #  1     ecut=    45.00 Ry     beta= 0.70
     Davidson diagonalization with overlap
     ethr =  1.00E-02,  avg # of iterations =  2.0

     total energy              =    -562.27443838 Ry
     Harris-Foulkes estimate   =    -564.27965015 Ry
     estimated scf accuracy    <       6.42172537 Ry

[...]

     iteration #  7     ecut=    45.00 Ry     beta= 0.70
     Davidson diagonalization with overlap
     c_bands:  1 eigenvalues not converged
     ethr =  6.89E-06,  avg # of iterations = 10.6

[...]

     total energy              =    -563.28941353 Ry
     Harris-Foulkes estimate   =    -563.28941377 Ry
     estimated scf accuracy    <       0.00000131 Ry

     iteration # 13     ecut=    45.00 Ry     beta= 0.70
     Davidson diagonalization with overlap
     ethr =  9.07E-10,  avg # of iterations =  4.0

     End of self-consistent calculation

          k = 0.0000 0.0000 0.0000 ( 16703 PWs)   bands (ev):

    -8.1235  -7.0273  -6.7076  -6.6394  -6.6376  -6.4380  -6.0475  -6.0456
    -6.0426  -5.6571  -5.6558  -5.6484  -4.8219  -4.5774  -4.2554  -4.2349
    -0.0176   0.2725   0.2744   0.4025   0.8595   1.1202   1.1217   1.4475
     1.5893   1.5997   1.8194   1.8336   1.9243   2.0194   2.5968   2.6267
     2.6329   2.7791   2.8987   2.9007   3.1669   3.1712   3.2520   3.2683
     3.5489   3.6692   3.6775   3.9602   4.0709   4.0900   4.1099   4.2572
     4.2662   4.3637   4.4333   4.4443   4.6976   4.7152   4.7182   4.9243
     5.1344   5.1795   5.2310   5.3141   5.3348   5.6790   6.0185   6.0396
     6.0423   6.0526   6.3294   6.4353   6.4404   7.0384   7.0463   7.2430
     7.6290   7.6327   7.7819   7.9330   7.9421   8.2287   8.2629   8.2641
     8.2781   8.2806   8.6078   8.6109   8.9979   9.0113

          k =-0.0003 0.0001-0.2512 ( 16700 PWs)   bands (ev):

[...]

          k =-0.0003 0.3850-0.2250 ( 16732 PWs)   bands (ev):

[...]

          k = 0.3331-0.1924-0.2143 ( 16728 PWs)   bands (ev):

    -7.7968  -7.0447  -6.7884  -6.6519  -6.6118  -6.4325  -6.2756  -6.0468
    -6.0382  -5.9071  -5.6542  -5.4389  -4.9808  -4.6971  -4.3581  -4.2437
     0.3840   0.6468   0.6967   0.8133   1.1929   1.2029   1.2777   1.5650
     1.6203   1.8955   2.0813   2.0998   2.1207   2.3065   2.4666   2.6369
     2.7027   2.7716   2.8535   2.9657   2.9965   3.2344   3.2821   3.3123
     3.4118   3.4262   3.4863   3.5754   3.7413   3.7662   3.8309   4.0759
     4.0939   4.1110   4.2234   4.3600   4.3778   4.4229   4.6851   4.8921
     4.9107   5.0023   5.0502   5.3021   5.3212   5.4878   5.5471   5.6159
     5.8345   6.1505   6.1827   6.6049   6.6139   6.8864   6.9521   7.0303
     7.4829   7.6160   7.7297   7.7946   7.9405   8.0446   8.1456   8.1914
     8.2616   8.2656   8.3065   8.6408   8.7705   8.9640

     the Fermi energy is     7.2441 ev

!    total energy              =    -563.28941360 Ry
     Harris-Foulkes estimate   =    -563.28941385 Ry
     estimated scf accuracy    <       0.00000032 Ry

     The total energy is the sum of the following terms:

     one-electron contribution =     -94.17631199 Ry
     hartree contribution      =     130.34585212 Ry
     xc contribution           =    -222.62252505 Ry
     ewald contribution        =    -376.84342509 Ry
     smearing contrib. (-TS)   =       0.00699642 Ry

     convergence has been achieved in  13 iterations

     Forces acting on atoms (cartesian axes, Ry/au):

     atom    1 type  1   force =    -0.00267108   -0.00161842    0.00033590
     atom    2 type  1   force =     0.00003302   -0.00015323   -0.00429309
     atom    3 type  1   force =    -0.00024711   -0.00022530    0.00519756
     atom    4 type  1   force =     0.00279490   -0.00172093   -0.00054719
     atom    5 type  1   force =     0.00021008    0.00011043   -0.00050978
     atom    6 type  1   force =    -0.00012550    0.00298044    0.00029782
     atom    7 type  1   force =     0.00017344    0.00030056   -0.00038398
     atom    8 type  1   force =    -0.00018038   -0.00001200   -0.00048294
     atom    9 type  2   force =    -0.00020896   -0.00009670    0.00018030
     atom   10 type  2   force =     0.00014776   -0.00011406   -0.00032508
     atom   11 type  2   force =    -0.00330690   -0.00138376    0.00093438
     atom   12 type  2   force =    -0.00024296   -0.00029977   -0.00273113
     atom   13 type  2   force =     0.00135064    0.00148138    0.00087988
     atom   14 type  2   force =    -0.00112324    0.00054762    0.00411492
     atom   15 type  2   force =     0.00015457    0.00321437    0.00137026
     atom   16 type  2   force =     0.00021577    0.00037933   -0.00255283
     atom   17 type  2   force =    -0.00023464   -0.00185681    0.00076955
     atom   18 type  2   force =    -0.00005259    0.00021580   -0.00402897
     atom   19 type  2   force =     0.00304831   -0.00125921    0.00106257
     atom   20 type  2   force =     0.00043056   -0.00037524   -0.00208632
     atom   21 type  2   force =    -0.00100332    0.00041884    0.00065011
     atom   22 type  2   force =    -0.00003549   -0.00096499    0.00316177
     atom   23 type  2   force =     0.00000525    0.00024269   -0.00401268
     atom   24 type  2   force =     0.00086787    0.00018898    0.00299896

     Total force =     0.014686     Total SCF correction =     0.000943

     General routines

     Parallel routines

   This run was terminated on:  10: 0:25  28Nov2021

   JOB DONE.