     Program PWSCF v.6.4 starts on 28Nov2021 at 10:44:17

     R & G space division:  proc/nbgrp/npool/nimage =      40
     Waiting for input...
     Reading input from standard input
Warning: card    &IONS ignored
Warning: card      ION_DYNAMICS = 'BFGS' ignored
Warning: card   / ignored
Warning: card    &CELL ignored
Warning: card      CELL_DYNAMICS = 'BFGS', ignored
Warning: card    / ignored

     Current dimensions of program PWSCF are:
     Max number of different atomic species (ntypx) = 10
     Max number of k-points (npk) =  40000
     Max angular momentum in pseudopotentials (lmaxx) =  3

     bravais-lattice index     =            0
     lattice parameter (alat)  =      12.5336  a.u.
     unit-cell volume          =    3348.3375 (a.u.)^3
     number of atoms/cell      =           24
     number of atomic types    =            2
     number of electrons       =       144.00
     number of Kohn-Sham states=           86
     kinetic-energy cutoff     =      45.0000  Ry
     charge density cutoff     =     360.0000  Ry
     convergence threshold     =      1.0E-06
     mixing beta               =       0.7000
     number of iterations used =            8  local-TF  mixing
     Exchange-correlation      = SLA PW GGX GGC ( 1  4  2  2 0 0)

     celldm(1)=  12.533647  celldm(2)=   0.000000  celldm(3)=   0.000000
     celldm(4)=   0.000000  celldm(5)=   0.000000  celldm(6)=   0.000000

     crystal axes: (cart. coord. in units of alat)
               a(1) = (   1.000000  -0.000092   0.000121 )
               a(2) = (  -0.499897   0.866140  -0.000200 )
               a(3) = (  -0.057570  -0.197117   1.963529 )

     reciprocal axes: (cart. coord. in units 2 pi/alat)
               b(1) = (  1.000043  0.577200  0.087265 )
               b(2) = (  0.000093  1.154628  0.115915 )
               b(3) = ( -0.000061  0.000082  0.509294 )

     PseudoPot. # 1 for Mo read from file:
     ~/pseudo/Mo.pw91-n-van.UPF
     MD5 check sum: Not computed, couldn't open file
     Pseudo is Ultrasoft + core correction, Zval =  6.0
     Generated by new atomic code, or converted to UPF format
     Using radial grid of  965 points,  3 beta functions with:
                l(1) =   1
                l(2) =   2
                l(3) =   2
     Q(r) pseudized with  8 coefficients,  rinner =    1.000   1.000   1.000
                                                       1.200   1.200

     PseudoPot. # 2 for S  read from file:
     ~/pseudo/S.pw91-van_ak.UPF
     MD5 check sum: Not computed, couldn't open file
     Pseudo is Ultrasoft, Zval =  6.0
     Generated by new atomic code, or converted to UPF format
     Using radial grid of  811 points,  6 beta functions with:
                l(1) =   0
                l(2) =   0
                l(3) =   1
                l(4) =   1
                l(5) =   2
                l(6) =   2
     Q(r) pseudized with  8 coefficients,  rinner =    1.100   1.100   1.100
                                                       1.100   1.100

     atomic species   valence    mass     pseudopotential
        Mo             6.00    95.50000     Mo( 1.00)
        S              6.00    32.06500     S ( 1.00)

     No symmetry found

   Cartesian axes

     site n.     atom                  positions (alat units)
         1           Mo  tau(   1) = (  -0.2294942   0.5902668   0.5327206  )
         2           Mo  tau(   2) = (   0.2702310   0.5428290   0.9374712  )
         3           Mo  tau(   3) = (   0.2705680   0.5425745   1.4324493  )
         4           Mo  tau(   4) = (   0.0618602   0.0856315   0.5327483  )
         5           Mo  tau(   5) = (   0.0179686   0.1108199   1.4329160  )
         6           Mo  tau(   6) = (   0.4791066   0.0856560   0.5328421  )
         7           Mo  tau(   7) = (   0.5233089   0.1107943   1.4330561  )
         8           Mo  tau(   8) = (  -0.2293154   0.5393271   1.4327626  )
         9           S   tau(   9) = (  -0.2294380   0.2537947   1.6684686  )
        10           S   tau(  10) = (  -0.2294162   0.2536001   1.1996233  )
        11           S   tau(  11) = (   0.2705051   0.2538077   1.6645661  )
        12           S   tau(  12) = (   0.2706684   0.2517173   1.2003671  )
        13           S   tau(  13) = (   0.7704949   0.2537347   0.3545284  )
        14           S   tau(  14) = (   0.7704112  -0.0326011   0.7490914  )
        15           S   tau(  15) = (  -0.4792933   0.6867189   1.6646059  )
        16           S   tau(  16) = (  -0.4775507   0.6877252   1.2001813  )
        17           S   tau(  17) = (   0.2705737   0.2667720   0.3135603  )
        18           S   tau(  18) = (   0.0187833   0.3971761   0.7487168  )
        19           S   tau(  19) = (   0.0205450   0.6866289   1.6647143  )
        20           S   tau(  20) = (   0.0188661   0.6877579   1.2002751  )
        21           S   tau(  21) = (   0.5089431   0.6800816   0.3141194  )
        22           S   tau(  22) = (   0.5220882   0.3972129   0.7488922  )
        23           S   tau(  23) = (   0.0323865   0.6800631   0.3142420  )
        24           S   tau(  24) = (   0.2704859  -0.0348033   0.7985500  )

     number of k points=    10  Marzari-Vanderbilt smearing, width (Ry)=  0.0200
                       cart. coord. in units 2pi/alat
        k(    1) = (   0.0000000   0.0000000   0.0000000), wk =   0.1111111
        k(    2) = (   0.0000307  -0.0000410  -0.2546468), wk =   0.1111111
        k(    3) = (   0.0000309   0.3848760   0.0386383), wk =   0.2222222
        k(    4) = (   0.0000616   0.3848350  -0.2160085), wk =   0.2222222
        k(    5) = (   0.3333476   0.1924001   0.0290885), wk =   0.2222222
        k(    6) = (   0.3333783   0.1923591  -0.2255583), wk =   0.2222222
        k(    7) = (   0.3333785   0.5772760   0.0677268), wk =   0.2222222
        k(    8) = (   0.3334092   0.5772351  -0.1869200), wk =   0.2222222
        k(    9) = (   0.3333167  -0.1924759  -0.0095498), wk =   0.2222222
        k(   10) = (   0.3333474  -0.1925169  -0.2641966), wk =   0.2222222

     Initial potential from superposition of free atoms

     starting charge  143.98738, renormalised to  144.00000
     Starting wfcs are  136 randomized atomic wfcs

     Self-consistent Calculation

     iteration #  1     ecut=    45.00 Ry     beta= 0.70
     Davidson diagonalization with overlap
     ethr =  1.00E-02,  avg # of iterations =  2.0

     total energy              =    -562.33254026 Ry
     Harris-Foulkes estimate   =    -564.31706703 Ry
     estimated scf accuracy    <       5.98215780 Ry

[...]

     total energy              =    -563.29343200 Ry
     Harris-Foulkes estimate   =    -563.29343353 Ry
     estimated scf accuracy    <       0.00001160 Ry

     iteration # 12     ecut=    45.00 Ry     beta= 0.70
     Davidson diagonalization with overlap
     ethr =  8.05E-09,  avg # of iterations =  2.1

     End of self-consistent calculation

          k = 0.0000 0.0000 0.0000 ( 17115 PWs)   bands (ev):

    -8.2463  -7.0563  -6.8975  -6.8943  -6.7467  -6.5638  -6.1932  -6.1915
    -6.1640  -5.7438  -5.5246  -5.5217  -5.4864  -4.9687  -4.9676  -4.5538
    -0.1586   0.1982   0.1990   0.2513   0.9833   0.9838   1.0144   1.4122
     1.4191   1.4433   1.5554   1.5693   1.8579   2.0135   2.3689   2.3723
     2.4765   2.4782   2.5611   2.7385   2.9166   2.9241   2.9274   3.0978
     3.1078   3.5145   3.5521   3.6671   3.7773   4.0003   4.0048   4.0347
     4.2307   4.2359   4.3196   4.3361   4.3909   4.4717   4.4745   4.7257
     4.9869   5.0801   5.0877   5.2869   5.2889   5.4504   5.4540   5.4737
     5.4989   6.0809   6.0837   6.2175   6.5103   6.5196   6.6540   6.7818
     6.7837   7.4089   7.4673   7.4688   7.5365   7.8824   7.9723   7.9863
     7.9890   8.0132   8.0195   8.4015   8.4032   8.5267

[...]

          k = 0.3333-0.1925-0.2642 ( 17053 PWs)   bands (ev):

    -7.9415  -7.2438  -6.9050  -6.8633  -6.6646  -6.4737  -6.3892  -6.1867
    -6.1694  -5.8615  -5.6345  -5.5249  -5.4960  -5.1260  -4.9841  -4.6054
     0.2268   0.5550   0.6069   0.6082   1.0827   1.0960   1.2927   1.3949
     1.6032   1.7585   1.8607   1.8993   2.0395   2.1361   2.3083   2.3649
     2.3900   2.5325   2.6881   2.7432   2.7576   2.9255   3.0040   3.1190
     3.2101   3.2853   3.3227   3.3379   3.5120   3.5917   3.7195   3.7327
     3.9980   4.0549   4.1040   4.1201   4.1882   4.2220   4.3308   4.6588
     4.6852   4.7271   4.8852   5.0852   5.1003   5.1538   5.4599   5.5214
     5.6071   5.7543   5.7858   5.9375   6.1146   6.4527   6.5428   7.0283
     7.1273   7.4429   7.4826   7.5714   7.6280   7.8397   7.9641   7.9916
     8.0187   8.0444   8.1367   8.1583   8.3058   8.3716

     the Fermi energy is     7.0233 ev

!    total energy              =    -563.29343293 Ry
     Harris-Foulkes estimate   =    -563.29343311 Ry
     estimated scf accuracy    <       0.00000032 Ry

     The total energy is the sum of the following terms:

     one-electron contribution =     -93.95635167 Ry
     hartree contribution      =     129.07759841 Ry
     xc contribution           =    -222.53993429 Ry
     ewald contribution        =    -375.87430504 Ry
     smearing contrib. (-TS)   =      -0.00044034 Ry

     convergence has been achieved in  12 iterations

     Forces acting on atoms (cartesian axes, Ry/au):

     atom    1 type  1   force =    -0.00009959   -0.00006415   -0.00060751
     atom    2 type  1   force =    -0.00008405    0.00006339    0.00192328
     atom    3 type  1   force =     0.00007709   -0.00019878    0.00055700
     atom    4 type  1   force =    -0.00007129   -0.00012965   -0.00052574
     atom    5 type  1   force =    -0.00022297    0.00035699    0.00072724
     atom    6 type  1   force =    -0.00009866   -0.00014779   -0.00050235
     atom    7 type  1   force =     0.00016369    0.00024501    0.00060531
     atom    8 type  1   force =     0.00009988   -0.00011788    0.00058825
     atom    9 type  2   force =     0.00002872   -0.00003102   -0.00109315
     atom   10 type  2   force =     0.00013716    0.00002099    0.00090139
     atom   11 type  2   force =     0.00007872    0.00094633    0.00014979
     atom   12 type  2   force =     0.00002464    0.00088252    0.00090100
     atom   13 type  2   force =     0.00014026   -0.00011928   -0.00195366
     atom   14 type  2   force =    -0.00010119    0.00106507   -0.00068377
     atom   15 type  2   force =    -0.00089626   -0.00034827   -0.00009349
     atom   16 type  2   force =    -0.00072027   -0.00024279    0.00093691
     atom   17 type  2   force =    -0.00002272   -0.00079989    0.00036062
     atom   18 type  2   force =    -0.00128537   -0.00073722   -0.00061765
     atom   19 type  2   force =     0.00100833   -0.00034338   -0.00012860
     atom   20 type  2   force =     0.00083824   -0.00041110    0.00083172
     atom   21 type  2   force =     0.00090367    0.00046349   -0.00004777
     atom   22 type  2   force =     0.00104687   -0.00065043   -0.00068140
     atom   23 type  2   force =    -0.00083991    0.00039842    0.00011600
     atom   24 type  2   force =    -0.00010501   -0.00010059   -0.00166342

     Total force =     0.005630     Total SCF correction =     0.001157
     SCF correction compared to forces is large: reduce conv_thr to get better values

     General routines

     Parallel routines

   This run was terminated on:  10:45:14  28Nov2021

   JOB DONE.