     Program PWSCF v.6.4 starts on  2Sep2021 at 14: 0:32

     R & G space division:  proc/nbgrp/npool/nimage =      40
     Waiting for input...
     Reading input from standard input
Warning: card    &IONS ignored
Warning: card      ION_DYNAMICS = 'BFGS' ignored
Warning: card   / ignored
Warning: card    &CELL ignored
Warning: card      CELL_DYNAMICS = 'BFGS', ignored
Warning: card    / ignored

     Current dimensions of program PWSCF are:
     Max number of different atomic species (ntypx) = 10
     Max number of k-points (npk) =  40000
     Max angular momentum in pseudopotentials (lmaxx) =  3

     bravais-lattice index     =            0
     lattice parameter (alat)  =      12.1894  a.u.
     unit-cell volume          =    5671.1423 (a.u.)^3
     number of atoms/cell      =           36
     number of atomic types    =            2
     number of electrons       =       216.00
     number of Kohn-Sham states=          130
     kinetic-energy cutoff     =      45.0000  Ry
     charge density cutoff     =     360.0000  Ry
     convergence threshold     =      1.0E-06
     mixing beta               =       0.7000
     number of iterations used =            8  local-TF  mixing
     Exchange-correlation      = SLA PW GGX GGC ( 1  4  2  2 0 0)

     celldm(1)=  12.189441  celldm(2)=   0.000000  celldm(3)=   0.000000
     celldm(4)=   0.000000  celldm(5)=   0.000000  celldm(6)=   0.000000

     crystal axes: (cart. coord. in units of alat)
               a(1) = (   1.000000   0.000000   0.000000 )
               a(2) = (  -0.497410   0.865371   0.000000 )
               a(3) = (  -0.135847  -0.488045   3.618402 )

     reciprocal axes: (cart. coord. in units 2 pi/alat)
               b(1) = (  1.000000  0.574794  0.115071 )
               b(2) = (  0.000000  1.155574  0.155862 )
               b(3) = (  0.000000  0.000000  0.276365 )

     PseudoPot. # 1 for Mo read from file:
     ~/pseudo/Mo.pw91-n-van.UPF
     MD5 check sum: Not computed, couldn't open file
     Pseudo is Ultrasoft + core correction, Zval =  6.0
     Generated by new atomic code, or converted to UPF format
     Using radial grid of  965 points,  3 beta functions with:
                l(1) =   1
                l(2) =   2
                l(3) =   2
     Q(r) pseudized with  8 coefficients,  rinner =    1.000   1.000   1.000
                                                       1.200   1.200

     PseudoPot. # 2 for S  read from file:
     ~/pseudo/S.pw91-van_ak.UPF
     MD5 check sum: Not computed, couldn't open file
     Pseudo is Ultrasoft, Zval =  6.0
     Generated by new atomic code, or converted to UPF format
     Using radial grid of  811 points,  6 beta functions with:
                l(1) =   0
                l(2) =   0
                l(3) =   1
                l(4) =   1
                l(5) =   2
                l(6) =   2
     Q(r) pseudized with  8 coefficients,  rinner =    1.100   1.100   1.100
                                                       1.100   1.100

     atomic species   valence    mass     pseudopotential
        Mo             6.00    95.50000     Mo( 1.00)
        S              6.00    32.06500     S ( 1.00)

     No symmetry found

   Cartesian axes

     site n.     atom                  positions (alat units)
         1           Mo  tau(   1) = (  -0.1414761   0.4024973   1.3519998  )
         2           Mo  tau(   2) = (   0.3337640   0.3985129   1.3495306  )
         3           Mo  tau(   3) = (   0.6064679  -0.0397150   1.3439534  )
         4           Mo  tau(   4) = (   0.0958128  -0.0423115   1.3413668  )
         5           Mo  tau(   5) = (   0.5598735  -0.0942108   2.4362180  )
         6           Mo  tau(   6) = (   0.0825510  -0.0912471   2.4378421  )
         7           Mo  tau(   7) = (  -0.1835775   0.3406246   2.4175059  )
         8           Mo  tau(   8) = (   0.3281950   0.3136170   2.4289224  )
         9           Mo  tau(   9) = (   0.5459891   0.0272935   3.4562290  )
        10           Mo  tau(  10) = (   0.0611401   0.0346733   3.4560547  )
        11           Mo  tau(  11) = (  -0.1848500   0.4730861   3.4544432  )
        12           Mo  tau(  12) = (   0.3155805   0.4385547   3.4629952  )
        13           S   tau(  13) = (   0.4416537   0.6535654   0.0993944  )
        14           S   tau(  14) = (  -0.0610677   0.6633686   0.0740071  )
        15           S   tau(  15) = (   0.1923702   0.2324719   0.0803664  )
        16           S   tau(  16) = (   0.7021556   0.2271734   0.0790376  )
        17           S   tau(  17) = (  -0.1510498   0.1138296   1.1038306  )
        18           S   tau(  18) = (   0.3478686   0.1036621   1.1079419  )
        19           S   tau(  19) = (   0.0998513   0.5458072   1.0911094  )
        20           S   tau(  20) = (  -0.4096348   0.5232884   1.1097101  )
        21           S   tau(  21) = (  -0.1455595   0.1056524   1.5924095  )
        22           S   tau(  22) = (   0.3515141   0.1046740   1.5853726  )
        23           S   tau(  23) = (   0.1001813   0.5470431   1.6028530  )
        24           S   tau(  24) = (  -0.4052826   0.5376558   1.5892699  )
        25           S   tau(  25) = (  -0.1821205   0.0318032   2.1953727  )
        26           S   tau(  26) = (   0.3215127   0.0445891   2.1765302  )
        27           S   tau(  27) = (   0.0789209   0.4847529   2.1903347  )
        28           S   tau(  28) = (  -0.4362715   0.4911789   2.1848128  )
        29           S   tau(  29) = (  -0.1837383   0.0638042   2.6704683  )
        30           S   tau(  30) = (   0.3228244   0.0304879   2.7038368  )
        31           S   tau(  31) = (   0.5756691  -0.3936480   2.6613288  )
        32           S   tau(  32) = (   0.0626515  -0.3853477   2.6700584  )
        33           S   tau(  33) = (   0.3048049   0.1564253   3.1936979  )
        34           S   tau(  34) = (  -0.2013373   0.1780322   3.2179459  )
        35           S   tau(  35) = (   0.0482141  -0.2601615   3.2205964  )
        36           S   tau(  36) = (   0.5784379  -0.2663508   3.2153258  )

     number of k points=     5  Marzari-Vanderbilt smearing, width (Ry)=  0.0200
                       cart. coord. in units 2pi/alat
        k(    1) = (   0.0000000   0.0000000   0.0000000), wk =   0.2222222
        k(    2) = (   0.0000000   0.3851912   0.0519541), wk =   0.4444444
        k(    3) = (   0.3333333   0.1915981   0.0383570), wk =   0.4444444
        k(    4) = (   0.3333333   0.5767893   0.0903111), wk =   0.4444444
        k(    5) = (   0.3333333  -0.1935931  -0.0135971), wk =   0.4444444

     Initial potential from superposition of free atoms

     starting charge  215.98107, renormalised to  216.00000
     Starting wfcs are  204 randomized atomic wfcs

     Self-consistent Calculation

     iteration #  1     ecut=    45.00 Ry     beta= 0.70
     Davidson diagonalization with overlap
     ethr =  1.00E-02,  avg # of iterations =  2.0

     total energy              =    -844.10586644 Ry
     Harris-Foulkes estimate   =    -846.75438445 Ry
     estimated scf accuracy    <       6.79267908 Ry

[...]

     total energy              =    -845.42656147 Ry
     Harris-Foulkes estimate   =    -845.42656173 Ry
     estimated scf accuracy    <       0.00000174 Ry

     iteration # 16     ecut=    45.00 Ry     beta= 0.70
     Davidson diagonalization with overlap
     ethr =  8.06E-10,  avg # of iterations =  1.0

     End of self-consistent calculation

          k = 0.0000 0.0000 0.0000 ( 28805 PWs)   bands (ev):

    -9.1817  -9.0993  -9.0368  -8.0070  -7.8858  -7.8387  -7.5279  -7.4929
    -7.4558  -7.4341  -7.3958  -7.3627  -7.3409  -7.3168  -7.2582  -7.2430
    -7.1370  -7.1262  -7.0970  -7.0721  -7.0465  -7.0068  -7.0008  -6.9716
    -0.8987  -0.8094  -0.7771  -0.7563  -0.7381  -0.7070  -0.6836  -0.6587
    -0.6489  -0.6276  -0.5348  -0.4177   0.0874   0.1014   0.1402   0.1733
     0.2442   0.2487   0.2706   0.2861   0.3233   0.6849   0.7380   0.8505
     0.8607   0.8980   0.9357   0.9628   1.0413   1.1151   1.7129   1.7549
     1.7753   1.8012   1.8194   1.8232   1.8492   1.8564   1.8870   2.1968
     2.2298   2.2720   2.2921   2.3145   2.3316   2.3678   2.7473   2.8176
     2.8529   2.9577   3.0043   3.1407   3.1950   3.2507   3.2832   3.3090
     3.3822   3.4464   3.4664   3.4919   3.5143   3.5637   3.6115   3.6509
     3.7231   3.7807   3.8375   3.9080   3.9369   3.9593   3.9902   4.0061
     4.0268   4.1742   4.2192   4.2388   4.3348   4.3450   4.3745   4.4137
     4.4640   4.6726   4.9833   5.1415   6.6389   6.6739   6.7043   6.7447
     6.8228   6.8483   7.0695   7.0791   7.0912   7.1836   7.2383   7.2856
     7.2994   7.3322   7.3697   7.3872   7.4182   7.4383   7.4490   7.5205
     7.5261   7.5754

[...]

          k = 0.3333-0.1936-0.0136 ( 28902 PWs)   bands (ev):

    -8.8239  -8.7413  -8.6762  -7.9962  -7.9176  -7.8373  -7.8249  -7.7194
    -7.6691  -7.5479  -7.4761  -7.4498  -7.4027  -7.3926  -7.3502  -7.3032
    -7.2784  -7.2550  -7.1870  -7.1168  -7.0987  -7.0414  -6.9797  -6.9307
    -0.4297  -0.3826  -0.3670  -0.3271  -0.2863  -0.2721  -0.2423  -0.1837
    -0.1567  -0.1355  -0.0901  -0.0260   0.0873   0.1211   0.1513   0.1834
     0.1953   0.2359   0.6260   0.7876   0.8011   0.8885   0.9552   0.9989
     1.0171   1.0754   1.1333   1.1810   1.2074   1.2608   1.5050   1.5915
     1.6113   1.6237   1.6522   1.7002   1.7396   1.7942   1.8831   2.0036
     2.0830   2.1071   2.1373   2.2296   2.2911   2.3812   2.4484   2.4876
     2.5438   2.6102   2.6585   2.6876   2.7261   2.7403   2.8124   2.8317
     2.8725   2.9385   3.0422   3.1137   3.1646   3.2600   3.3761   3.4170
     3.4466   3.4786   3.5163   3.5670   3.5866   3.6635   3.8387   3.8980
     3.9524   3.9865   4.0136   4.0921   4.1598   4.1851   4.4402   4.6059
     4.6430   4.6800   4.7258   4.7896   6.3123   6.4858   6.5512   6.6292
     6.6907   6.7749   6.8064   6.9615   7.0125   7.0184   7.0876   7.1016
     7.1265   7.1937   7.2221   7.2692   7.3024   7.3091   7.3728   7.4139
     7.4310   7.4563

     the Fermi energy is     5.1120 ev

!    total energy              =    -845.42656102 Ry
     Harris-Foulkes estimate   =    -845.42656155 Ry
     estimated scf accuracy    <       0.00000061 Ry

     The total energy is the sum of the following terms:

     one-electron contribution =    -805.21607024 Ry
     hartree contribution      =     514.48338362 Ry
     xc contribution           =    -334.04840367 Ry
     ewald contribution        =    -220.66278804 Ry
     smearing contrib. (-TS)   =       0.01731730 Ry

     convergence has been achieved in  16 iterations

     Forces acting on atoms (cartesian axes, Ry/au):

     atom    1 type  1   force =    -0.03988611   -0.02585891   -0.01060239
     atom    2 type  1   force =     0.04936073   -0.02639157    0.00069744
     atom    3 type  1   force =    -0.02794029    0.02035280    0.01789435
     atom    4 type  1   force =     0.00753512    0.00482846    0.02462050
     atom    5 type  1   force =     0.04449211   -0.02008679    0.00007938
     atom    6 type  1   force =    -0.06193806   -0.01562226   -0.00604310
     atom    7 type  1   force =     0.01452409   -0.01350525    0.02760524
     atom    8 type  1   force =    -0.02245545    0.07355773    0.01415138
     atom    9 type  1   force =     0.04994313   -0.00650508   -0.00322942
     atom   10 type  1   force =    -0.03420100   -0.02143983    0.00077527
     atom   11 type  1   force =    -0.01916334   -0.04401099    0.00602639
     atom   12 type  1   force =    -0.00960862    0.06066182   -0.02188499
     atom   13 type  2   force =     0.00039221   -0.01055862   -0.02132083
     atom   14 type  2   force =     0.00143860    0.01271460    0.00971802
     atom   15 type  2   force =     0.00905255   -0.00791543    0.00618700
     atom   16 type  2   force =    -0.00594758   -0.00611484    0.01478823
     atom   17 type  2   force =     0.01237017   -0.00083763   -0.00793705
     atom   18 type  2   force =    -0.00078145    0.00572128   -0.01601835
     atom   19 type  2   force =    -0.00619367   -0.00712941    0.02131220
     atom   20 type  2   force =     0.01638887    0.02547194   -0.01423826
     atom   21 type  2   force =     0.00154932    0.00744099   -0.00997927
     atom   22 type  2   force =    -0.01104695   -0.00513631    0.00125652
     atom   23 type  2   force =    -0.00309078    0.00095743   -0.01448017
     atom   24 type  2   force =     0.00230477    0.00170315    0.00038549
     atom   25 type  2   force =     0.00670498    0.03387527   -0.01558306
     atom   26 type  2   force =     0.00126168   -0.01648338    0.01196167
     atom   27 type  2   force =    -0.00489907   -0.01846502   -0.01126281
     atom   28 type  2   force =     0.00957970   -0.01799323   -0.00023011
     atom   29 type  2   force =     0.00818549   -0.02074673   -0.00194235
     atom   30 type  2   force =     0.00078050    0.02423843   -0.04927639
     atom   31 type  2   force =    -0.01742702   -0.00511248    0.01705601
     atom   32 type  2   force =     0.02105838   -0.01122796    0.00166340
     atom   33 type  2   force =     0.00222152    0.02146311    0.04568792
     atom   34 type  2   force =     0.01287748    0.00430546   -0.00418105
     atom   35 type  2   force =     0.02079530    0.00022817   -0.01305878
     atom   36 type  2   force =    -0.02823728    0.00362110   -0.00059803

     Total force =     0.218836     Total SCF correction =     0.001773

     General routines

     Parallel routines

   This run was terminated on:  14: 2:21   2Sep2021

   JOB DONE.