     Program PWSCF v.6.4 starts on 17Nov2021 at 10:50:13

     R & G space division:  proc/nbgrp/npool/nimage =      40
     Waiting for input...
     Reading input from standard input
Warning: card    &IONS ignored
Warning: card      ION_DYNAMICS = 'BFGS' ignored
Warning: card   / ignored
Warning: card    &CELL ignored
Warning: card      CELL_DYNAMICS = 'BFGS', ignored
Warning: card    / ignored

     Current dimensions of program PWSCF are:
     Max number of different atomic species (ntypx) = 10
     Max number of k-points (npk) =  40000
     Max angular momentum in pseudopotentials (lmaxx) =  3

     bravais-lattice index     =            0
     lattice parameter (alat)  =      11.5809  a.u.
     unit-cell volume          =    3691.5607 (a.u.)^3
     number of atoms/cell      =           18
     number of atomic types    =            2
     number of electrons       =       108.00
     number of Kohn-Sham states=           65
     kinetic-energy cutoff     =      45.0000  Ry
     charge density cutoff     =     360.0000  Ry
     convergence threshold     =      1.0E-06
     mixing beta               =       0.7000
     number of iterations used =            8  local-TF  mixing
     Exchange-correlation      = SLA PW GGX GGC ( 1  4  2  2 0 0)

     celldm(1)=  11.580933  celldm(2)=   0.000000  celldm(3)=   0.000000
     celldm(4)=   0.000000  celldm(5)=   0.000000  celldm(6)=   0.000000

     crystal axes: (cart. coord. in units of alat)
               a(1) = (   1.000000   0.000000   0.000000 )
               a(2) = (  -0.504574   0.906835   0.000000 )
               a(3) = (   0.007222  -0.198581   2.620905 )

     reciprocal axes: (cart. coord. in units 2 pi/alat)
               b(1) = (  1.000000  0.556413  0.039403 )
               b(2) = (  0.000000  1.102737  0.083552 )
               b(3) = (  0.000000  0.000000  0.381548 )

     PseudoPot. # 1 for Mo read from file:
     ~/pseudo/Mo.pw91-n-van.UPF
     MD5 check sum: Not computed, couldn't open file
     Pseudo is Ultrasoft + core correction, Zval =  6.0
     Generated by new atomic code, or converted to UPF format
     Using radial grid of  965 points,  3 beta functions with:
                l(1) =   1
                l(2) =   2
                l(3) =   2
     Q(r) pseudized with  8 coefficients,  rinner =    1.000   1.000   1.000
                                                       1.200   1.200

     PseudoPot. # 2 for S  read from file:
     ~/pseudo/S.pw91-van_ak.UPF
     MD5 check sum: Not computed, couldn't open file
     Pseudo is Ultrasoft, Zval =  6.0
     Generated by new atomic code, or converted to UPF format
     Using radial grid of  811 points,  6 beta functions with:
                l(1) =   0
                l(2) =   0
                l(3) =   1
                l(4) =   1
                l(5) =   2
                l(6) =   2
     Q(r) pseudized with  8 coefficients,  rinner =    1.100   1.100   1.100
                                                       1.100   1.100

     atomic species   valence    mass     pseudopotential
        Mo             6.00    95.50000     Mo( 1.00)
        S              6.00    32.06500     S ( 1.00)

     No symmetry found

   Cartesian axes

     site n.     atom                  positions (alat units)
         1           Mo  tau(   1) = (   0.5767266   0.3389888   1.7417307  )
         2           Mo  tau(   2) = (   0.8295006  -0.1150683   1.7399674  )
         3           Mo  tau(   3) = (   0.0765388   0.3385073   1.7411050  )
         4           Mo  tau(   4) = (   0.3299822  -0.1143604   1.7390010  )
         5           Mo  tau(   5) = (   0.2542424   0.3142807   0.5288450  )
         6           Mo  tau(   6) = (  -0.1695412   0.2988272   0.4034533  )
         7           S   tau(   7) = (  -0.1729840   0.1843686   2.0042842  )
         8           S   tau(   8) = (  -0.4237908   0.6399379   2.0029761  )
         9           S   tau(   9) = (   0.3267005   0.1844775   2.0036810  )
        10           S   tau(  10) = (   0.0750177   0.6388715   2.0025931  )
        11           S   tau(  11) = (  -0.1108419   0.4020114   0.7385706  )
        12           S   tau(  12) = (   0.3315749   0.6165149   0.6929021  )
        13           S   tau(  13) = (   0.8266611   0.1854183   1.4785249  )
        14           S   tau(  14) = (   0.5755743   0.6379170   1.4771618  )
        15           S   tau(  15) = (   0.3273128   0.1866163   1.4777733  )
        16           S   tau(  16) = (   0.0758863   0.6374662   1.4765441  )
        17           S   tau(  17) = (   0.0920050   0.4947604   0.2241176  )
        18           S   tau(  18) = (   0.5286541   0.4554690   0.2616716  )

     number of k points=     5  Marzari-Vanderbilt smearing, width (Ry)=  0.0200
                       cart. coord. in units 2pi/alat
        k(    1) = (   0.0000000   0.0000000   0.0000000), wk =   0.2222222
        k(    2) = (   0.0000000   0.3675790   0.0278507), wk =   0.4444444
        k(    3) = (   0.3333333   0.1854709   0.0131343), wk =   0.4444444
        k(    4) = (   0.3333333   0.5530499   0.0409850), wk =   0.4444444
        k(    5) = (   0.3333333  -0.1821080  -0.0147164), wk =   0.4444444

     Initial potential from superposition of free atoms

     starting charge  107.99054, renormalised to  108.00000
     Starting wfcs are  102 randomized atomic wfcs

     Self-consistent Calculation

     iteration #  1     ecut=    45.00 Ry     beta= 0.70
     Davidson diagonalization with overlap
     ethr =  1.00E-02,  avg # of iterations =  2.0

     total energy              =    -421.45386418 Ry
     Harris-Foulkes estimate   =    -422.85965837 Ry
     estimated scf accuracy    <       3.74029758 Ry

[...]

     total energy              =    -422.15485303 Ry
     Harris-Foulkes estimate   =    -422.15485479 Ry
     estimated scf accuracy    <       0.00000700 Ry

     iteration # 16     ecut=    45.00 Ry     beta= 0.70
     Davidson diagonalization with overlap
     ethr =  6.48E-09,  avg # of iterations =  5.6

     End of self-consistent calculation

          k = 0.0000 0.0000 0.0000 ( 18835 PWs)   bands (ev):

   -11.7673 -10.6297 -10.2107  -9.8911  -9.7740  -9.7159  -9.6968  -9.5708
    -9.5452  -9.5037  -8.8654  -8.7139  -3.4595  -3.4041  -3.3922  -3.2258
    -2.5529  -2.5450  -2.4712  -1.9135  -1.6915  -1.6483  -1.6458  -1.3738
    -1.1545  -0.8288  -0.7862  -0.7234  -0.6018  -0.2880  -0.2308  -0.2133
    -0.1044   0.2396   0.3180   0.4209   0.4405   0.4453   0.4619   0.7933
     1.0297   1.1891   1.3647   1.3740   1.5471   1.5540   1.6116   1.7945
     1.8256   1.9190   2.0562   2.0927   2.6002   3.1009   3.6440   3.9880
     4.0565   4.2833   4.6879   4.7161   4.7577   4.7976   5.1585   5.1947
     5.2181

[...]

          k = 0.3333-0.1821-0.0147 ( 18798 PWs)   bands (ev):

   -11.3504 -10.4086 -10.3547 -10.0697  -9.8908  -9.8748  -9.7799  -9.7048
    -9.5891  -9.4788  -9.0535  -8.7567  -2.9210  -2.8595  -2.7671  -2.7656
    -2.4992  -2.4429  -1.8095  -1.7350  -1.4450  -1.4090  -1.3636  -1.2307
    -1.0874  -0.8686  -0.8477  -0.7067  -0.6852  -0.5108  -0.4500  -0.3717
    -0.2598  -0.1768   0.0005   0.2032   0.2210   0.4099   0.5098   0.5338
     0.5539   0.6800   0.7114   1.1961   1.2571   1.3502   1.3924   1.4811
     1.9088   1.9397   2.0359   2.1017   2.7493   3.1795   3.5079   3.6659
     4.0092   4.2100   4.5401   4.6147   4.6236   4.6562   4.7077   4.7374
     4.9697

     the Fermi energy is     3.3457 ev

!    total energy              =    -422.15485316 Ry
     Harris-Foulkes estimate   =    -422.15485389 Ry
     estimated scf accuracy    <       0.00000097 Ry

     The total energy is the sum of the following terms:

     one-electron contribution =    -499.37063218 Ry
     hartree contribution      =     296.57351203 Ry
     xc contribution           =    -166.86226862 Ry
     ewald contribution        =     -52.49116737 Ry
     smearing contrib. (-TS)   =      -0.00429702 Ry

     convergence has been achieved in  16 iterations

     Forces acting on atoms (cartesian axes, Ry/au):

     atom    1 type  1   force =     0.00061663    0.00012994   -0.00187833
     atom    2 type  1   force =     0.00011747    0.00183823    0.00051589
     atom    3 type  1   force =     0.00029148    0.00053735   -0.00102679
     atom    4 type  1   force =    -0.00138647    0.00022687    0.00197532
     atom    5 type  1   force =     0.03692676    0.04520958   -0.03535953
     atom    6 type  1   force =    -0.02598142   -0.02367724   -0.00386653
     atom    7 type  2   force =     0.00024131    0.00033739   -0.00281896
     atom    8 type  2   force =    -0.00072897   -0.00200323   -0.00137867
     atom    9 type  2   force =     0.00113175    0.00068124   -0.00186347
     atom   10 type  2   force =     0.00062756   -0.00072707   -0.00060086
     atom   11 type  2   force =    -0.00324546   -0.01492195    0.01654928
     atom   12 type  2   force =     0.00291811    0.02890593    0.03465369
     atom   13 type  2   force =     0.00035384   -0.00057860    0.00048944
     atom   14 type  2   force =    -0.00027204    0.00030431    0.00204828
     atom   15 type  2   force =     0.00015048   -0.00177459    0.00130145
     atom   16 type  2   force =    -0.00068854    0.00080091    0.00303787
     atom   17 type  2   force =    -0.02789552   -0.01477566    0.00165554
     atom   18 type  2   force =     0.01682304   -0.02051342   -0.01343364

     Total force =     0.101981     Total SCF correction =     0.002058

     General routines

     Parallel routines

   This run was terminated on:  10:50:47  17Nov2021

   JOB DONE.