     Program PWSCF v.6.4 starts on  2Sep2021 at 11: 5: 5

     R & G space division:  proc/nbgrp/npool/nimage =      40
     Waiting for input...
     Reading input from standard input
Warning: card    &IONS ignored
Warning: card      ION_DYNAMICS = 'BFGS' ignored
Warning: card   / ignored
Warning: card    &CELL ignored
Warning: card      CELL_DYNAMICS = 'BFGS', ignored
Warning: card    / ignored

     Current dimensions of program PWSCF are:
     Max number of different atomic species (ntypx) = 10
     Max number of k-points (npk) =  40000
     Max angular momentum in pseudopotentials (lmaxx) =  3

     bravais-lattice index     =            0
     lattice parameter (alat)  =      12.2087  a.u.
     unit-cell volume          =    4705.9263 (a.u.)^3
     number of atoms/cell      =           24
     number of atomic types    =            2
     number of electrons       =       144.00
     number of Kohn-Sham states=           86
     kinetic-energy cutoff     =      45.0000  Ry
     charge density cutoff     =     360.0000  Ry
     convergence threshold     =      1.0E-06
     mixing beta               =       0.7000
     number of iterations used =            8  local-TF  mixing
     Exchange-correlation      = SLA PW GGX GGC ( 1  4  2  2 0 0)

     celldm(1)=  12.208706  celldm(2)=   0.000000  celldm(3)=   0.000000
     celldm(4)=   0.000000  celldm(5)=   0.000000  celldm(6)=   0.000000

     crystal axes: (cart. coord. in units of alat)
               a(1) = (   1.000000   0.000000   0.000000 )
               a(2) = (   0.505641   0.865154   0.000000 )
               a(3) = (   0.139510   0.292538   2.989116 )

     reciprocal axes: (cart. coord. in units 2 pi/alat)
               b(1) = (  1.000000 -0.584453  0.010526 )
               b(2) = (  0.000000  1.155863 -0.113122 )
               b(3) = (  0.000000  0.000000  0.334547 )

     PseudoPot. # 1 for Mo read from file:
     ~/pseudo/Mo.pw91-n-van.UPF
     MD5 check sum: Not computed, couldn't open file
     Pseudo is Ultrasoft + core correction, Zval =  6.0
     Generated by new atomic code, or converted to UPF format
     Using radial grid of  965 points,  3 beta functions with:
                l(1) =   1
                l(2) =   2
                l(3) =   2
     Q(r) pseudized with  8 coefficients,  rinner =    1.000   1.000   1.000
                                                       1.200   1.200

     PseudoPot. # 2 for S  read from file:
     ~/pseudo/S.pw91-van_ak.UPF
     MD5 check sum: Not computed, couldn't open file
     Pseudo is Ultrasoft, Zval =  6.0
     Generated by new atomic code, or converted to UPF format
     Using radial grid of  811 points,  6 beta functions with:
                l(1) =   0
                l(2) =   0
                l(3) =   1
                l(4) =   1
                l(5) =   2
                l(6) =   2
     Q(r) pseudized with  8 coefficients,  rinner =    1.100   1.100   1.100
                                                       1.100   1.100

     atomic species   valence    mass     pseudopotential
        Mo             6.00    95.50000     Mo( 1.00)
        S              6.00    32.06500     S ( 1.00)

     No symmetry found

   Cartesian axes

     site n.     atom                  positions (alat units)
         1           Mo  tau(   1) = (   0.8492104   0.7490809   0.6810203  )
         2           Mo  tau(   2) = (   1.0967845   0.3188538   0.6947039  )
         3           Mo  tau(   3) = (   0.5978970   0.3073527   0.6708366  )
         4           Mo  tau(   4) = (   1.3500972   0.7430742   0.6661214  )
         5           Mo  tau(   5) = (   0.7922007   0.4146711   2.3028581  )
         6           Mo  tau(   6) = (   0.5485456   0.8454073   2.3096482  )
         7           Mo  tau(   7) = (   1.0461467   0.8382675   2.3336953  )
         8           Mo  tau(   8) = (   0.2951117   0.4084957   2.3327280  )
         9           S   tau(   9) = (   1.0944055   0.8843899   0.4253814  )
        10           S   tau(  10) = (   0.3391836   0.4468557   0.4332971  )
        11           S   tau(  11) = (   0.8539784   0.4585168   0.4396997  )
        12           S   tau(  12) = (   0.6026463   0.9026361   0.4381188  )
        13           S   tau(  13) = (   1.0302526   0.2649077   2.5581724  )
        14           S   tau(  14) = (   0.7847165   0.6906442   2.5618980  )
        15           S   tau(  15) = (   1.3066446   0.7019968   2.5680806  )
        16           S   tau(  16) = (   0.5563258   0.2685085   2.5651938  )
        17           S   tau(  17) = (   1.0533240   0.2735078   2.0720625  )
        18           S   tau(  18) = (   0.8061247   0.7098930   2.0690681  )
        19           S   tau(  19) = (   1.2896078   0.6933569   2.0825797  )
        20           S   tau(  20) = (   0.5330916   0.2582515   2.0808550  )
        21           S   tau(  21) = (   1.1083726   0.8867121   0.9185940  )
        22           S   tau(  22) = (   0.3599416   0.4631506   0.9214970  )
        23           S   tau(  23) = (   0.8358703   0.4599720   0.9250887  )
        24           S   tau(  24) = (   0.5938423   0.8844928   0.9219584  )

     number of k points=     5  Marzari-Vanderbilt smearing, width (Ry)=  0.0200
                       cart. coord. in units 2pi/alat
        k(    1) = (   0.0000000   0.0000000   0.0000000), wk =   0.2222222
        k(    2) = (   0.0000000   0.3852878  -0.0377072), wk =   0.4444444
        k(    3) = (   0.3333333  -0.1948175   0.0035088), wk =   0.4444444
        k(    4) = (   0.3333333   0.1904703  -0.0341984), wk =   0.4444444
        k(    5) = (   0.3333333  -0.5801053   0.0412160), wk =   0.4444444

     Initial potential from superposition of free atoms

     starting charge  143.98738, renormalised to  144.00000
     Starting wfcs are  136 randomized atomic wfcs

     Self-consistent Calculation

     iteration #  1     ecut=    45.00 Ry     beta= 0.70
     Davidson diagonalization with overlap
     ethr =  1.00E-02,  avg # of iterations =  2.0

     total energy              =    -562.76990170 Ry
     Harris-Foulkes estimate   =    -564.54966121 Ry
     estimated scf accuracy    <       4.55378392 Ry

[...]

     negative rho (up, down):  2.221E-08 0.000E+00

[...]

     total energy              =    -563.65886470 Ry
     Harris-Foulkes estimate   =    -563.65886510 Ry
     estimated scf accuracy    <       0.00000190 Ry

     iteration # 14     ecut=    45.00 Ry     beta= 0.70
     Davidson diagonalization with overlap
     ethr =  1.32E-09,  avg # of iterations =  3.0

[...]

     End of self-consistent calculation

          k = 0.0000 0.0000 0.0000 ( 23937 PWs)   bands (ev):

   -11.2443 -11.2246 -10.0662 -10.0426  -9.5336  -9.5213  -9.5207  -9.5093
    -9.4994  -9.4899  -9.2493  -9.2388  -9.2227  -9.2190  -9.2096  -9.1974
    -2.8563  -2.8453  -2.8432  -2.8359  -2.8337  -2.8261  -2.7174  -2.6972
    -1.9623  -1.9451  -1.9306  -1.9198  -1.8651  -1.8609  -1.2350  -1.2166
    -1.2060  -1.1916  -1.1724  -1.1709  -0.3980  -0.3866  -0.3719  -0.3633
    -0.3167  -0.2961   0.1163   0.1282   0.1938   0.1967   0.8511   0.8707
     0.9314   0.9475   0.9695   0.9892   1.0216   1.0874   1.2338   1.2388
     1.2682   1.2935   1.7179   1.7318   1.7802   1.7909   1.8026   1.8081
     2.0910   2.1022   2.1367   2.1427   2.1606   2.1629   2.7162   2.7730
     4.6584   4.6765   4.6872   4.6964   4.7296   4.7517   5.1683   5.1878
     5.1952   5.2043   5.2177   5.2262   5.4361   5.4455

[...]

          k = 0.3333-0.5801 0.0412 ( 24039 PWs)   bands (ev):

   -10.3159 -10.2999 -10.2938 -10.2844 -10.2670 -10.2356  -9.5886  -9.5628
    -9.5487  -9.5423  -9.5262  -9.5216  -9.2738  -9.2641  -9.0626  -9.0542
    -2.4690  -2.4566  -2.0539  -2.0449  -2.0421  -2.0327  -2.0232  -2.0152
    -1.7267  -1.7054  -1.2499  -1.2310  -1.1348  -1.1102  -1.1038  -1.0547
    -1.0067  -1.0010  -0.8834  -0.8559  -0.7670  -0.7600  -0.7421  -0.7334
    -0.6873  -0.6663  -0.3250  -0.3200  -0.3011  -0.2826  -0.2548  -0.2410
    -0.1049  -0.0738   0.6388   0.6449   0.7672   0.7805   0.8204   0.8349
     0.8527   0.8612   1.6526   1.6655   1.6819   1.6935   1.7022   1.7062
     1.9786   1.9804   1.9908   2.0122   2.0164   2.0223   2.7222   2.7308
     4.2560   4.2697   4.5378   4.5602   4.5773   4.5810   4.6047   4.6191
     4.9847   5.0021   5.0379   5.0457   5.0562   5.0691

     the Fermi energy is     2.8424 ev

!    total energy              =    -563.65886506 Ry
     Harris-Foulkes estimate   =    -563.65886512 Ry
     estimated scf accuracy    <       0.00000028 Ry

     The total energy is the sum of the following terms:

     one-electron contribution =    -728.31631475 Ry
     hartree contribution      =     427.44269294 Ry
     xc contribution           =    -222.63967555 Ry
     ewald contribution        =     -40.16070673 Ry
     smearing contrib. (-TS)   =       0.01513903 Ry

     convergence has been achieved in  14 iterations

     negative rho (up, down):  4.307E-07 0.000E+00

     Forces acting on atoms (cartesian axes, Ry/au):

     atom    1 type  1   force =    -0.00230877   -0.00998700   -0.00926604
     atom    2 type  1   force =    -0.00391579   -0.01832546   -0.03743129
     atom    3 type  1   force =    -0.00389813    0.01471709    0.01553839
     atom    4 type  1   force =     0.00008233    0.00603861    0.02291007
     atom    5 type  1   force =     0.00505736   -0.01469015    0.03727057
     atom    6 type  1   force =    -0.00882014   -0.00566397    0.02354259
     atom    7 type  1   force =     0.00551534    0.01432749   -0.03119412
     atom    8 type  1   force =    -0.00275421    0.00505776   -0.02708410
     atom    9 type  2   force =     0.00930718    0.00329298    0.00654832
     atom   10 type  2   force =     0.01270553    0.01051042    0.00136118
     atom   11 type  2   force =    -0.00733007    0.00068424    0.00012601
     atom   12 type  2   force =    -0.00129453   -0.00885097    0.00149385
     atom   13 type  2   force =     0.01418966    0.00475798   -0.00274056
     atom   14 type  2   force =     0.01305782    0.01205656   -0.00799447
     atom   15 type  2   force =    -0.00802050   -0.00457205    0.00252203
     atom   16 type  2   force =    -0.01444848   -0.00203023    0.00320593
     atom   17 type  2   force =    -0.01051530   -0.00540535   -0.00195567
     atom   18 type  2   force =    -0.01338036   -0.01172044    0.00398863
     atom   19 type  2   force =     0.00902741    0.00366719    0.00227737
     atom   20 type  2   force =     0.01114941    0.00446069    0.00082526
     atom   21 type  2   force =    -0.00894140    0.00119045   -0.00737433
     atom   22 type  2   force =    -0.01194207   -0.00898408   -0.00314411
     atom   23 type  2   force =     0.01234024   -0.00056127    0.00183173
     atom   24 type  2   force =     0.00513747    0.01002948    0.00474278

     Total force =     0.100597     Total SCF correction =     0.001413

     General routines

     Parallel routines

   This run was terminated on:  11: 5:58   2Sep2021

   JOB DONE.