     Program PWSCF v.6.4 starts on  8Sep2021 at 12: 4: 1

     R & G space division:  proc/nbgrp/npool/nimage =      40
     Waiting for input...
     Reading input from standard input
Warning: card    &IONS ignored
Warning: card      ION_DYNAMICS = 'BFGS' ignored
Warning: card   / ignored
Warning: card    &CELL ignored
Warning: card      CELL_DYNAMICS = 'BFGS', ignored
Warning: card    / ignored

     Current dimensions of program PWSCF are:
     Max number of different atomic species (ntypx) = 10
     Max number of k-points (npk) =  40000
     Max angular momentum in pseudopotentials (lmaxx) =  3

     bravais-lattice index     =            0
     lattice parameter (alat)  =      12.1729  a.u.
     unit-cell volume          =    3217.8743 (a.u.)^3
     number of atoms/cell      =           24
     number of atomic types    =            2
     number of electrons       =       144.00
     number of Kohn-Sham states=           86
     kinetic-energy cutoff     =      45.0000  Ry
     charge density cutoff     =     360.0000  Ry
     convergence threshold     =      1.0E-06
     mixing beta               =       0.7000
     number of iterations used =            8  local-TF  mixing
     Exchange-correlation      = SLA PW GGX GGC ( 1  4  2  2 0 0)

     celldm(1)=  12.172878  celldm(2)=   0.000000  celldm(3)=   0.000000
     celldm(4)=   0.000000  celldm(5)=   0.000000  celldm(6)=   0.000000

     crystal axes: (cart. coord. in units of alat)
               a(1) = (   0.999655   0.000809  -0.026271 )
               a(2) = (  -0.499478   0.864892   0.048539 )
               a(3) = (  -0.080347  -0.027754   2.063387 )

     reciprocal axes: (cart. coord. in units 2 pi/alat)
               b(1) = (  1.001108  0.575521  0.046724 )
               b(2) = ( -0.000526  1.155039  0.015516 )
               b(3) = (  0.012758 -0.019844  0.484870 )

     PseudoPot. # 1 for Mo read from file:
     ~/pseudo/Mo.pw91-n-van.UPF
     MD5 check sum: Not computed, couldn't open file
     Pseudo is Ultrasoft + core correction, Zval =  6.0
     Generated by new atomic code, or converted to UPF format
     Using radial grid of  965 points,  3 beta functions with:
                l(1) =   1
                l(2) =   2
                l(3) =   2
     Q(r) pseudized with  8 coefficients,  rinner =    1.000   1.000   1.000
                                                       1.200   1.200

     PseudoPot. # 2 for S  read from file:
     ~/pseudo/S.pw91-van_ak.UPF
     MD5 check sum: Not computed, couldn't open file
     Pseudo is Ultrasoft, Zval =  6.0
     Generated by new atomic code, or converted to UPF format
     Using radial grid of  811 points,  6 beta functions with:
                l(1) =   0
                l(2) =   0
                l(3) =   1
                l(4) =   1
                l(5) =   2
                l(6) =   2
     Q(r) pseudized with  8 coefficients,  rinner =    1.100   1.100   1.100
                                                       1.100   1.100

     atomic species   valence    mass     pseudopotential
        Mo             6.00    95.50000     Mo( 1.00)
        S              6.00    32.06500     S ( 1.00)

     No symmetry found

   Cartesian axes

     site n.     atom                  positions (alat units)
         1           Mo  tau(   1) = (  -0.0256340  -0.0355865   1.5518382  )
         2           Mo  tau(   2) = (  -0.2746354   0.3950698   1.5774038  )
         3           Mo  tau(   3) = (   0.4719488  -0.0369761   1.5421330  )
         4           Mo  tau(   4) = (   0.2262160   0.3979644   1.5672110  )
         5           Mo  tau(   5) = (  -0.0548487   0.0055757   0.5065220  )
         6           Mo  tau(   6) = (  -0.3060565   0.4392705   0.5354926  )
         7           Mo  tau(   7) = (   0.4470745   0.0068624   0.4945492  )
         8           Mo  tau(   8) = (   0.1931264   0.4373871   0.5213388  )
         9           S   tau(   9) = (   0.2278612   0.0988528   1.7984567  )
        10           S   tau(  10) = (  -0.0194542   0.5302193   1.8224988  )
        11           S   tau(  11) = (   0.7304440   0.0970228   1.7830895  )
        12           S   tau(  12) = (   0.4853350   0.5341081   1.8083594  )
        13           S   tau(  13) = (  -0.0645078   0.3063722   0.2771425  )
        14           S   tau(  14) = (  -0.3079576   0.7373860   0.3000959  )
        15           S   tau(  15) = (   0.4374354   0.3068368   0.2653477  )
        16           S   tau(  16) = (   0.1894398   0.7351231   0.2848590  )
        17           S   tau(  17) = (  -0.0514063   0.2810532   0.7667232  )
        18           S   tau(  18) = (  -0.2962352   0.7197024   0.7886252  )
        19           S   tau(  19) = (   0.4499197   0.2826458   0.7542002  )
        20           S   tau(  20) = (   0.2033327   0.7172101   0.7740292  )
        21           S   tau(  21) = (   0.2184543   0.1198483   1.3091456  )
        22           S   tau(  22) = (  -0.0295505   0.5483178   1.3345315  )
        23           S   tau(  23) = (   0.7137794   0.1166834   1.2957217  )
        24           S   tau(  24) = (   0.4691518   0.5499317   1.3195314  )

     number of k points=    10  Marzari-Vanderbilt smearing, width (Ry)=  0.0200
                       cart. coord. in units 2pi/alat
        k(    1) = (   0.0000000   0.0000000   0.0000000), wk =   0.1111111
        k(    2) = (  -0.0063792   0.0099218  -0.2424350), wk =   0.1111111
        k(    3) = (  -0.0001755   0.3850131   0.0051719), wk =   0.2222222
        k(    4) = (  -0.0065547   0.3949348  -0.2372631), wk =   0.2222222
        k(    5) = (   0.3337027   0.1918405   0.0155746), wk =   0.2222222
        k(    6) = (   0.3273235   0.2017622  -0.2268604), wk =   0.2222222
        k(    7) = (   0.3335272   0.5768535   0.0207465), wk =   0.2222222
        k(    8) = (   0.3271480   0.5867753  -0.2216885), wk =   0.2222222
        k(    9) = (   0.3338781  -0.1931726   0.0104027), wk =   0.2222222
        k(   10) = (   0.3274990  -0.1832509  -0.2320323), wk =   0.2222222

     Initial potential from superposition of free atoms

     starting charge  143.98738, renormalised to  144.00000
     Starting wfcs are  136 randomized atomic wfcs

     Self-consistent Calculation

     iteration #  1     ecut=    45.00 Ry     beta= 0.70
     Davidson diagonalization with overlap
     ethr =  1.00E-02,  avg # of iterations =  2.0

     total energy              =    -562.82157091 Ry
     Harris-Foulkes estimate   =    -564.56400245 Ry
     estimated scf accuracy    <       4.45471657 Ry

[...]

     iteration #  6     ecut=    45.00 Ry     beta= 0.70
     Davidson diagonalization with overlap
     c_bands:  4 eigenvalues not converged
     c_bands:  4 eigenvalues not converged
     c_bands:  4 eigenvalues not converged
     c_bands:  2 eigenvalues not converged
     c_bands:  3 eigenvalues not converged
     ethr =  6.36E-07,  avg # of iterations = 14.8

[...]

     total energy              =    -563.68832288 Ry
     Harris-Foulkes estimate   =    -563.68832553 Ry
     estimated scf accuracy    <       0.00001044 Ry

     iteration # 11     ecut=    45.00 Ry     beta= 0.70
     Davidson diagonalization with overlap
     ethr =  7.25E-09,  avg # of iterations =  3.0

     End of self-consistent calculation

          k = 0.0000 0.0000 0.0000 ( 16343 PWs)   bands (ev):

    -7.2733  -7.1631  -6.1104  -5.9281  -5.5299  -5.5084  -5.4969  -5.4904
    -5.4819  -5.4608  -5.2579  -5.2335  -5.2250  -5.2103  -5.2010  -5.1763
     1.0175   1.1056   1.1111   1.1348   1.1676   1.1895   1.1960   1.5790
     1.9933   1.9982   2.0232   2.1620   2.1930   2.1989   2.6858   2.7021
     2.7320   2.8274   2.8572   2.8762   3.6467   3.6525   3.6582   3.6691
     3.6739   3.6815   4.1696   4.1732   4.1877   4.1900   4.4369   4.6334
     4.6485   4.7008   5.1534   5.2118   5.2279   5.2768   5.2832   5.2926
     5.3007   5.7711   5.7898   5.8022   5.8249   5.8314   5.8536   5.8891
     6.0160   6.0191   6.0432   6.2002   6.2309   6.2466   6.4289   7.1994
     8.7732   8.7799   8.7841   8.7871   8.7930   8.7970   9.2631   9.2728
     9.2751   9.3198   9.3370   9.3417   9.4268   9.4639

          k =-0.0064 0.0099-0.2424 ( 16350 PWs)   bands (ev):

[...]

          k =-0.0066 0.3949-0.2373 ( 16385 PWs)   bands (ev):

[...]

          k = 0.3275-0.1833-0.2320 ( 16388 PWs)   bands (ev):

    -6.8763  -6.8430  -6.0366  -5.9953  -5.8660  -5.8209  -5.5362  -5.5226
    -5.5120  -5.5048  -5.4636  -5.4190  -5.2244  -5.2123  -5.1936  -5.1833
     1.5693   1.5795   1.5969   1.6152   1.6203   1.6310   1.7025   1.7282
     2.0099   2.0126   2.0202   2.0240   2.6556   2.7045   2.8582   2.9257
     2.9552   3.0148   3.0266   3.0574   3.4450   3.4690   3.5983   3.6096
     3.6676   3.6807   3.9369   3.9698   3.9850   4.0397   4.4108   4.4262
     4.5005   4.5125   4.5741   4.5916   4.7550   4.7687   4.9684   4.9771
     5.1127   5.1222   5.1339   5.2098   5.4046   5.4236   5.6093   5.7158
     5.8488   5.8631   6.2688   6.2827   6.2878   6.3014   6.5382   6.6092
     8.7906   8.7987   8.8108   8.8257   8.8320   8.8415   8.8903   8.9233
     8.9804   9.0380   9.2350   9.2701   9.2869   9.2960

     the Fermi energy is     6.9946 ev

!    total energy              =    -563.68832483 Ry
     Harris-Foulkes estimate   =    -563.68832548 Ry
     estimated scf accuracy    <       0.00000075 Ry

     The total energy is the sum of the following terms:

     one-electron contribution =     -18.37089358 Ry
     hartree contribution      =      93.79640834 Ry
     xc contribution           =    -222.79522620 Ry
     ewald contribution        =    -416.32875383 Ry
     smearing contrib. (-TS)   =       0.01014044 Ry

     convergence has been achieved in  11 iterations

     Forces acting on atoms (cartesian axes, Ry/au):

     atom    1 type  1   force =    -0.00147538   -0.00173258    0.00214402
     atom    2 type  1   force =    -0.00034643    0.00010417    0.00255055
     atom    3 type  1   force =     0.00354154    0.00206757   -0.00219305
     atom    4 type  1   force =     0.00024016   -0.00486281   -0.00228052
     atom    5 type  1   force =     0.00170046    0.00180380    0.00196235
     atom    6 type  1   force =     0.00089965   -0.00145003   -0.00155691
     atom    7 type  1   force =    -0.00369659   -0.00037746    0.00119270
     atom    8 type  1   force =     0.00115248    0.00276976   -0.00065974
     atom    9 type  2   force =     0.00455318   -0.00010096   -0.00199561
     atom   10 type  2   force =     0.00099708   -0.00182747    0.00036952
     atom   11 type  2   force =    -0.00135880    0.00115540    0.00050604
     atom   12 type  2   force =    -0.00576899   -0.00486691   -0.00098526
     atom   13 type  2   force =     0.00253119   -0.00320213    0.00134898
     atom   14 type  2   force =    -0.00448424   -0.00150554    0.00182833
     atom   15 type  2   force =     0.00151008   -0.00165506   -0.00176824
     atom   16 type  2   force =    -0.00014116    0.00087526    0.00627627
     atom   17 type  2   force =     0.00314232    0.00432507   -0.00496142
     atom   18 type  2   force =    -0.00269681   -0.00256431   -0.00046042
     atom   19 type  2   force =     0.00093222    0.00457704   -0.00467373
     atom   20 type  2   force =    -0.00150646   -0.00139731    0.00351737
     atom   21 type  2   force =    -0.00078861   -0.00006576    0.00163890
     atom   22 type  2   force =    -0.00312793    0.00423380   -0.00168050
     atom   23 type  2   force =     0.00474429    0.00128696   -0.00070088
     atom   24 type  2   force =    -0.00055326    0.00240950    0.00058124

     Total force =     0.021966     Total SCF correction =     0.001287

     General routines

     Parallel routines

   This run was terminated on:  12: 4:55   8Sep2021

   JOB DONE.