     Program PWSCF v.6.4 starts on  8Sep2021 at 12:13:41

     R & G space division:  proc/nbgrp/npool/nimage =      40
     Waiting for input...
     Reading input from standard input
Warning: card    &IONS ignored
Warning: card      ION_DYNAMICS = 'BFGS' ignored
Warning: card   / ignored
Warning: card    &CELL ignored
Warning: card      CELL_DYNAMICS = 'BFGS', ignored
Warning: card    / ignored

     Current dimensions of program PWSCF are:
     Max number of different atomic species (ntypx) = 10
     Max number of k-points (npk) =  40000
     Max angular momentum in pseudopotentials (lmaxx) =  3

     bravais-lattice index     =            0
     lattice parameter (alat)  =       6.1566  a.u.
     unit-cell volume          =    5420.7129 (a.u.)^3
     number of atoms/cell      =           24
     number of atomic types    =            2
     number of electrons       =       144.00
     number of Kohn-Sham states=           86
     kinetic-energy cutoff     =      45.0000  Ry
     charge density cutoff     =     360.0000  Ry
     convergence threshold     =      1.0E-06
     mixing beta               =       0.7000
     number of iterations used =            8  local-TF  mixing
     Exchange-correlation      = SLA PW GGX GGC ( 1  4  2  2 0 0)

     celldm(1)=   6.156603  celldm(2)=   0.000000  celldm(3)=   0.000000
     celldm(4)=   0.000000  celldm(5)=   0.000000  celldm(6)=   0.000000

     crystal axes: (cart. coord. in units of alat)
               a(1) = (   1.000000  -0.000090   0.000294 )
               a(2) = (  -0.000133   3.096680  -0.108247 )
               a(3) = (   0.199685   1.323424   7.455098 )

     reciprocal axes: (cart. coord. in units 2 pi/alat)
               b(1) = (  1.000008 -0.000888 -0.026628 )
               b(2) = (  0.000046  0.320935 -0.056973 )
               b(3) = ( -0.000039  0.004660  0.133310 )

     PseudoPot. # 1 for Mo read from file:
     ~/pseudo/Mo.pw91-n-van.UPF
     MD5 check sum: Not computed, couldn't open file
     Pseudo is Ultrasoft + core correction, Zval =  6.0
     Generated by new atomic code, or converted to UPF format
     Using radial grid of  965 points,  3 beta functions with:
                l(1) =   1
                l(2) =   2
                l(3) =   2
     Q(r) pseudized with  8 coefficients,  rinner =    1.000   1.000   1.000
                                                       1.200   1.200

     PseudoPot. # 2 for S  read from file:
     ~/pseudo/S.pw91-van_ak.UPF
     MD5 check sum: Not computed, couldn't open file
     Pseudo is Ultrasoft, Zval =  6.0
     Generated by new atomic code, or converted to UPF format
     Using radial grid of  811 points,  6 beta functions with:
                l(1) =   0
                l(2) =   0
                l(3) =   1
                l(4) =   1
                l(5) =   2
                l(6) =   2
     Q(r) pseudized with  8 coefficients,  rinner =    1.100   1.100   1.100
                                                       1.100   1.100

     atomic species   valence    mass     pseudopotential
        Mo             6.00    95.50000     Mo( 1.00)
        S              6.00    32.06500     S ( 1.00)

     No symmetry found

   Cartesian axes

     site n.     atom                  positions (alat units)
         1           Mo  tau(   1) = (   0.7859416   3.1942376   2.7724948  )
         2           Mo  tau(   2) = (   0.7860772   3.4036756   3.6511675  )
         3           Mo  tau(   3) = (   0.7955412   0.9252473   0.7927939  )
         4           Mo  tau(   4) = (   0.2956139   1.8515767   1.1813692  )
         5           Mo  tau(   5) = (   0.7869929   1.9920081   3.5010368  )
         6           Mo  tau(   6) = (   0.2870591   1.3223365   2.9744390  )
         7           Mo  tau(   7) = (   0.7957565   2.4160805   0.1244330  )
         8           Mo  tau(   8) = (   0.2960101   0.2454760   0.6189098  )
         9           S   tau(   9) = (   0.2858019   2.9800547   2.3134433  )
        10           S   tau(  10) = (   0.7958240   2.2173081   1.5680861  )
        11           S   tau(  11) = (   0.7870319   0.9861936   2.5235790  )
        12           S   tau(  12) = (   0.2860322   3.6427765   3.1262860  )
        13           S   tau(  13) = (   0.2859363   3.4440388   4.1637182  )
        14           S   tau(  14) = (   0.2957576   0.8942634   0.2459807  )
        15           S   tau(  15) = (   0.7957756   3.1089673  -0.0439519  )
        16           S   tau(  16) = (   0.2953691   1.1563129   1.3496541  )
        17           S   tau(  17) = (   0.2866576   2.0660719   4.0365013  )
        18           S   tau(  18) = (   0.7867501   2.7627586   3.3403412  )
        19           S   tau(  19) = (   0.7955076   0.2779297   1.1656036  )
        20           S   tau(  20) = (   0.2871054   2.0371494   2.9071755  )
        21           S   tau(  21) = (   0.4955516   3.3709121   7.1942977  )
        22           S   tau(  22) = (   0.7869102   1.2574659   3.5302364  )
        23           S   tau(  23) = (   0.7957464   1.7207815   0.6152125  )
        24           S   tau(  24) = (   0.2955633   2.5483292   0.6900525  )

     number of k points=     6  Marzari-Vanderbilt smearing, width (Ry)=  0.0200
                       cart. coord. in units 2pi/alat
        k(    1) = (   0.0000000   0.0000000   0.0000000), wk =   0.2000000
        k(    2) = (  -0.0000228  -0.1604675   0.0284867), wk =   0.2000000
        k(    3) = (   0.2000016  -0.0001776  -0.0053255), wk =   0.4000000
        k(    4) = (   0.1999788  -0.1606451   0.0231612), wk =   0.4000000
        k(    5) = (   0.4000031  -0.0003552  -0.0106511), wk =   0.4000000
        k(    6) = (   0.3999803  -0.1608226   0.0178356), wk =   0.4000000

     Initial potential from superposition of free atoms

     starting charge  143.98738, renormalised to  144.00000

     negative rho (up, down):  3.162E-04 0.000E+00
     Starting wfcs are  136 randomized atomic wfcs

     Self-consistent Calculation

     iteration #  1     ecut=    45.00 Ry     beta= 0.70
     Davidson diagonalization with overlap
     ethr =  1.00E-02,  avg # of iterations =  2.2

     negative rho (up, down):  1.822E-04 0.000E+00

     total energy              =    -561.84824024 Ry
     Harris-Foulkes estimate   =    -564.00727813 Ry
     estimated scf accuracy    <       5.91982464 Ry

[...]

     iteration #  8     ecut=    45.00 Ry     beta= 0.70
     Davidson diagonalization with overlap
     c_bands:  1 eigenvalues not converged
     c_bands:  1 eigenvalues not converged
     ethr =  2.75E-06,  avg # of iterations =  9.0

[...]

     total energy              =    -562.99331155 Ry
     Harris-Foulkes estimate   =    -562.99331087 Ry
     estimated scf accuracy    <       0.00000247 Ry

     iteration # 17     ecut=    45.00 Ry     beta= 0.70
     Davidson diagonalization with overlap
     ethr =  1.71E-09,  avg # of iterations =  3.8

[...]

     End of self-consistent calculation

          k = 0.0000 0.0000 0.0000 ( 27757 PWs)   bands (ev):

   -12.6612 -12.2176 -11.6388 -11.4468 -11.4103 -11.3999 -11.1530 -10.9209
   -10.7563 -10.7023 -10.6262 -10.5339 -10.4277 -10.3351 -10.2812 -10.2250
    -4.0306  -3.8905  -3.8065  -3.7864  -3.5058  -3.2046  -3.1460  -3.0865
    -2.8909  -2.7590  -2.6865  -2.4756  -2.3756  -2.3479  -2.2467  -2.1550
    -1.8275  -1.5726  -1.4839  -1.4055  -1.3336  -1.2325  -1.1757  -1.1185
    -1.0449  -1.0242  -0.9847  -0.8823  -0.7830  -0.7311  -0.6754  -0.6557
    -0.5498  -0.3820  -0.1143   0.0725   0.0983   0.1863   0.3007   0.3213
     0.5323   0.6031   0.6544   0.7337   0.8051   0.9223   0.9884   0.9949
     1.2147   1.2681   1.2745   1.4285   1.4622   1.5243   1.5731   1.7517
     1.8643   2.0592   2.1126   2.2407   2.2667   2.4747   2.7955   2.9712
     3.1467   3.2262   3.5134   3.6550   3.7066   3.7972

          k =-0.0000-0.1605 0.0285 ( 27670 PWs)   bands (ev):

[...]

          k = 0.4000-0.1608 0.0178 ( 27569 PWs)   bands (ev):

   -11.6257 -11.0016 -10.9412 -10.8433 -10.8018 -10.7574 -10.6308 -10.5380
   -10.4354 -10.4132 -10.1705 -10.0515  -9.9896  -9.9852  -9.8483  -9.8195
    -4.4118  -3.9442  -3.7138  -3.6919  -3.4560  -3.4187  -3.2978  -3.1533
    -3.1472  -3.1321  -2.8421  -2.7460  -2.6460  -2.5266  -2.3323  -2.2639
    -2.2122  -2.1438  -2.0859  -2.0116  -1.9057  -1.8364  -1.6782  -1.6078
    -1.5643  -1.4650  -1.4480  -1.3368  -1.2454  -1.1793  -1.0684  -1.0508
    -0.9177  -0.8616  -0.8392  -0.8322  -0.8137  -0.7867  -0.6956  -0.6166
    -0.5606  -0.2624  -0.2068  -0.1815   0.1447   0.2636   0.3924   0.5332
     0.5399   0.7574   1.1521   1.6456   1.8529   2.0315   2.0666   2.2942
     2.4128   2.5944   2.6834   2.7518   2.9469   3.1180   3.1438   3.2006
     3.3092   3.4488   3.5694   3.6422   3.6857   3.7201

     the Fermi energy is     2.1036 ev

!    total energy              =    -562.99331130 Ry
     Harris-Foulkes estimate   =    -562.99331190 Ry
     estimated scf accuracy    <       0.00000066 Ry

     The total energy is the sum of the following terms:

     one-electron contribution =   -2146.92386403 Ry
     hartree contribution      =    1130.86255915 Ry
     xc contribution           =    -222.04527305 Ry
     ewald contribution        =     675.11386238 Ry
     smearing contrib. (-TS)   =      -0.00059575 Ry

     convergence has been achieved in  17 iterations

     negative rho (up, down):  4.820E-04 0.000E+00

     Forces acting on atoms (cartesian axes, Ry/au):

     atom    1 type  1   force =    -0.00041454   -0.00836255   -0.00563825
     atom    2 type  1   force =    -0.00011038   -0.00230419   -0.00027397
     atom    3 type  1   force =     0.00027811    0.00373678    0.00487079
     atom    4 type  1   force =     0.00017332   -0.00498349   -0.01011964
     atom    5 type  1   force =     0.00045711    0.00193031   -0.01114843
     atom    6 type  1   force =    -0.00033075   -0.01160023    0.01027852
     atom    7 type  1   force =     0.00018394   -0.00146789    0.01143990
     atom    8 type  1   force =    -0.00102805   -0.00339008   -0.00343507
     atom    9 type  2   force =     0.00045388   -0.00677992   -0.01049664
     atom   10 type  2   force =    -0.00037660   -0.00808388   -0.00686502
     atom   11 type  2   force =     0.00007082    0.01778746    0.01658498
     atom   12 type  2   force =     0.00020638    0.01792055   -0.00337409
     atom   13 type  2   force =    -0.00006890   -0.00186625    0.01226643
     atom   14 type  2   force =    -0.00000495   -0.01053131    0.00075178
     atom   15 type  2   force =     0.00008408    0.00354785   -0.00502617
     atom   16 type  2   force =    -0.00017514    0.00056951    0.00244867
     atom   17 type  2   force =     0.00024316   -0.00005130   -0.02798897
     atom   18 type  2   force =     0.00005000   -0.00061723    0.00449680
     atom   19 type  2   force =     0.00034873    0.00995955   -0.00069554
     atom   20 type  2   force =    -0.00037669   -0.00358131    0.00281309
     atom   21 type  2   force =     0.00002020    0.00930577    0.00668433
     atom   22 type  2   force =     0.00006541   -0.00069492    0.01226922
     atom   23 type  2   force =    -0.00000810    0.00448160    0.02252723
     atom   24 type  2   force =     0.00025895   -0.00492484   -0.02236993

     Total force =     0.067530     Total SCF correction =     0.001916

     General routines

     Parallel routines

   This run was terminated on:  12:14:52   8Sep2021

   JOB DONE.