     Program PWSCF v.6.4 starts on  6Oct2021 at 12:30: 8

     R & G space division:  proc/nbgrp/npool/nimage =      40
     Waiting for input...
     Reading input from standard input
Warning: card    &IONS ignored
Warning: card      ION_DYNAMICS = 'BFGS' ignored
Warning: card   / ignored
Warning: card    &CELL ignored
Warning: card      CELL_DYNAMICS = 'BFGS', ignored
Warning: card    / ignored

     Current dimensions of program PWSCF are:
     Max number of different atomic species (ntypx) = 10
     Max number of k-points (npk) =  40000
     Max angular momentum in pseudopotentials (lmaxx) =  3

     bravais-lattice index     =            0
     lattice parameter (alat)  =      12.3019  a.u.
     unit-cell volume          =    4485.8180 (a.u.)^3
     number of atoms/cell      =           36
     number of atomic types    =            2
     number of electrons       =       216.00
     number of Kohn-Sham states=          130
     kinetic-energy cutoff     =      45.0000  Ry
     charge density cutoff     =     360.0000  Ry
     convergence threshold     =      1.0E-06
     mixing beta               =       0.7000
     number of iterations used =            8  local-TF  mixing
     Exchange-correlation      = SLA PW GGX GGC ( 1  4  2  2 0 0)

     celldm(1)=  12.301912  celldm(2)=   0.000000  celldm(3)=   0.000000
     celldm(4)=   0.000000  celldm(5)=   0.000000  celldm(6)=   0.000000

     crystal axes: (cart. coord. in units of alat)
               a(1) = (   1.000000   0.000000   0.000000 )
               a(2) = (   0.502365   0.875658   0.000000 )
               a(3) = (  -0.001281   0.089790   2.751626 )

     reciprocal axes: (cart. coord. in units 2 pi/alat)
               b(1) = (  1.000000 -0.573700  0.019186 )
               b(2) = (  0.000000  1.141999 -0.037265 )
               b(3) = (  0.000000  0.000000  0.363421 )

     PseudoPot. # 1 for Mo read from file:
     ~/pseudo/Mo.pw91-n-van.UPF
     MD5 check sum: Not computed, couldn't open file
     Pseudo is Ultrasoft + core correction, Zval =  6.0
     Generated by new atomic code, or converted to UPF format
     Using radial grid of  965 points,  3 beta functions with:
                l(1) =   1
                l(2) =   2
                l(3) =   2
     Q(r) pseudized with  8 coefficients,  rinner =    1.000   1.000   1.000
                                                       1.200   1.200

     PseudoPot. # 2 for S  read from file:
     ~/pseudo/S.pw91-van_ak.UPF
     MD5 check sum: Not computed, couldn't open file
     Pseudo is Ultrasoft, Zval =  6.0
     Generated by new atomic code, or converted to UPF format
     Using radial grid of  811 points,  6 beta functions with:
                l(1) =   0
                l(2) =   0
                l(3) =   1
                l(4) =   1
                l(5) =   2
                l(6) =   2
     Q(r) pseudized with  8 coefficients,  rinner =    1.100   1.100   1.100
                                                       1.100   1.100

     atomic species   valence    mass     pseudopotential
        Mo             6.00    95.50000     Mo( 1.00)
        S              6.00    32.06500     S ( 1.00)

     No symmetry found

   Cartesian axes

     site n.     atom                  positions (alat units)
         1           Mo  tau(   1) = (   0.9952091   0.3116800   0.0354172  )
         2           Mo  tau(   2) = (   0.7492303   0.7404570   2.7269443  )
         3           Mo  tau(   3) = (   0.5072746   0.3146191   0.0491040  )
         4           Mo  tau(   4) = (   1.2437451   0.7356486   2.7118147  )
         5           Mo  tau(   5) = (   0.4973908   0.8588366   1.8629528  )
         6           Mo  tau(   6) = (   0.7467984   0.4235120   1.8678827  )
         7           Mo  tau(   7) = (   0.9995411   0.8580637   1.8642264  )
         8           Mo  tau(   8) = (   0.2467590   0.4188909   1.8844096  )
         9           Mo  tau(   9) = (   0.7602918   0.7881404   0.8765442  )
        10           Mo  tau(  10) = (   1.0113349   0.3523787   0.8799368  )
        11           Mo  tau(  11) = (   1.2613772   0.7890642   0.8781790  )
        12           Mo  tau(  12) = (   0.5108966   0.3496480   0.8822162  )
        13           S   tau(  13) = (   0.2532086   0.1831511   0.2809036  )
        14           S   tau(  14) = (   1.0023465   0.6117549   0.2449274  )
        15           S   tau(  15) = (   0.7481683   0.1827025   0.2900249  )
        16           S   tau(  16) = (   0.4961583   0.6193831   0.2495853  )
        17           S   tau(  17) = (   0.7458200   0.1248445   2.1006459  )
        18           S   tau(  18) = (   0.4903939   0.5633636   2.1001608  )
        19           S   tau(  19) = (   0.7473928   0.9885423   2.1033121  )
        20           S   tau(  20) = (   1.0025335   0.5619835   2.1026122  )
        21           S   tau(  21) = (   0.0097738   0.0538793   1.1156419  )
        22           S   tau(  22) = (   0.7600583   0.4943948   1.1161548  )
        23           S   tau(  23) = (   1.0103743   0.9276843   1.1148510  )
        24           S   tau(  24) = (   1.2634780   0.4948780   1.1166240  )
        25           S   tau(  25) = (   0.2521922   0.4301803   2.5119874  )
        26           S   tau(  26) = (   1.0007018   0.8726510   2.4760812  )
        27           S   tau(  27) = (   0.7448897   0.4440071   2.5133532  )
        28           S   tau(  28) = (   0.4939278   0.8747700   2.4821637  )
        29           S   tau(  29) = (   0.7467411   0.1389412   1.6300674  )
        30           S   tau(  30) = (   0.4931472   0.5696368   1.6346349  )
        31           S   tau(  31) = (   0.2476774   0.1407950   1.6365795  )
        32           S   tau(  32) = (   1.0029962   0.5691514   1.6355698  )
        33           S   tau(  33) = (   1.0101150   0.0589153   0.6494040  )
        34           S   tau(  34) = (   0.7546495   0.5045681   0.6464210  )
        35           S   tau(  35) = (   0.5081823   0.0644472   0.6420591  )
        36           S   tau(  36) = (   1.2680545   0.5057280   0.6489831  )

     number of k points=     5  Marzari-Vanderbilt smearing, width (Ry)=  0.0200
                       cart. coord. in units 2pi/alat
        k(    1) = (   0.0000000   0.0000000   0.0000000), wk =   0.2222222
        k(    2) = (   0.0000000   0.3806662  -0.0124217), wk =   0.4444444
        k(    3) = (   0.3333333  -0.1912334   0.0063954), wk =   0.4444444
        k(    4) = (   0.3333333   0.1894327  -0.0060263), wk =   0.4444444
        k(    5) = (   0.3333333  -0.5718996   0.0188172), wk =   0.4444444

     Initial potential from superposition of free atoms

     starting charge  215.98107, renormalised to  216.00000
     Starting wfcs are  204 randomized atomic wfcs

     Self-consistent Calculation

     iteration #  1     ecut=    45.00 Ry     beta= 0.70
     Davidson diagonalization with overlap
     ethr =  1.00E-02,  avg # of iterations =  2.0

     total energy              =    -843.67758628 Ry
     Harris-Foulkes estimate   =    -846.38909904 Ry
     estimated scf accuracy    <       7.06136865 Ry

[...]

     iteration #  8     ecut=    45.00 Ry     beta= 0.70
     Davidson diagonalization with overlap
     c_bands:  1 eigenvalues not converged
     ethr =  1.60E-06,  avg # of iterations = 10.2

[...]

     total energy              =    -845.04086073 Ry
     Harris-Foulkes estimate   =    -845.04086116 Ry
     estimated scf accuracy    <       0.00000162 Ry

     iteration # 17     ecut=    45.00 Ry     beta= 0.70
     Davidson diagonalization with overlap
     ethr =  7.49E-10,  avg # of iterations =  3.8

     End of self-consistent calculation

          k = 0.0000 0.0000 0.0000 ( 22873 PWs)   bands (ev):

    -6.5205  -6.4438  -5.6659  -5.2298  -4.9858  -4.9210  -4.8960  -4.8927
    -4.8370  -4.8126  -4.7953  -4.6254  -4.4786  -4.4247  -4.4164  -4.3955
    -4.3710  -4.3520  -4.2643  -4.2219  -4.0110  -3.5889  -3.5577  -3.4983
     1.6726   1.8896   1.9105   1.9284   1.9623   2.0121   2.0268   2.1971
     2.3042   2.3146   2.4607   2.8416   2.8736   2.8840   2.9687   2.9876
     3.0468   3.0954   3.2865   3.3106   3.3279   3.5776   3.6101   3.6470
     3.9248   4.0240   4.1136   4.1910   4.2465   4.2795   4.2931   4.3414
     4.3598   4.3935   4.4482   4.5687   4.6324   4.7270   4.7378   4.7612
     4.8347   5.0207   5.2015   5.2671   5.3805   5.4639   5.5107   5.7515
     5.8339   5.8520   5.8671   5.9280   5.9495   5.9726   5.9790   6.0445
     6.1658   6.2233   6.2797   6.3456   6.3569   6.3795   6.4031   6.4310
     6.4668   6.4790   6.5570   6.7520   6.9115   7.0041   7.0263   7.0945
     7.1253   7.1384   7.3084   7.4218   7.4691   7.6620   7.7578   7.8242
     7.8587   7.8989   7.9880   8.4925   8.6046   8.7614   9.3699   9.3802
     9.4188   9.4745   9.4748   9.4886   9.7657   9.8374   9.8922   9.9285
     9.9409  10.0082  10.0410  10.0521  10.1076  10.1763  10.1989  10.2159
    10.2468  10.2793

[...]

          k = 0.3333-0.5719 0.0188 ( 22868 PWs)   bands (ev):

    -5.6479  -5.6102  -5.5817  -5.5585  -5.5297  -5.4847  -5.0045  -4.8865
    -4.8521  -4.7639  -4.7471  -4.7179  -4.6593  -4.6042  -4.5860  -4.4801
    -4.4352  -4.3389  -4.2785  -4.2151  -3.9729  -3.8832  -3.6669  -3.5847
     2.3105   2.3392   2.3967   2.4158   2.4756   2.5450   2.5794   2.6350
     3.0152   3.0889   3.2115   3.2522   3.3061   3.4060   3.4357   3.5072
     3.5398   3.5640   3.5959   3.6286   3.6766   3.7075   3.7438   3.8365
     3.8680   3.9237   3.9394   4.0175   4.0472   4.0669   4.0906   4.1487
     4.2056   4.2598   4.2821   4.3267   4.3758   4.5241   4.5407   4.5927
     4.6818   4.7028   4.7937   4.8384   4.9110   4.9523   5.1719   5.2271
     5.2899   5.4052   5.4231   5.4441   5.4672   5.4884   5.5207   5.6682
     5.7012   5.7246   5.7499   5.8527   6.0937   6.1510   6.3069   6.4287
     6.4914   6.5119   6.5452   6.5990   6.6956   6.7589   6.8479   6.8647
     6.8734   6.9072   6.9372   6.9689   7.0658   7.2202   7.2677   7.4988
     7.5801   7.7298   7.8471   8.3675   8.5237   8.8635   8.9401   9.2185
     9.3929   9.4469   9.5005   9.5287   9.5914   9.6184   9.6749   9.7145
     9.8029   9.8205   9.8434   9.8901   9.9688  10.0328  10.1327  10.1581
    10.1919  10.2460

     the Fermi energy is     8.3482 ev

!    total energy              =    -845.04086072 Ry
     Harris-Foulkes estimate   =    -845.04086113 Ry
     estimated scf accuracy    <       0.00000047 Ry

     The total energy is the sum of the following terms:

     one-electron contribution =      62.56563301 Ry
     hartree contribution      =     103.70559380 Ry
     xc contribution           =    -334.33723476 Ry
     ewald contribution        =    -676.98403954 Ry
     smearing contrib. (-TS)   =       0.00918677 Ry

     convergence has been achieved in  17 iterations

     Forces acting on atoms (cartesian axes, Ry/au):

     atom    1 type  1   force =     0.00469998   -0.02133313   -0.00735225
     atom    2 type  1   force =     0.00190290    0.02449269    0.00407121
     atom    3 type  1   force =    -0.00421099   -0.01922086   -0.02323806
     atom    4 type  1   force =     0.00016212    0.02036800    0.02488952
     atom    5 type  1   force =    -0.00540969    0.00389668    0.00449769
     atom    6 type  1   force =     0.00156697   -0.00676461    0.00033871
     atom    7 type  1   force =     0.00440120    0.00505014    0.00345677
     atom    8 type  1   force =    -0.00016096   -0.02243109   -0.09032641
     atom    9 type  1   force =     0.00909722    0.00423549    0.03100382
     atom   10 type  1   force =    -0.00147313   -0.00230902    0.00337684
     atom   11 type  1   force =    -0.00246411    0.00625530    0.02436808
     atom   12 type  1   force =     0.00052082   -0.00043026    0.00093645
     atom   13 type  2   force =    -0.00985118   -0.03477687   -0.03508138
     atom   14 type  2   force =     0.00078350    0.00643033   -0.01737624
     atom   15 type  2   force =     0.01008858   -0.02024099   -0.03992628
     atom   16 type  2   force =     0.00057128    0.00431191   -0.03623475
     atom   17 type  2   force =     0.00166646    0.01424960    0.00624571
     atom   18 type  2   force =     0.03833582    0.02497892    0.04463910
     atom   19 type  2   force =     0.00210479    0.01823386    0.01522344
     atom   20 type  2   force =    -0.03378051    0.02477454    0.03886861
     atom   21 type  2   force =    -0.00095211    0.01559687    0.01503971
     atom   22 type  2   force =     0.00534346    0.00683561    0.01645382
     atom   23 type  2   force =     0.00017424    0.01152160    0.01761971
     atom   24 type  2   force =    -0.00881034    0.00629139    0.01712619
     atom   25 type  2   force =    -0.00239527    0.00035968    0.03723468
     atom   26 type  2   force =    -0.00795913    0.01968106    0.03724056
     atom   27 type  2   force =     0.00244948   -0.00860641    0.01887085
     atom   28 type  2   force =     0.01066944    0.02948855    0.03484289
     atom   29 type  2   force =    -0.00203825   -0.01339014   -0.01979903
     atom   30 type  2   force =    -0.00108142   -0.01401197   -0.01711478
     atom   31 type  2   force =    -0.00193077   -0.01655814   -0.02408851
     atom   32 type  2   force =    -0.00273424   -0.01320640   -0.01742850
     atom   33 type  2   force =    -0.00566356    0.01402757   -0.02616063
     atom   34 type  2   force =     0.01761879   -0.02845686   -0.01960572
     atom   35 type  2   force =     0.00041180   -0.01133011    0.00250569
     atom   36 type  2   force =    -0.02165321   -0.02801293   -0.02511748

     Total force =     0.206229     Total SCF correction =     0.001701

     General routines

     Parallel routines

   This run was terminated on:  12:31:40   6Oct2021

   JOB DONE.