     Program PWSCF v.6.4 starts on  8Sep2021 at 12:36:11

     R & G space division:  proc/nbgrp/npool/nimage =      40
     Waiting for input...
     Reading input from standard input
Warning: card    &IONS ignored
Warning: card      ION_DYNAMICS = 'BFGS' ignored
Warning: card   / ignored
Warning: card    &CELL ignored
Warning: card      CELL_DYNAMICS = 'BFGS', ignored
Warning: card    / ignored

     Current dimensions of program PWSCF are:
     Max number of different atomic species (ntypx) = 10
     Max number of k-points (npk) =  40000
     Max angular momentum in pseudopotentials (lmaxx) =  3

     bravais-lattice index     =            0
     lattice parameter (alat)  =       6.0932  a.u.
     unit-cell volume          =    5490.3614 (a.u.)^3
     number of atoms/cell      =           24
     number of atomic types    =            2
     number of electrons       =       144.00
     number of Kohn-Sham states=           86
     kinetic-energy cutoff     =      45.0000  Ry
     charge density cutoff     =     360.0000  Ry
     convergence threshold     =      1.0E-06
     mixing beta               =       0.7000
     number of iterations used =            8  local-TF  mixing
     Exchange-correlation      = SLA PW GGX GGC ( 1  4  2  2 0 0)

     celldm(1)=   6.093206  celldm(2)=   0.000000  celldm(3)=   0.000000
     celldm(4)=   0.000000  celldm(5)=   0.000000  celldm(6)=   0.000000

     crystal axes: (cart. coord. in units of alat)
               a(1) = (   1.000000   0.000017  -0.000049 )
               a(2) = (   0.000136   3.119833  -0.030084 )
               a(3) = (   0.197632   1.521778   7.764463 )

     reciprocal axes: (cart. coord. in units 2 pi/alat)
               b(1) = (  0.999999 -0.000289 -0.025397 )
               b(2) = ( -0.000009  0.319925 -0.062703 )
               b(3) = (  0.000006  0.001240  0.128549 )

     PseudoPot. # 1 for Mo read from file:
     ~/pseudo/Mo.pw91-n-van.UPF
     MD5 check sum: Not computed, couldn't open file
     Pseudo is Ultrasoft + core correction, Zval =  6.0
     Generated by new atomic code, or converted to UPF format
     Using radial grid of  965 points,  3 beta functions with:
                l(1) =   1
                l(2) =   2
                l(3) =   2
     Q(r) pseudized with  8 coefficients,  rinner =    1.000   1.000   1.000
                                                       1.200   1.200

     PseudoPot. # 2 for S  read from file:
     ~/pseudo/S.pw91-van_ak.UPF
     MD5 check sum: Not computed, couldn't open file
     Pseudo is Ultrasoft, Zval =  6.0
     Generated by new atomic code, or converted to UPF format
     Using radial grid of  811 points,  6 beta functions with:
                l(1) =   0
                l(2) =   0
                l(3) =   1
                l(4) =   1
                l(5) =   2
                l(6) =   2
     Q(r) pseudized with  8 coefficients,  rinner =    1.100   1.100   1.100
                                                       1.100   1.100

     atomic species   valence    mass     pseudopotential
        Mo             6.00    95.50000     Mo( 1.00)
        S              6.00    32.06500     S ( 1.00)

     No symmetry found

   Cartesian axes

     site n.     atom                  positions (alat units)
         1           Mo  tau(   1) = (   0.7851368   3.3040234   2.9083068  )
         2           Mo  tau(   2) = (   0.7849325   3.5672405   3.8719985  )
         3           Mo  tau(   3) = (   0.7964352   0.9542099   0.8463503  )
         4           Mo  tau(   4) = (   0.2964148   1.9496663   1.2864178  )
         5           Mo  tau(   5) = (   0.7853572   2.2198018   3.7137924  )
         6           Mo  tau(   6) = (   0.2847831   1.3311236   3.1035408  )
         7           Mo  tau(   7) = (   0.7964012   2.3877058   0.1803269  )
         8           Mo  tau(   8) = (   0.2961752   0.2643555   0.6504118  )
         9           S   tau(   9) = (   0.2849800   3.0987464   2.4185325  )
        10           S   tau(  10) = (   0.7960280   2.2637333   1.7292592  )
        11           S   tau(  11) = (   0.7851699   0.9884041   2.6585974  )
        12           S   tau(  12) = (   0.2850583   3.7376394   3.3158092  )
        13           S   tau(  13) = (   0.2848072   3.5691962   4.4064089  )
        14           S   tau(  14) = (   0.2960837   0.9349647   0.2858066  )
        15           S   tau(  15) = (   0.7958878   3.1052553   0.0587436  )
        16           S   tau(  16) = (   0.2963476   1.2320411   1.4081366  )
        17           S   tau(  17) = (   0.2854772   2.2036008   4.2470773  )
        18           S   tau(  18) = (   0.7855476   2.9162053   3.5369442  )
        19           S   tau(  19) = (   0.7959424   0.2824935   1.2101005  )
        20           S   tau(  20) = (   0.2855626   2.0544617   3.1450728  )
        21           S   tau(  21) = (   0.4938338   3.5910926   7.5055367  )
        22           S   tau(  22) = (   0.7851336   1.3119128   3.7056693  )
        23           S   tau(  23) = (   0.7964065   1.7637278   0.7070812  )
        24           S   tau(  24) = (   0.2965293   2.5730488   0.7596228  )

     number of k points=     6  Marzari-Vanderbilt smearing, width (Ry)=  0.0200
                       cart. coord. in units 2pi/alat
        k(    1) = (   0.0000000   0.0000000   0.0000000), wk =   0.2000000
        k(    2) = (   0.0000043  -0.1599627   0.0313514), wk =   0.2000000
        k(    3) = (   0.1999998  -0.0000577  -0.0050794), wk =   0.4000000
        k(    4) = (   0.2000041  -0.1600204   0.0262720), wk =   0.4000000
        k(    5) = (   0.3999995  -0.0001154  -0.0101587), wk =   0.4000000
        k(    6) = (   0.4000038  -0.1600781   0.0211927), wk =   0.4000000

     Initial potential from superposition of free atoms

     starting charge  143.98738, renormalised to  144.00000

     negative rho (up, down):  3.365E-04 0.000E+00
     Starting wfcs are  136 randomized atomic wfcs

     Self-consistent Calculation

     iteration #  1     ecut=    45.00 Ry     beta= 0.70
     Davidson diagonalization with overlap
     ethr =  1.00E-02,  avg # of iterations =  2.2

     negative rho (up, down):  3.358E-04 0.000E+00

     total energy              =    -561.76033864 Ry
     Harris-Foulkes estimate   =    -563.93837013 Ry
     estimated scf accuracy    <       5.78625107 Ry

[...]

     total energy              =    -562.92759347 Ry
     Harris-Foulkes estimate   =    -562.92759404 Ry
     estimated scf accuracy    <       0.00000342 Ry

     iteration # 18     ecut=    45.00 Ry     beta= 0.70
     Davidson diagonalization with overlap
     ethr =  2.38E-09,  avg # of iterations =  1.0

[...]

     End of self-consistent calculation

          k = 0.0000 0.0000 0.0000 ( 28047 PWs)   bands (ev):

   -13.1157 -12.3250 -11.8122 -11.4783 -11.4712 -11.4034 -11.0987 -11.0564
   -10.8432 -10.7551 -10.7117 -10.6450 -10.5868 -10.5543 -10.5026 -10.4495
    -4.4107  -4.1332  -3.9615  -3.7832  -3.4827  -3.2343  -3.1462  -3.1428
    -2.8936  -2.8130  -2.7597  -2.6323  -2.4832  -2.3722  -2.3550  -2.0281
    -1.9364  -1.6202  -1.4879  -1.3849  -1.3754  -1.2778  -1.2558  -1.1901
    -1.0993  -1.0794  -1.0023  -0.9844  -0.9306  -0.8351  -0.7065  -0.6382
    -0.5373  -0.4346  -0.2334  -0.1838  -0.1786   0.1341   0.3086   0.4092
     0.4547   0.4619   0.6748   0.7605   0.8131   0.9877   1.0289   1.1377
     1.1756   1.1867   1.1995   1.3245   1.3472   1.5119   1.5153   1.7609
     1.8594   2.0264   2.1375   2.1685   2.2913   2.4924   2.6002   2.6282
     2.9243   2.9873   3.1381   3.2134   3.3505   3.5566

[...]

          k = 0.4000-0.1601 0.0212 ( 27909 PWs)   bands (ev):

   -12.0264 -11.1959 -11.0577 -10.8156 -10.6772 -10.6569 -10.6338 -10.5267
   -10.4358 -10.4343 -10.3278 -10.1746 -10.1129 -10.0627 -10.0388 -10.0015
    -4.8166  -4.1958  -4.0192  -3.7562  -3.7246  -3.4059  -3.4003  -3.2018
    -3.1979  -3.0816  -2.9910  -2.8219  -2.6499  -2.6407  -2.5461  -2.4649
    -2.3787  -2.2605  -2.2016  -1.9858  -1.9619  -1.9220  -1.7945  -1.6596
    -1.5897  -1.5200  -1.4482  -1.2884  -1.2646  -1.2055  -1.1243  -1.1091
    -1.0861  -0.9957  -0.9151  -0.7806  -0.7406  -0.6583  -0.6247  -0.5755
    -0.5410  -0.4582  -0.4017  -0.2268  -0.1623   0.0209   0.1062   0.3702
     0.4213   0.6009   1.3266   1.3898   1.7873   1.8157   2.0971   2.2208
     2.2505   2.3430   2.3616   2.5545   2.5971   2.9513   3.1619   3.2007
     3.2641   3.4419   3.4956   3.5441   3.6522   3.6843

     the Fermi energy is     2.0820 ev

!    total energy              =    -562.92759308 Ry
     Harris-Foulkes estimate   =    -562.92759360 Ry
     estimated scf accuracy    <       0.00000064 Ry

     The total energy is the sum of the following terms:

     one-electron contribution =   -2232.43066878 Ry
     hartree contribution      =    1173.11821310 Ry
     xc contribution           =    -221.94888149 Ry
     ewald contribution        =     718.33591720 Ry
     smearing contrib. (-TS)   =      -0.00217311 Ry

     convergence has been achieved in  18 iterations

     negative rho (up, down):  5.028E-04 0.000E+00

     Forces acting on atoms (cartesian axes, Ry/au):

     atom    1 type  1   force =    -0.00023869   -0.00207115    0.00156147
     atom    2 type  1   force =    -0.00000784   -0.00228361   -0.00038874
     atom    3 type  1   force =    -0.00038842   -0.00601037   -0.00392712
     atom    4 type  1   force =    -0.00019016    0.00135678   -0.01386688
     atom    5 type  1   force =     0.00021370   -0.01983851    0.00353725
     atom    6 type  1   force =     0.00054993    0.00396559   -0.00248219
     atom    7 type  1   force =    -0.00002773   -0.00206168    0.01446513
     atom    8 type  1   force =    -0.00047316    0.00321024    0.00219391
     atom    9 type  2   force =     0.00031637    0.00061742    0.01004751
     atom   10 type  2   force =     0.00015521   -0.00845388   -0.01938874
     atom   11 type  2   force =    -0.00049038    0.00703669    0.00762610
     atom   12 type  2   force =    -0.00001940    0.00448888    0.00144605
     atom   13 type  2   force =     0.00011776    0.00077970   -0.00843167
     atom   14 type  2   force =     0.00034177   -0.01708906    0.01246848
     atom   15 type  2   force =     0.00042932    0.01142993    0.00530061
     atom   16 type  2   force =    -0.00026996   -0.01124508   -0.00459390
     atom   17 type  2   force =    -0.00027373   -0.00299401   -0.00629155
     atom   18 type  2   force =     0.00024220   -0.00526413    0.00826205
     atom   19 type  2   force =     0.00028157    0.01814005   -0.01137020
     atom   20 type  2   force =    -0.00009195   -0.00149030    0.00196987
     atom   21 type  2   force =    -0.00006206    0.00807031    0.01871381
     atom   22 type  2   force =     0.00020182    0.01909853   -0.01723556
     atom   23 type  2   force =    -0.00017241    0.00653339    0.01540163
     atom   24 type  2   force =    -0.00014375   -0.00592575   -0.01501732

     Total force =     0.068169     Total SCF correction =     0.001756

     General routines

     Parallel routines

   This run was terminated on:  12:37:24   8Sep2021

   JOB DONE.