     Program PWSCF v.6.4 starts on 10Nov2021 at 17:50:10

     R & G space division:  proc/nbgrp/npool/nimage =      40
     Waiting for input...
     Reading input from standard input
Warning: card    &IONS ignored
Warning: card      ION_DYNAMICS = 'BFGS' ignored
Warning: card   / ignored
Warning: card    &CELL ignored
Warning: card      CELL_DYNAMICS = 'BFGS', ignored
Warning: card    / ignored

     Current dimensions of program PWSCF are:
     Max number of different atomic species (ntypx) = 10
     Max number of k-points (npk) =  40000
     Max angular momentum in pseudopotentials (lmaxx) =  3

     bravais-lattice index     =            0
     lattice parameter (alat)  =       6.0605  a.u.
     unit-cell volume          =    1289.0043 (a.u.)^3
     number of atoms/cell      =            9
     number of atomic types    =            2
     number of electrons       =        54.00
     number of Kohn-Sham states=           32
     kinetic-energy cutoff     =      45.0000  Ry
     charge density cutoff     =     360.0000  Ry
     convergence threshold     =      1.0E-06
     mixing beta               =       0.7000
     number of iterations used =            8  local-TF  mixing
     Exchange-correlation      = SLA PW GGX GGC ( 1  4  2  2 0 0)

     celldm(1)=   6.060540  celldm(2)=   0.000000  celldm(3)=   0.000000
     celldm(4)=   0.000000  celldm(5)=   0.000000  celldm(6)=   0.000000

     crystal axes: (cart. coord. in units of alat)
               a(1) = (   1.000000   0.000000   0.000000 )
               a(2) = (   0.491336   0.870425   0.000000 )
               a(3) = (   0.104618  -0.156527   6.652569 )

     reciprocal axes: (cart. coord. in units 2 pi/alat)
               b(1) = (  1.000000 -0.564479 -0.029007 )
               b(2) = (  0.000000  1.148865  0.027031 )
               b(3) = (  0.000000  0.000000  0.150318 )

     PseudoPot. # 1 for Mo read from file:
     ~/pseudo/Mo.pw91-n-van.UPF
     MD5 check sum: Not computed, couldn't open file
     Pseudo is Ultrasoft + core correction, Zval =  6.0
     Generated by new atomic code, or converted to UPF format
     Using radial grid of  965 points,  3 beta functions with:
                l(1) =   1
                l(2) =   2
                l(3) =   2
     Q(r) pseudized with  8 coefficients,  rinner =    1.000   1.000   1.000
                                                       1.200   1.200

     PseudoPot. # 2 for S  read from file:
     ~/pseudo/S.pw91-van_ak.UPF
     MD5 check sum: Not computed, couldn't open file
     Pseudo is Ultrasoft, Zval =  6.0
     Generated by new atomic code, or converted to UPF format
     Using radial grid of  811 points,  6 beta functions with:
                l(1) =   0
                l(2) =   0
                l(3) =   1
                l(4) =   1
                l(5) =   2
                l(6) =   2
     Q(r) pseudized with  8 coefficients,  rinner =    1.100   1.100   1.100
                                                       1.100   1.100

     atomic species   valence    mass     pseudopotential
        Mo             6.00    95.50000     Mo( 1.00)
        S              6.00    32.06500     S ( 1.00)

     No symmetry found

   Cartesian axes

     site n.     atom                  positions (alat units)
         1           Mo  tau(   1) = (   1.0098268   0.5789101   2.2801598  )
         2           Mo  tau(   2) = (   0.4488974   0.2424600   4.1570135  )
         3           Mo  tau(   3) = (   0.6266654   0.7618675   0.2114807  )
         4           S   tau(   4) = (   0.6277584   0.1754146   0.7065064  )
         5           S   tau(   5) = (   1.0186835   0.0079839   1.7896004  )
         6           S   tau(   6) = (   1.0169912  -0.0064013   2.7699418  )
         7           S   tau(   7) = (   0.9566300   0.5137455   3.6620566  )
         8           S   tau(   8) = (   0.9430447   0.5548763   4.6444852  )
         9           S   tau(   9) = (   0.7368950   0.0328498   6.3752963  )

     number of k points=    20  Marzari-Vanderbilt smearing, width (Ry)=  0.0200
                       cart. coord. in units 2pi/alat
        k(    1) = (   0.0000000   0.0000000   0.0000000), wk =   0.0555556
        k(    2) = (   0.0000000   0.1914774   0.0045052), wk =   0.1111111
        k(    3) = (   0.0000000   0.3829549   0.0090105), wk =   0.1111111
        k(    4) = (   0.0000000  -0.5744323  -0.0135157), wk =   0.0555556
        k(    5) = (   0.1666667  -0.0940798  -0.0048346), wk =   0.1111111
        k(    6) = (   0.1666667   0.0973977  -0.0003293), wk =   0.1111111
        k(    7) = (   0.1666667   0.2888751   0.0041759), wk =   0.1111111
        k(    8) = (   0.1666667  -0.6685121  -0.0183503), wk =   0.1111111
        k(    9) = (   0.1666667  -0.4770347  -0.0138451), wk =   0.1111111
        k(   10) = (   0.1666667  -0.2855572  -0.0093398), wk =   0.1111111
        k(   11) = (   0.3333333  -0.1881596  -0.0096692), wk =   0.1111111
        k(   12) = (   0.3333333   0.0033179  -0.0051639), wk =   0.1111111
        k(   13) = (   0.3333333   0.1947953  -0.0006587), wk =   0.1111111
        k(   14) = (   0.3333333  -0.7625919  -0.0231849), wk =   0.1111111
        k(   15) = (   0.3333333  -0.5711144  -0.0186796), wk =   0.1111111
        k(   16) = (   0.3333333  -0.3796370  -0.0141744), wk =   0.1111111
        k(   17) = (  -0.5000000   0.2822393   0.0145037), wk =   0.0555556
        k(   18) = (  -0.5000000   0.4737168   0.0190090), wk =   0.1111111
        k(   19) = (  -0.5000000   0.6651942   0.0235142), wk =   0.1111111
        k(   20) = (  -0.5000000  -0.2921930   0.0009880), wk =   0.0555556

     Initial potential from superposition of free atoms

     starting charge   53.99527, renormalised to   54.00000
     Starting wfcs are   51 randomized atomic wfcs

     Self-consistent Calculation

     iteration #  1     ecut=    45.00 Ry     beta= 0.70
     Davidson diagonalization with overlap
     ethr =  1.00E-02,  avg # of iterations =  2.0

     total energy              =    -211.05230271 Ry
     Harris-Foulkes estimate   =    -211.70032625 Ry
     estimated scf accuracy    <       1.65406516 Ry

[...]

     total energy              =    -211.37656697 Ry
     Harris-Foulkes estimate   =    -211.37656898 Ry
     estimated scf accuracy    <       0.00000926 Ry

     iteration # 17     ecut=    45.00 Ry     beta= 0.70
     Davidson diagonalization with overlap
     ethr =  2.79E-09,  avg # of iterations =  3.0

     End of self-consistent calculation

          k = 0.0000 0.0000 0.0000 (  6645 PWs)   bands (ev):

    -8.2064  -8.0486  -7.9820  -7.0255  -6.8431  -6.7105   0.0596   0.4597
     0.7659   3.2341   3.2946   3.2995   3.3370   3.4296   3.4308   3.6342
     4.2194   4.3453   4.4295   4.4606   4.4723   4.5147   4.5835   5.0452
     5.7120   6.1227   6.5309   8.4670   8.5593   8.5968   8.6326   8.6762

[...]

          k = 0.3333-0.3796-0.0142 (  6534 PWs)   bands (ev):

[...]

          k =-0.5000 0.2822 0.0145 (  6536 PWs)   bands (ev):

[...]

          k =-0.5000-0.2922 0.0010 (  6528 PWs)   bands (ev):

    -6.4127  -6.2803  -6.2573  -6.0951  -6.0155  -5.9487   0.2013   0.3293
     0.3746   1.0709   1.2565   1.3195   1.7442   1.9676   2.1026   2.6794
     2.7894   2.7972   3.8246   4.1120   4.4262   4.8237   4.9533   5.0123
     5.2707   5.3590   5.4559   7.9394   7.9810   8.0303   8.4308   8.5167

     the Fermi energy is     6.7646 ev

!    total energy              =    -211.37656724 Ry
     Harris-Foulkes estimate   =    -211.37656771 Ry
     estimated scf accuracy    <       0.00000050 Ry

     The total energy is the sum of the following terms:

     one-electron contribution =    -125.30896773 Ry
     hartree contribution      =      92.75497538 Ry
     xc contribution           =     -83.59320530 Ry
     ewald contribution        =     -95.22951545 Ry
     smearing contrib. (-TS)   =       0.00014586 Ry

     convergence has been achieved in  17 iterations

     Forces acting on atoms (cartesian axes, Ry/au):

     atom    1 type  1   force =     0.00300763    0.00398393   -0.00387318
     atom    2 type  1   force =     0.00788320    0.00707834   -0.01285666
     atom    3 type  1   force =    -0.00875006    0.00110357    0.01169597
     atom    4 type  2   force =     0.00667303    0.00753040   -0.00479728
     atom    5 type  2   force =    -0.00216095   -0.01046445   -0.00384720
     atom    6 type  2   force =    -0.00109000    0.00510209    0.00081693
     atom    7 type  2   force =    -0.01125126    0.02118053    0.00794736
     atom    8 type  2   force =     0.00386086   -0.02683389    0.01304754
     atom    9 type  2   force =     0.00182754   -0.00868051   -0.00813348

     Total force =     0.050016     Total SCF correction =     0.001925

     General routines

     Parallel routines

   This run was terminated on:  17:50:41  10Nov2021

   JOB DONE.