     Program PWSCF v.6.4 starts on  2Dec2021 at 10:42: 7

     R & G space division:  proc/nbgrp/npool/nimage =      40
     Waiting for input...
     Reading input from standard input
Warning: card    &IONS ignored
Warning: card      ION_DYNAMICS = 'BFGS' ignored
Warning: card   / ignored
Warning: card    &CELL ignored
Warning: card      CELL_DYNAMICS = 'BFGS', ignored
Warning: card    / ignored

     Current dimensions of program PWSCF are:
     Max number of different atomic species (ntypx) = 10
     Max number of k-points (npk) =  40000
     Max angular momentum in pseudopotentials (lmaxx) =  3

     bravais-lattice index     =            0
     lattice parameter (alat)  =      11.8888  a.u.
     unit-cell volume          =    3594.3274 (a.u.)^3
     number of atoms/cell      =           24
     number of atomic types    =            2
     number of electrons       =       144.00
     number of Kohn-Sham states=           86
     kinetic-energy cutoff     =      45.0000  Ry
     charge density cutoff     =     360.0000  Ry
     convergence threshold     =      1.0E-06
     mixing beta               =       0.7000
     number of iterations used =            8  local-TF  mixing
     Exchange-correlation      = SLA PW GGX GGC ( 1  4  2  2 0 0)

     celldm(1)=  11.888768  celldm(2)=   0.000000  celldm(3)=   0.000000
     celldm(4)=   0.000000  celldm(5)=   0.000000  celldm(6)=   0.000000

     crystal axes: (cart. coord. in units of alat)
               a(1) = (   1.000000   0.000000   0.000000 )
               a(2) = (  -0.059835   1.067010   0.000000 )
               a(3) = (  -0.437522  -0.094561   2.004651 )

     reciprocal axes: (cart. coord. in units 2 pi/alat)
               b(1) = (  1.000000  0.056077  0.220899 )
               b(2) = (  0.000000  0.937199  0.044208 )
               b(3) = (  0.000000  0.000000  0.498840 )

     PseudoPot. # 1 for Mo read from file:
     ~/pseudo/Mo.pw91-n-van.UPF
     MD5 check sum: Not computed, couldn't open file
     Pseudo is Ultrasoft + core correction, Zval =  6.0
     Generated by new atomic code, or converted to UPF format
     Using radial grid of  965 points,  3 beta functions with:
                l(1) =   1
                l(2) =   2
                l(3) =   2
     Q(r) pseudized with  8 coefficients,  rinner =    1.000   1.000   1.000
                                                       1.200   1.200

     PseudoPot. # 2 for S  read from file:
     ~/pseudo/S.pw91-van_ak.UPF
     MD5 check sum: Not computed, couldn't open file
     Pseudo is Ultrasoft, Zval =  6.0
     Generated by new atomic code, or converted to UPF format
     Using radial grid of  811 points,  6 beta functions with:
                l(1) =   0
                l(2) =   0
                l(3) =   1
                l(4) =   1
                l(5) =   2
                l(6) =   2
     Q(r) pseudized with  8 coefficients,  rinner =    1.100   1.100   1.100
                                                       1.100   1.100

     atomic species   valence    mass     pseudopotential
        Mo             6.00    95.50000     Mo( 1.00)
        S              6.00    32.06500     S ( 1.00)

     No symmetry found

   Cartesian axes

     site n.     atom                  positions (alat units)
         1           Mo  tau(   1) = (   0.6245162   0.3637203   0.1342360  )
         2           Mo  tau(   2) = (   0.5828231   0.1405652   0.5531329  )
         3           Mo  tau(   3) = (  -0.2622224   0.6709831   1.2835704  )
         4           Mo  tau(   4) = (   0.0207335   0.1462478   0.2472981  )
         5           Mo  tau(   5) = (   0.2284046   0.6627936   1.2749572  )
         6           Mo  tau(   6) = (   0.5624909   0.9954735   0.1218125  )
         7           Mo  tau(   7) = (   0.4744653   0.9339110   0.9957602  )
         8           Mo  tau(   8) = (   0.4976882   0.4046947   0.9927648  )
         9           S   tau(   9) = (  -0.0201118   0.4234179   1.4233959  )
        10           S   tau(  10) = (   0.2903387   0.1199992   0.8225043  )
        11           S   tau(  11) = (   0.4804370   0.9334798   1.3727005  )
        12           S   tau(  12) = (   0.2328838   0.6555626   0.8893106  )
        13           S   tau(  13) = (   0.4119740   0.0561636   1.9169314  )
        14           S   tau(  14) = (   0.7672791   0.9388609   0.4288716  )
        15           S   tau(  15) = (   0.4837753   0.3892866   1.3602071  )
        16           S   tau(  16) = (   0.7831410   0.1525534   0.8900833  )
        17           S   tau(  17) = (  -0.0076817   0.8384891   1.5586408  )
        18           S   tau(  18) = (   0.8328374   0.4180036   0.4399010  )
        19           S   tau(  19) = (  -0.0133130   0.9781189   1.2469908  )
        20           S   tau(  20) = (   0.7380134   0.6780125   0.9024571  )
        21           S   tau(  21) = (  -0.0973524   0.0561847   1.9737007  )
        22           S   tau(  22) = (   0.2645133   0.9549692   0.3664909  )
        23           S   tau(  23) = (   0.2490280   0.5884138   1.9483375  )
        24           S   tau(  24) = (   0.3291038   0.3948286   0.3803185  )

     number of k points=    10  Marzari-Vanderbilt smearing, width (Ry)=  0.0200
                       cart. coord. in units 2pi/alat
        k(    1) = (   0.0000000   0.0000000   0.0000000), wk =   0.1111111
        k(    2) = (   0.0000000   0.0000000  -0.2494200), wk =   0.1111111
        k(    3) = (   0.0000000   0.3123996   0.0147361), wk =   0.2222222
        k(    4) = (   0.0000000   0.3123996  -0.2346839), wk =   0.2222222
        k(    5) = (   0.3333333   0.0186923   0.0736329), wk =   0.2222222
        k(    6) = (   0.3333333   0.0186923  -0.1757871), wk =   0.2222222
        k(    7) = (   0.3333333   0.3310919   0.0883690), wk =   0.2222222
        k(    8) = (   0.3333333   0.3310919  -0.1610510), wk =   0.2222222
        k(    9) = (   0.3333333  -0.2937072   0.0588968), wk =   0.2222222
        k(   10) = (   0.3333333  -0.2937072  -0.1905232), wk =   0.2222222

     Initial potential from superposition of free atoms

     starting charge  143.98738, renormalised to  144.00000
     Starting wfcs are  136 randomized atomic wfcs

     Self-consistent Calculation

     iteration #  1     ecut=    45.00 Ry     beta= 0.70
     Davidson diagonalization with overlap
     ethr =  1.00E-02,  avg # of iterations =  2.0

     total energy              =    -562.07797785 Ry
     Harris-Foulkes estimate   =    -563.76989892 Ry
     estimated scf accuracy    <       4.34330895 Ry

[...]

     iteration #  6     ecut=    45.00 Ry     beta= 0.70
     Davidson diagonalization with overlap
     c_bands:  1 eigenvalues not converged
     c_bands:  1 eigenvalues not converged
     ethr =  1.34E-05,  avg # of iterations = 11.0

[...]

     total energy              =    -562.94260633 Ry
     Harris-Foulkes estimate   =    -562.94260676 Ry
     estimated scf accuracy    <       0.00000348 Ry

     iteration # 13     ecut=    45.00 Ry     beta= 0.70
     Davidson diagonalization with overlap
     ethr =  2.42E-09,  avg # of iterations =  2.3

     End of self-consistent calculation

          k = 0.0000 0.0000 0.0000 ( 18311 PWs)   bands (ev):

    -9.6400  -8.0278  -7.6836  -7.3012  -7.0951  -6.9498  -6.9219  -6.8426
    -6.6928  -6.5830  -6.5810  -6.3695  -6.2875  -6.0987  -6.0217  -5.5400
    -0.4492  -0.1937  -0.0305   0.0856   0.2299   0.4329   0.5828   0.7966
     1.0108   1.1406   1.2652   1.3468   1.4400   1.4999   1.5500   1.6506
     1.7287   1.8861   1.9417   2.0295   2.0565   2.1087   2.2482   2.2536
     2.3837   2.5451   2.6339   2.7908   2.8195   2.8358   2.8764   3.1253
     3.2155   3.3149   3.4200   3.4754   3.7462   3.8488   3.9658   4.0650
     4.0950   4.2390   4.3432   4.4252   4.5308   4.6463   4.8287   4.8712
     5.0909   5.1345   5.2518   5.4732   5.6185   5.6804   5.7214   6.0086
     6.1183   6.2294   6.3295   6.4985   6.7516   7.1328   7.2814   7.3824
     7.5337   7.7113   7.8161   7.8771   8.0793   8.1534

[...]

          k = 0.3333-0.2937-0.1905 ( 18313 PWs)   bands (ev):

    -9.5755  -7.6885  -7.4295  -7.2078  -7.1119  -7.0760  -6.9716  -6.9234
    -6.8670  -6.8043  -6.7511  -6.5294  -6.3265  -6.2258  -6.0749  -5.4869
     0.0616   0.3118   0.5298   0.5851   0.7573   0.8538   0.9121   0.9705
     1.0785   1.1383   1.2125   1.3104   1.3561   1.4519   1.5110   1.6444
     1.7126   1.7432   1.8447   1.9489   2.0876   2.1297   2.1573   2.2987
     2.4465   2.4791   2.5398   2.6887   2.7217   2.8025   2.8323   2.8993
     3.0191   3.1410   3.1969   3.2636   3.3323   3.3778   3.5704   3.6397
     3.8124   3.8442   4.0087   4.1144   4.4077   4.5227   4.7365   4.9085
     5.1022   5.2667   5.3355   5.4692   5.6674   5.8329   5.9197   6.1088
     6.2632   6.3478   6.4217   6.6845   6.7907   7.0199   7.2069   7.2566
     7.3049   7.4140   7.6706   7.7545   7.8456   7.9442

     the Fermi energy is     6.1168 ev

!    total energy              =    -562.94260618 Ry
     Harris-Foulkes estimate   =    -562.94260669 Ry
     estimated scf accuracy    <       0.00000062 Ry

     The total energy is the sum of the following terms:

     one-electron contribution =     -75.69862061 Ry
     hartree contribution      =     116.13392738 Ry
     xc contribution           =    -222.40521071 Ry
     ewald contribution        =    -380.97146919 Ry
     smearing contrib. (-TS)   =      -0.00123306 Ry

     convergence has been achieved in  13 iterations

     Forces acting on atoms (cartesian axes, Ry/au):

     atom    1 type  1   force =     0.01208337    0.06016176   -0.01518793
     atom    2 type  1   force =    -0.03606412    0.00050595    0.03408122
     atom    3 type  1   force =     0.03522087    0.00869192   -0.01050062
     atom    4 type  1   force =    -0.00560344    0.00657481    0.00250260
     atom    5 type  1   force =    -0.01369679    0.00147657   -0.00909850
     atom    6 type  1   force =     0.01322397   -0.06265096   -0.00603221
     atom    7 type  1   force =    -0.01383505    0.01968756   -0.03392776
     atom    8 type  1   force =    -0.00916949   -0.01692855   -0.03068306
     atom    9 type  2   force =     0.00181134   -0.04275800   -0.01028207
     atom   10 type  2   force =     0.03168993    0.00049396   -0.00740928
     atom   11 type  2   force =     0.00186801    0.01776438    0.02518946
     atom   12 type  2   force =    -0.02467285   -0.00107111   -0.00580623
     atom   13 type  2   force =    -0.00065251    0.00311649   -0.01109753
     atom   14 type  2   force =     0.01063288   -0.00952112    0.00826805
     atom   15 type  2   force =    -0.00116595   -0.00943452    0.04460859
     atom   16 type  2   force =    -0.01767698   -0.00679411   -0.00313601
     atom   17 type  2   force =     0.00337867    0.03003170   -0.03482054
     atom   18 type  2   force =     0.00582746    0.00139254    0.00254342
     atom   19 type  2   force =    -0.00549534   -0.01157880    0.04533337
     atom   20 type  2   force =     0.03006413    0.00819722   -0.00658604
     atom   21 type  2   force =    -0.01526717    0.00422635    0.01504505
     atom   22 type  2   force =     0.01192642    0.01033344   -0.00281907
     atom   23 type  2   force =    -0.01665672   -0.00050174    0.01357038
     atom   24 type  2   force =     0.00222938   -0.01141572   -0.00375531

     Total force =     0.172082     Total SCF correction =     0.001733

     General routines

     Parallel routines

   This run was terminated on:  10:43:14   2Dec2021

   JOB DONE.