     Program PWSCF v.6.4 starts on  6Aug2021 at  0:39: 9

     R & G space division:  proc/nbgrp/npool/nimage =      40
     Waiting for input...
     Reading input from standard input
Warning: card    &IONS ignored
Warning: card      ION_DYNAMICS = 'BFGS' ignored
Warning: card   / ignored
Warning: card    &CELL ignored
Warning: card      CELL_DYNAMICS = 'BFGS', ignored
Warning: card    / ignored

     Current dimensions of program PWSCF are:
     Max number of different atomic species (ntypx) = 10
     Max number of k-points (npk) =  40000
     Max angular momentum in pseudopotentials (lmaxx) =  3

     bravais-lattice index     =            0
     lattice parameter (alat)  =      13.6532  a.u.
     unit-cell volume          =    6769.9099 (a.u.)^3
     number of atoms/cell      =           24
     number of atomic types    =            2
     number of electrons       =       144.00
     number of Kohn-Sham states=           86
     kinetic-energy cutoff     =      45.0000  Ry
     charge density cutoff     =     360.0000  Ry
     convergence threshold     =      1.0E-06
     mixing beta               =       0.7000
     number of iterations used =            8  local-TF  mixing
     Exchange-correlation      = SLA PW GGX GGC ( 1  4  2  2 0 0)

     celldm(1)=  13.653175  celldm(2)=   0.000000  celldm(3)=   0.000000
     celldm(4)=   0.000000  celldm(5)=   0.000000  celldm(6)=   0.000000

     crystal axes: (cart. coord. in units of alat)
               a(1) = (   0.999989   0.000895   0.004560 )
               a(2) = (  -0.524240   0.845439  -0.005652 )
               a(3) = (  -0.045339   0.078915   3.144075 )

     reciprocal axes: (cart. coord. in units 2 pi/alat)
               b(1) = (  0.999461  0.619739 -0.001143 )
               b(2) = ( -0.000923  1.182047 -0.029682 )
               b(3) = ( -0.001451  0.001226  0.318007 )

     PseudoPot. # 1 for Mo read from file:
     ~/pseudo/Mo.pw91-n-van.UPF
     MD5 check sum: Not computed, couldn't open file
     Pseudo is Ultrasoft + core correction, Zval =  6.0
     Generated by new atomic code, or converted to UPF format
     Using radial grid of  965 points,  3 beta functions with:
                l(1) =   1
                l(2) =   2
                l(3) =   2
     Q(r) pseudized with  8 coefficients,  rinner =    1.000   1.000   1.000
                                                       1.200   1.200

     PseudoPot. # 2 for S  read from file:
     ~/pseudo/S.pw91-van_ak.UPF
     MD5 check sum: Not computed, couldn't open file
     Pseudo is Ultrasoft, Zval =  6.0
     Generated by new atomic code, or converted to UPF format
     Using radial grid of  811 points,  6 beta functions with:
                l(1) =   0
                l(2) =   0
                l(3) =   1
                l(4) =   1
                l(5) =   2
                l(6) =   2
     Q(r) pseudized with  8 coefficients,  rinner =    1.100   1.100   1.100
                                                       1.100   1.100

     atomic species   valence    mass     pseudopotential
        Mo             6.00    95.50000     Mo( 1.00)
        S              6.00    32.06500     S ( 1.00)

     No symmetry found

   Cartesian axes

     site n.     atom                  positions (alat units)
         1           Mo  tau(   1) = (   0.3814149   0.1449664   0.5509633  )
         2           Mo  tau(   2) = (   0.0161799   0.5070260   0.4586416  )
         3           Mo  tau(   3) = (   0.8602459   0.1019177   0.4703033  )
         4           Mo  tau(   4) = (   0.5911228   0.5591689   0.5294598  )
         5           Mo  tau(   5) = (  -0.1415295   0.4097937   2.6927093  )
         6           Mo  tau(   6) = (  -0.4178149   0.8026843   2.6113859  )
         7           Mo  tau(   7) = (   0.3196134   0.4003012   2.6443735  )
         8           Mo  tau(   8) = (   0.0926755   0.8146079   2.6162712  )
         9           S   tau(   9) = (  -0.1656090   0.3704217   0.6907790  )
        10           S   tau(  10) = (  -0.4081657   0.8396411   0.7034440  )
        11           S   tau(  11) = (   0.3615909   0.3900841   0.7438263  )
        12           S   tau(  12) = (   0.0778943   0.7802083   0.6728191  )
        13           S   tau(  13) = (   0.0926769   0.2344512   2.8499757  )
        14           S   tau(  14) = (  -0.1694866   0.6965226   2.8476966  )
        15           S   tau(  15) = (   0.5905478   0.2564354   2.8442812  )
        16           S   tau(  16) = (   0.3321322   0.6790433   2.8313204  )
        17           S   tau(  17) = (   0.1424772   0.2217448   0.3148727  )
        18           S   tau(  18) = (  -0.1924438   0.6323100   0.2574605  )
        19           S   tau(  19) = (   0.6004779   0.2388530   0.3134228  )
        20           S   tau(  20) = (   0.3309591   0.6329580   0.3218845  )
        21           S   tau(  21) = (   0.3515709   0.1142585   2.4263817  )
        22           S   tau(  22) = (   0.0751903   0.5322895   2.4407167  )
        23           S   tau(  23) = (   0.8596393   0.1221684   2.4472039  )
        24           S   tau(  24) = (   0.5914182   0.5184763   2.4583432  )

     number of k points=     5  Marzari-Vanderbilt smearing, width (Ry)=  0.0200
                       cart. coord. in units 2pi/alat
        k(    1) = (   0.0000000   0.0000000   0.0000000), wk =   0.2222222
        k(    2) = (  -0.0003077   0.3940157  -0.0098940), wk =   0.4444444
        k(    3) = (   0.3331537   0.2065796  -0.0003809), wk =   0.4444444
        k(    4) = (   0.3328460   0.6005953  -0.0102749), wk =   0.4444444
        k(    5) = (   0.3334614  -0.1874361   0.0095132), wk =   0.4444444

     Initial potential from superposition of free atoms

     starting charge  143.98738, renormalised to  144.00000

     negative rho (up, down):  6.362E-04 0.000E+00
     Starting wfcs are  136 randomized atomic wfcs

     Self-consistent Calculation

     iteration #  1     ecut=    45.00 Ry     beta= 0.70
     Davidson diagonalization with overlap
     ethr =  1.00E-02,  avg # of iterations =  2.0

     negative rho (up, down):  3.988E-04 0.000E+00

     total energy              =    -561.52537607 Ry
     Harris-Foulkes estimate   =    -564.04147096 Ry
     estimated scf accuracy    <       6.58720548 Ry

[...]

     total energy              =    -562.87220837 Ry
     Harris-Foulkes estimate   =    -562.87220789 Ry
     estimated scf accuracy    <       0.00000102 Ry

     iteration # 20     ecut=    45.00 Ry     beta= 0.70
     Davidson diagonalization with overlap
     ethr =  7.05E-10,  avg # of iterations =  3.8

[...]

     End of self-consistent calculation

          k = 0.0000 0.0000 0.0000 ( 34535 PWs)   bands (ev):

   -13.1259 -13.0180 -12.1679 -12.1002 -12.0926 -12.0066 -11.9946 -11.9613
   -11.9572 -11.8439 -11.7838 -11.7218 -11.6859 -11.5552 -11.5245 -11.4131
    -4.9694  -4.8349  -4.8209  -4.8101  -4.7893  -4.7699  -4.3753  -4.2839
    -3.8805  -3.6238  -3.5218  -3.4983  -3.4653  -3.4438  -3.3977  -3.3462
    -3.2849  -3.2727  -3.1843  -3.0843  -3.0508  -3.0324  -3.0098  -2.9928
    -2.9454  -2.8932  -2.8577  -2.8438  -2.7316  -2.6351  -2.2457  -2.1399
    -2.0649  -1.7777  -1.7240  -1.6560  -1.5343  -1.4420  -1.4144  -1.3425
    -1.2686  -1.2583  -1.2049  -0.9842  -0.8983  -0.8173  -0.5023  -0.3705
    -0.2434  -0.1819  -0.1551  -0.0820   0.0650   0.0867   0.1089   0.1391
     0.5187   0.7717   0.8406   0.9190   0.9450   1.1914   1.2213   1.3567
     1.3858   1.4921   1.5453   1.6351   1.6552   1.7643

          k =-0.0003 0.3940-0.0099 ( 34519 PWs)   bands (ev):

[...]

          k = 0.3335-0.1874 0.0095 ( 34483 PWs)   bands (ev):

   -12.8855 -12.7780 -12.3539 -12.2630 -12.0969 -12.0442 -12.0070 -11.9759
   -11.8833 -11.8640 -11.8570 -11.7701 -11.7632 -11.5872 -11.5818 -11.4505
    -4.6518  -4.4790  -4.4701  -4.4022  -4.3396  -4.2662  -4.1268  -4.0053
    -3.9605  -3.8891  -3.8350  -3.7736  -3.7412  -3.6879  -3.6143  -3.5345
    -3.3378  -3.2275  -3.1584  -3.1139  -3.0422  -2.9840  -2.9620  -2.9186
    -2.8998  -2.8201  -2.7796  -2.6239  -2.5724  -2.5272  -2.4383  -2.4173
    -2.1922  -2.1851  -2.1253  -1.9470  -1.8866  -1.7814  -1.7175  -1.5276
    -1.4276  -1.3188  -1.2768  -1.1478  -1.0772  -0.9198  -0.8175  -0.7653
    -0.1645  -0.1097   0.0779   0.1991   0.2974   0.3671   0.4459   0.5998
     0.6920   0.7213   0.9717   1.0355   1.1029   1.1883   1.3414   1.4159
     1.4447   1.4993   1.5717   1.7220   1.7632   1.9721

     the Fermi energy is     0.6043 ev

!    total energy              =    -562.87220815 Ry
     Harris-Foulkes estimate   =    -562.87220855 Ry
     estimated scf accuracy    <       0.00000092 Ry

     The total energy is the sum of the following terms:

     one-electron contribution =   -2131.68587187 Ry
     hartree contribution      =    1115.71033536 Ry
     xc contribution           =    -220.80127643 Ry
     ewald contribution        =     673.90401836 Ry
     smearing contrib. (-TS)   =       0.00058641 Ry

     convergence has been achieved in  20 iterations

     negative rho (up, down):  9.412E-04 0.000E+00

     Forces acting on atoms (cartesian axes, Ry/au):

     atom    1 type  1   force =     0.02463102   -0.00022257   -0.00320333
     atom    2 type  1   force =     0.00351704   -0.01157073   -0.01707952
     atom    3 type  1   force =     0.00074179    0.00896224    0.03475905
     atom    4 type  1   force =     0.02540349   -0.02941733   -0.02705920
     atom    5 type  1   force =     0.02133989    0.00885037   -0.04441907
     atom    6 type  1   force =    -0.00188242    0.01334959    0.00883307
     atom    7 type  1   force =    -0.03556010    0.01606388   -0.00055100
     atom    8 type  1   force =     0.00662257   -0.02607768    0.01912696
     atom    9 type  2   force =    -0.01900608    0.00051855    0.00389083
     atom   10 type  2   force =    -0.01377517   -0.02250796   -0.02089881
     atom   11 type  2   force =     0.00780697    0.02022772   -0.01766742
     atom   12 type  2   force =     0.01410679   -0.00868422   -0.01579082
     atom   13 type  2   force =     0.00655168    0.00945008   -0.00526628
     atom   14 type  2   force =     0.00893060   -0.00575235   -0.02315643
     atom   15 type  2   force =     0.00240693    0.00473023   -0.02977756
     atom   16 type  2   force =    -0.00238053    0.00312119   -0.00774522
     atom   17 type  2   force =    -0.03276728    0.00815722    0.00043519
     atom   18 type  2   force =     0.00283024    0.00991781    0.03386581
     atom   19 type  2   force =     0.00579367    0.00535850    0.00632763
     atom   20 type  2   force =    -0.01975043    0.01888895    0.02062363
     atom   21 type  2   force =    -0.00222192   -0.00405917    0.03724950
     atom   22 type  2   force =    -0.00726740   -0.00763312    0.01359226
     atom   23 type  2   force =    -0.00184827   -0.00065790    0.01912561
     atom   24 type  2   force =     0.00577691   -0.01101330    0.01478512

     Total force =     0.143865     Total SCF correction =     0.001727

     General routines

     Parallel routines

   This run was terminated on:   0:40:50   6Aug2021

   JOB DONE.