     Program PWSCF v.6.4 starts on 14Oct2021 at 11: 1:42

     R & G space division:  proc/nbgrp/npool/nimage =      40
     Waiting for input...
     Reading input from standard input
Warning: card    &IONS ignored
Warning: card      ION_DYNAMICS = 'BFGS' ignored
Warning: card   / ignored
Warning: card    &CELL ignored
Warning: card      CELL_DYNAMICS = 'BFGS', ignored
Warning: card    / ignored

     Current dimensions of program PWSCF are:
     Max number of different atomic species (ntypx) = 10
     Max number of k-points (npk) =  40000
     Max angular momentum in pseudopotentials (lmaxx) =  3

     bravais-lattice index     =            0
     lattice parameter (alat)  =       6.0502  a.u.
     unit-cell volume          =    1819.7305 (a.u.)^3
     number of atoms/cell      =           12
     number of atomic types    =            2
     number of electrons       =        72.00
     number of Kohn-Sham states=           43
     kinetic-energy cutoff     =      45.0000  Ry
     charge density cutoff     =     360.0000  Ry
     convergence threshold     =      1.0E-06
     mixing beta               =       0.7000
     number of iterations used =            8  local-TF  mixing
     Exchange-correlation      = SLA PW GGX GGC ( 1  4  2  2 0 0)

     celldm(1)=   6.050241  celldm(2)=   0.000000  celldm(3)=   0.000000
     celldm(4)=   0.000000  celldm(5)=   0.000000  celldm(6)=   0.000000

     crystal axes: (cart. coord. in units of alat)
               a(1) = (   1.000000   0.000000   0.000000 )
               a(2) = (   0.049366   1.848308   0.000000 )
               a(3) = (   0.621358   0.145868   4.445440 )

     reciprocal axes: (cart. coord. in units 2 pi/alat)
               b(1) = (  1.000000 -0.026709 -0.138898 )
               b(2) = (  0.000000  0.541035 -0.017753 )
               b(3) = (  0.000000  0.000000  0.224950 )

     PseudoPot. # 1 for Mo read from file:
     ~/pseudo/Mo.pw91-n-van.UPF
     MD5 check sum: Not computed, couldn't open file
     Pseudo is Ultrasoft + core correction, Zval =  6.0
     Generated by new atomic code, or converted to UPF format
     Using radial grid of  965 points,  3 beta functions with:
                l(1) =   1
                l(2) =   2
                l(3) =   2
     Q(r) pseudized with  8 coefficients,  rinner =    1.000   1.000   1.000
                                                       1.200   1.200

     PseudoPot. # 2 for S  read from file:
     ~/pseudo/S.pw91-van_ak.UPF
     MD5 check sum: Not computed, couldn't open file
     Pseudo is Ultrasoft, Zval =  6.0
     Generated by new atomic code, or converted to UPF format
     Using radial grid of  811 points,  6 beta functions with:
                l(1) =   0
                l(2) =   0
                l(3) =   1
                l(4) =   1
                l(5) =   2
                l(6) =   2
     Q(r) pseudized with  8 coefficients,  rinner =    1.100   1.100   1.100
                                                       1.100   1.100

     atomic species   valence    mass     pseudopotential
        Mo             6.00    95.50000     Mo( 1.00)
        S              6.00    32.06500     S ( 1.00)

     No symmetry found

   Cartesian axes

     site n.     atom                  positions (alat units)
         1           Mo  tau(   1) = (   0.7208034   1.2724857   2.7808665  )
         2           Mo  tau(   2) = (   1.1496597   0.1285871   2.8081991  )
         3           Mo  tau(   3) = (   0.6157411   1.8091904   0.3733250  )
         4           Mo  tau(   4) = (   0.1633947   1.0907846   0.3585417  )
         5           S   tau(   5) = (   0.1279977   1.6233458   0.8891126  )
         6           S   tau(   6) = (   1.1957568   1.4885281   2.2627224  )
         7           S   tau(   7) = (   0.6527941   0.5970034   2.4048956  )
         8           S   tau(   8) = (   0.7080461   1.7988447   3.3304572  )
         9           S   tau(   9) = (   0.7012895   0.5599633   4.4052940  )
        10           S   tau(  10) = (   1.1943825   0.8282881   3.1999847  )
        11           S   tau(  11) = (   1.2626220   1.4226305   4.2874056  )
        12           S   tau(  12) = (   0.6489023   0.6684937   0.7641155  )

     number of k points=    16  Marzari-Vanderbilt smearing, width (Ry)=  0.0200
                       cart. coord. in units 2pi/alat
        k(    1) = (   0.0000000   0.0000000   0.0000000), wk =   0.0666667
        k(    2) = (   0.0000000   0.0000000  -0.1124748), wk =   0.0666667
        k(    3) = (   0.0000000   0.1803452  -0.0059177), wk =   0.1333333
        k(    4) = (   0.0000000   0.1803452  -0.1183925), wk =   0.1333333
        k(    5) = (   0.2000000  -0.0053417  -0.0277796), wk =   0.1333333
        k(    6) = (   0.2000000  -0.0053417  -0.1402544), wk =   0.1333333
        k(    7) = (   0.2000000   0.1750035  -0.0336973), wk =   0.1333333
        k(    8) = (   0.2000000   0.1750035  -0.1461721), wk =   0.1333333
        k(    9) = (   0.2000000  -0.1856869  -0.0218619), wk =   0.1333333
        k(   10) = (   0.2000000  -0.1856869  -0.1343367), wk =   0.1333333
        k(   11) = (   0.4000000  -0.0106834  -0.0555592), wk =   0.1333333
        k(   12) = (   0.4000000  -0.0106834  -0.1680340), wk =   0.1333333
        k(   13) = (   0.4000000   0.1696617  -0.0614768), wk =   0.1333333
        k(   14) = (   0.4000000   0.1696617  -0.1739516), wk =   0.1333333
        k(   15) = (   0.4000000  -0.1910286  -0.0496415), wk =   0.1333333
        k(   16) = (   0.4000000  -0.1910286  -0.1621163), wk =   0.1333333

     Initial potential from superposition of free atoms

     starting charge   71.99369, renormalised to   72.00000
     Starting wfcs are   68 randomized atomic wfcs

     Self-consistent Calculation

     iteration #  1     ecut=    45.00 Ry     beta= 0.70
     Davidson diagonalization with overlap
     ethr =  1.00E-02,  avg # of iterations =  2.0

     total energy              =    -281.16019711 Ry
     Harris-Foulkes estimate   =    -282.07427186 Ry
     estimated scf accuracy    <       2.38463819 Ry

[...]

     total energy              =    -281.64283981 Ry
     Harris-Foulkes estimate   =    -281.64284062 Ry
     estimated scf accuracy    <       0.00000441 Ry

     iteration # 14     ecut=    45.00 Ry     beta= 0.70
     Davidson diagonalization with overlap
     ethr =  6.13E-09,  avg # of iterations =  1.6

     End of self-consistent calculation

          k = 0.0000 0.0000 0.0000 (  9289 PWs)   bands (ev):

    -8.6332  -8.5369  -7.6862  -7.5804  -6.9517  -6.9036  -6.7366  -6.6166
    -0.5015  -0.4068  -0.0003   0.3471   0.8887   0.9783   1.0767   1.1770
     1.9923   2.1304   2.1443   2.2112   2.3761   2.5097   2.9107   3.1079
     3.4799   3.8342   3.9641   4.1191   4.2898   4.3791   4.8798   5.0181
     5.1657   5.3741   5.4661   5.5256   5.8161   6.0025   6.0162   6.1207
     7.0616   7.3034   7.6897

[...]

          k = 0.4000-0.1910-0.1621 (  9264 PWs)   bands (ev):

    -7.3050  -7.2357  -7.1691  -7.1202  -6.8041  -6.7052  -6.2772  -6.2134
    -0.2583  -0.2225   0.1373   0.1954   0.5559   0.6243   1.1138   1.2524
     1.4761   1.5481   1.7119   1.7958   1.8218   1.9056   2.3665   2.4186
     2.8532   2.9699   3.0004   3.0168   3.2652   3.3938   4.0012   4.1199
     4.3656   4.4494   4.6731   4.7442   6.8016   6.8544   7.0516   7.1181
     7.7265   7.8719   7.9879

     the Fermi energy is     5.5241 ev

!    total energy              =    -281.64283975 Ry
     Harris-Foulkes estimate   =    -281.64284011 Ry
     estimated scf accuracy    <       0.00000040 Ry

     The total energy is the sum of the following terms:

     one-electron contribution =     -97.97712317 Ry
     hartree contribution      =      87.39236884 Ry
     xc contribution           =    -111.38790355 Ry
     ewald contribution        =    -159.67503650 Ry
     smearing contrib. (-TS)   =       0.00485464 Ry

     convergence has been achieved in  14 iterations

     Forces acting on atoms (cartesian axes, Ry/au):

     atom    1 type  1   force =    -0.03256717   -0.03791743    0.00780204
     atom    2 type  1   force =     0.01198174    0.07721282    0.03293947
     atom    3 type  1   force =     0.02374411    0.04758771   -0.01263256
     atom    4 type  1   force =    -0.03142442   -0.02388595    0.00008334
     atom    5 type  2   force =    -0.00171340    0.00174094    0.04452755
     atom    6 type  2   force =     0.01394184   -0.02313394   -0.04792309
     atom    7 type  2   force =     0.01966856   -0.03216776   -0.02150164
     atom    8 type  2   force =    -0.00268068   -0.00240793    0.02167717
     atom    9 type  2   force =     0.02478446   -0.03209657   -0.00400903
     atom   10 type  2   force =    -0.00975380    0.01853798    0.00458284
     atom   11 type  2   force =     0.00883789    0.01054950   -0.04453569
     atom   12 type  2   force =    -0.02481911   -0.00401939    0.01898959

     Total force =     0.164205     Total SCF correction =     0.001212

     General routines

     Parallel routines

   This run was terminated on:  11: 2:11  14Oct2021

   JOB DONE.