     Program PWSCF v.6.4 starts on 18Oct2021 at 14: 1:22

     R & G space division:  proc/nbgrp/npool/nimage =      40
     Waiting for input...
     Reading input from standard input
Warning: card    &IONS ignored
Warning: card      ION_DYNAMICS = 'BFGS' ignored
Warning: card   / ignored
Warning: card    &CELL ignored
Warning: card      CELL_DYNAMICS = 'BFGS', ignored
Warning: card    / ignored

     Current dimensions of program PWSCF are:
     Max number of different atomic species (ntypx) = 10
     Max number of k-points (npk) =  40000
     Max angular momentum in pseudopotentials (lmaxx) =  3

     bravais-lattice index     =            0
     lattice parameter (alat)  =       6.0677  a.u.
     unit-cell volume          =    4844.9765 (a.u.)^3
     number of atoms/cell      =           24
     number of atomic types    =            2
     number of electrons       =       144.00
     number of Kohn-Sham states=           86
     kinetic-energy cutoff     =      45.0000  Ry
     charge density cutoff     =     360.0000  Ry
     convergence threshold     =      1.0E-06
     mixing beta               =       0.7000
     number of iterations used =            8  local-TF  mixing
     Exchange-correlation      = SLA PW GGX GGC ( 1  4  2  2 0 0)

     celldm(1)=   6.067727  celldm(2)=   0.000000  celldm(3)=   0.000000
     celldm(4)=   0.000000  celldm(5)=   0.000000  celldm(6)=   0.000000

     crystal axes: (cart. coord. in units of alat)
               a(1) = (   1.000000   0.000000   0.000000 )
               a(2) = (  -0.008317   1.775956   0.000000 )
               a(3) = (  -0.251250   1.999157  12.211851 )

     reciprocal axes: (cart. coord. in units 2 pi/alat)
               b(1) = (  1.000000  0.004683  0.019808 )
               b(2) = (  0.000000  0.563077 -0.092179 )
               b(3) = (  0.000000  0.000000  0.081888 )

     PseudoPot. # 1 for Mo read from file:
     ~/pseudo/Mo.pw91-n-van.UPF
     MD5 check sum: Not computed, couldn't open file
     Pseudo is Ultrasoft + core correction, Zval =  6.0
     Generated by new atomic code, or converted to UPF format
     Using radial grid of  965 points,  3 beta functions with:
                l(1) =   1
                l(2) =   2
                l(3) =   2
     Q(r) pseudized with  8 coefficients,  rinner =    1.000   1.000   1.000
                                                       1.200   1.200

     PseudoPot. # 2 for S  read from file:
     ~/pseudo/S.pw91-van_ak.UPF
     MD5 check sum: Not computed, couldn't open file
     Pseudo is Ultrasoft, Zval =  6.0
     Generated by new atomic code, or converted to UPF format
     Using radial grid of  811 points,  6 beta functions with:
                l(1) =   0
                l(2) =   0
                l(3) =   1
                l(4) =   1
                l(5) =   2
                l(6) =   2
     Q(r) pseudized with  8 coefficients,  rinner =    1.100   1.100   1.100
                                                       1.100   1.100

     atomic species   valence    mass     pseudopotential
        Mo             6.00    95.50000     Mo( 1.00)
        S              6.00    32.06500     S ( 1.00)

     No symmetry found

   Cartesian axes

     site n.     atom                  positions (alat units)
         1           Mo  tau(   1) = (   0.2854232   1.3048649   2.3646631  )
         2           Mo  tau(   2) = (   0.3489610   2.1361385   7.3492479  )
         3           Mo  tau(   3) = (   0.8304047   2.2488924   2.2987466  )
         4           Mo  tau(   4) = (  -0.1752310   3.0018157   7.2677849  )
         5           Mo  tau(   5) = (   0.3738675   2.3361180   4.4857465  )
         6           Mo  tau(   6) = (   0.5247892   1.7983428  10.3251304  )
         7           Mo  tau(   7) = (   0.8202198   1.4410646   4.4926031  )
         8           Mo  tau(   8) = (  -0.0229842   2.6425041  10.3474634  )
         9           S   tau(   9) = (   0.8033121   1.6270523   2.7548029  )
        10           S   tau(  10) = (  -0.1570315   2.3595903   7.8345558  )
        11           S   tau(  11) = (   0.2635605   2.5011374   2.8363474  )
        12           S   tau(  12) = (   0.3241931   3.2569253   7.7601792  )
        13           S   tau(  13) = (   0.8457810   2.0457747   4.9813938  )
        14           S   tau(  14) = (   0.0004010   1.4950583  10.7713808  )
        15           S   tau(  15) = (   0.3676647   1.1572847   4.9111181  )
        16           S   tau(  16) = (   0.4473267   2.4215874  10.8146492  )
        17           S   tau(  17) = (   0.8156253   1.6087316   1.8034879  )
        18           S   tau(  18) = (  -0.1877485   2.3451793   6.8787704  )
        19           S   tau(  19) = (   0.3269173   2.5424977   1.8336604  )
        20           S   tau(  20) = (   0.3604991   3.2613621   6.8165801  )
        21           S   tau(  21) = (   0.8481196   2.0133432   3.9425128  )
        22           S   tau(  22) = (  -0.0111485   1.5100277   9.8352489  )
        23           S   tau(  23) = (   0.3401445   1.1303170   3.9588004  )
        24           S   tau(  24) = (   0.4730314   2.3370726   9.8521194  )

     number of k points=     8  Marzari-Vanderbilt smearing, width (Ry)=  0.0200
                       cart. coord. in units 2pi/alat
        k(    1) = (   0.0000000   0.0000000   0.0000000), wk =   0.1333333
        k(    2) = (   0.0000000   0.1876924  -0.0307264), wk =   0.2666667
        k(    3) = (   0.2000000   0.0009366   0.0039615), wk =   0.2666667
        k(    4) = (   0.2000000   0.1886290  -0.0267649), wk =   0.2666667
        k(    5) = (   0.2000000  -0.1867558   0.0346879), wk =   0.2666667
        k(    6) = (   0.4000000   0.0018732   0.0079230), wk =   0.2666667
        k(    7) = (   0.4000000   0.1895656  -0.0228034), wk =   0.2666667
        k(    8) = (   0.4000000  -0.1858192   0.0386495), wk =   0.2666667

     Initial potential from superposition of free atoms

     starting charge  143.98738, renormalised to  144.00000

     negative rho (up, down):  1.473E-04 0.000E+00
     Starting wfcs are  136 randomized atomic wfcs

     Self-consistent Calculation

     iteration #  1     ecut=    45.00 Ry     beta= 0.70
     Davidson diagonalization with overlap
     ethr =  1.00E-02,  avg # of iterations =  2.0

     negative rho (up, down):  3.062E-06 0.000E+00

     total energy              =    -562.45837547 Ry
     Harris-Foulkes estimate   =    -564.22899748 Ry
     estimated scf accuracy    <       4.53749735 Ry

[...]

     total energy              =    -563.34743713 Ry
     Harris-Foulkes estimate   =    -563.34743677 Ry
     estimated scf accuracy    <       0.00000136 Ry

     iteration # 20     ecut=    45.00 Ry     beta= 0.70
     Davidson diagonalization with overlap
     ethr =  9.44E-10,  avg # of iterations =  3.0

[...]

     End of self-consistent calculation

          k = 0.0000 0.0000 0.0000 ( 24801 PWs)   bands (ev):

   -11.5596 -11.5520 -11.5365 -11.5174 -10.3723 -10.2841 -10.1971 -10.1890
   -10.0808 -10.0055  -9.9567  -9.9396  -9.4715  -9.4387  -9.4246  -9.3367
    -3.2440  -3.1937  -3.1344  -3.0652  -3.0341  -2.9804  -2.9778  -2.9011
    -2.2395  -2.1386  -2.0524  -2.0101  -1.8111  -1.6121  -1.5890  -1.5004
    -1.1005  -0.9987  -0.9180  -0.7881  -0.6344  -0.5401  -0.5202  -0.5185
    -0.2192  -0.1697  -0.1614  -0.0049   0.2368   0.3058   0.3717   0.4191
     0.4833   0.7787   0.8350   0.8436   0.9132   1.0214   1.0363   1.1663
     1.2060   1.2854   1.3202   1.4093   1.5505   1.6436   1.7161   1.8433
     1.8591   2.0491   2.2941   2.2957   2.7347   2.8134   2.8533   2.8834
     3.9576   4.0317   4.1089   4.3003   4.3064   4.4511   4.5390   4.5804
     4.5972   4.7061   4.8803   4.9139   4.9505   5.0658

[...]

          k = 0.4000-0.1858 0.0386 ( 24611 PWs)   bands (ev):

   -10.4031 -10.2351 -10.1465 -10.0779  -9.9621  -9.8716  -9.8226  -9.7241
    -9.6882  -9.6712  -9.6417  -9.5265  -9.4656  -9.2858  -9.2639  -9.2009
    -3.0303  -2.9667  -2.9392  -2.9355  -2.8829  -2.8709  -2.7757  -2.7592
    -2.3544  -2.3080  -2.2447  -2.2172  -1.9271  -1.8749  -1.7867  -1.7462
    -1.6034  -1.5057  -1.3891  -1.3594  -1.3528  -1.2421  -1.2336  -1.1977
    -0.8485  -0.7710  -0.7200  -0.6110  -0.5995  -0.5746  -0.5394  -0.4151
     0.2343   0.3020   0.4183   0.4514   0.5205   0.5996   0.6120   0.7468
     0.7769   0.9113   0.9588   1.0821   1.1284   1.1317   1.1899   1.2529
     1.5216   1.5870   1.6279   1.8709   2.1031   2.1449   2.3050   2.3556
     3.9931   4.0539   4.2662   4.2737   4.3628   4.4267   4.4542   4.4663
     4.5875   4.5989   4.6772   4.8873   4.8973   4.9093

     the Fermi energy is     2.8524 ev

!    total energy              =    -563.34743641 Ry
     Harris-Foulkes estimate   =    -563.34743728 Ry
     estimated scf accuracy    <       0.00000079 Ry

     The total energy is the sum of the following terms:

     one-electron contribution =   -1539.72904268 Ry
     hartree contribution      =     831.73503546 Ry
     xc contribution           =    -222.88584025 Ry
     ewald contribution        =     367.52052182 Ry
     smearing contrib. (-TS)   =       0.01188925 Ry

     convergence has been achieved in  20 iterations

     negative rho (up, down):  2.268E-04 0.000E+00

     Forces acting on atoms (cartesian axes, Ry/au):

     atom    1 type  1   force =     0.06832469    0.01904877   -0.18071878
     atom    2 type  1   force =    -0.07416073   -0.17911851    0.01629833
     atom    3 type  1   force =    -0.07013373   -0.08322248    0.00916643
     atom    4 type  1   force =     0.05896594   -0.11022118    0.11488134
     atom    5 type  1   force =    -0.06476636   -0.05060773   -0.10616437
     atom    6 type  1   force =    -0.10251303   -0.02912521    0.00150437
     atom    7 type  1   force =     0.12850015    0.07060982   -0.19414375
     atom    8 type  1   force =    -0.04256036    0.10479678   -0.14215904
     atom    9 type  2   force =    -0.03553586    0.05503623    0.11803680
     atom   10 type  2   force =     0.00393708    0.08481021    0.02703989
     atom   11 type  2   force =     0.05192716    0.00139668   -0.00014260
     atom   12 type  2   force =     0.00412342    0.03528178    0.02652057
     atom   13 type  2   force =     0.02593811   -0.00956384   -0.00620303
     atom   14 type  2   force =     0.03748604   -0.01279494    0.08163866
     atom   15 type  2   force =    -0.09492998   -0.04302300    0.16021548
     atom   16 type  2   force =     0.06175689   -0.08375137    0.08672987
     atom   17 type  2   force =    -0.01264463    0.01065744    0.06667166
     atom   18 type  2   force =     0.06710802    0.08659268   -0.11222803
     atom   19 type  2   force =    -0.00185850   -0.00349221   -0.01458938
     atom   20 type  2   force =    -0.06010084    0.08239837   -0.07198535
     atom   21 type  2   force =     0.01208356    0.01924504    0.08992189
     atom   22 type  2   force =     0.03865189   -0.04457942    0.00352929
     atom   23 type  2   force =    -0.00684617    0.01354583    0.05726703
     atom   24 type  2   force =     0.00724724    0.06608027   -0.03108730

     Total force =     0.631455     Total SCF correction =     0.001969

     General routines

     Parallel routines

   This run was terminated on:  14: 2:45  18Oct2021

   JOB DONE.