     Program PWSCF v.6.4 starts on 10Nov2021 at 18: 8: 6

     R & G space division:  proc/nbgrp/npool/nimage =      40
     Waiting for input...
     Reading input from standard input
Warning: card    &IONS ignored
Warning: card      ION_DYNAMICS = 'BFGS' ignored
Warning: card   / ignored
Warning: card    &CELL ignored
Warning: card      CELL_DYNAMICS = 'BFGS', ignored
Warning: card    / ignored

     Current dimensions of program PWSCF are:
     Max number of different atomic species (ntypx) = 10
     Max number of k-points (npk) =  40000
     Max angular momentum in pseudopotentials (lmaxx) =  3

     bravais-lattice index     =            0
     lattice parameter (alat)  =       6.1105  a.u.
     unit-cell volume          =    2517.4531 (a.u.)^3
     number of atoms/cell      =           12
     number of atomic types    =            2
     number of electrons       =        72.00
     number of Kohn-Sham states=           43
     kinetic-energy cutoff     =      45.0000  Ry
     charge density cutoff     =     360.0000  Ry
     convergence threshold     =      1.0E-06
     mixing beta               =       0.7000
     number of iterations used =            8  local-TF  mixing
     Exchange-correlation      = SLA PW GGX GGC ( 1  4  2  2 0 0)

     celldm(1)=   6.110517  celldm(2)=   0.000000  celldm(3)=   0.000000
     celldm(4)=   0.000000  celldm(5)=   0.000000  celldm(6)=   0.000000

     crystal axes: (cart. coord. in units of alat)
               a(1) = (   1.000000   0.000000   0.000000 )
               a(2) = (  -0.502527   0.862240   0.000000 )
               a(3) = (  -0.345629  -0.315695  12.796737 )

     reciprocal axes: (cart. coord. in units 2 pi/alat)
               b(1) = (  1.000000  0.582816  0.041387 )
               b(2) = (  0.000000  1.159770  0.028611 )
               b(3) = (  0.000000  0.000000  0.078145 )

     PseudoPot. # 1 for Mo read from file:
     ~/pseudo/Mo.pw91-n-van.UPF
     MD5 check sum: Not computed, couldn't open file
     Pseudo is Ultrasoft + core correction, Zval =  6.0
     Generated by new atomic code, or converted to UPF format
     Using radial grid of  965 points,  3 beta functions with:
                l(1) =   1
                l(2) =   2
                l(3) =   2
     Q(r) pseudized with  8 coefficients,  rinner =    1.000   1.000   1.000
                                                       1.200   1.200

     PseudoPot. # 2 for S  read from file:
     ~/pseudo/S.pw91-van_ak.UPF
     MD5 check sum: Not computed, couldn't open file
     Pseudo is Ultrasoft, Zval =  6.0
     Generated by new atomic code, or converted to UPF format
     Using radial grid of  811 points,  6 beta functions with:
                l(1) =   0
                l(2) =   0
                l(3) =   1
                l(4) =   1
                l(5) =   2
                l(6) =   2
     Q(r) pseudized with  8 coefficients,  rinner =    1.100   1.100   1.100
                                                       1.100   1.100

     atomic species   valence    mass     pseudopotential
        Mo             6.00    95.50000     Mo( 1.00)
        S              6.00    32.06500     S ( 1.00)

     No symmetry found

   Cartesian axes

     site n.     atom                  positions (alat units)
         1           Mo  tau(   1) = (   0.8584575   0.1953291   1.3693941  )
         2           Mo  tau(   2) = (   0.0751012   0.5170631   8.7824797  )
         3           Mo  tau(   3) = (   0.1985989   0.3307527   3.6608035  )
         4           Mo  tau(   4) = (   0.1715052   0.0500441  11.7807929  )
         5           S   tau(   5) = (  -0.1410322   0.7692387   0.8848552  )
         6           S   tau(   6) = (  -0.4200243   0.2316862   8.2954366  )
         7           S   tau(   7) = (  -0.2991191   0.6150045   3.1747364  )
         8           S   tau(   8) = (  -0.3259907   0.3335332  11.2946201  )
         9           S   tau(   9) = (   0.3547233  -0.0879607   1.8549262  )
        10           S   tau(  10) = (  -0.4310071   0.2301968   9.2693280  )
        11           S   tau(  11) = (  -0.3029764   0.6183126   4.1463876  )
        12           S   tau(  12) = (  -0.3300055   0.3384072  12.2666338  )

     number of k points=    20  Marzari-Vanderbilt smearing, width (Ry)=  0.0200
                       cart. coord. in units 2pi/alat
        k(    1) = (   0.0000000   0.0000000   0.0000000), wk =   0.0555556
        k(    2) = (   0.0000000   0.1932949   0.0047686), wk =   0.1111111
        k(    3) = (   0.0000000   0.3865899   0.0095372), wk =   0.1111111
        k(    4) = (   0.0000000  -0.5798848  -0.0143057), wk =   0.0555556
        k(    5) = (   0.1666667   0.0971360   0.0068979), wk =   0.1111111
        k(    6) = (   0.1666667   0.2904310   0.0116665), wk =   0.1111111
        k(    7) = (   0.1666667   0.4837259   0.0164350), wk =   0.1111111
        k(    8) = (   0.1666667  -0.4827488  -0.0074079), wk =   0.1111111
        k(    9) = (   0.1666667  -0.2894539  -0.0026393), wk =   0.1111111
        k(   10) = (   0.1666667  -0.0961589   0.0021293), wk =   0.1111111
        k(   11) = (   0.3333333   0.1942720   0.0137957), wk =   0.1111111
        k(   12) = (   0.3333333   0.3875670   0.0185643), wk =   0.1111111
        k(   13) = (   0.3333333   0.5808619   0.0233329), wk =   0.1111111
        k(   14) = (   0.3333333  -0.3856128  -0.0005100), wk =   0.1111111
        k(   15) = (   0.3333333  -0.1923179   0.0042586), wk =   0.1111111
        k(   16) = (   0.3333333   0.0009771   0.0090272), wk =   0.1111111
        k(   17) = (  -0.5000000  -0.2914080  -0.0206936), wk =   0.0555556
        k(   18) = (  -0.5000000  -0.0981131  -0.0159250), wk =   0.1111111
        k(   19) = (  -0.5000000   0.0951819  -0.0111565), wk =   0.1111111
        k(   20) = (  -0.5000000  -0.8712929  -0.0349994), wk =   0.0555556

     Initial potential from superposition of free atoms

     starting charge   71.99369, renormalised to   72.00000

     negative rho (up, down):  1.606E-04 0.000E+00
     Starting wfcs are   68 randomized atomic wfcs

     Self-consistent Calculation

     iteration #  1     ecut=    45.00 Ry     beta= 0.70
     Davidson diagonalization with overlap
     ethr =  1.00E-02,  avg # of iterations =  2.0

     negative rho (up, down):  8.385E-06 0.000E+00

     total energy              =    -281.40022033 Ry
     Harris-Foulkes estimate   =    -282.28718945 Ry
     estimated scf accuracy    <       2.26867957 Ry

[...]

     iteration #  9     ecut=    45.00 Ry     beta= 0.70
     Davidson diagonalization with overlap
     c_bands:  1 eigenvalues not converged
     ethr =  1.47E-06,  avg # of iterations =  3.5

[...]

     total energy              =    -281.84604934 Ry
     Harris-Foulkes estimate   =    -281.84605011 Ry
     estimated scf accuracy    <       0.00000198 Ry

     iteration # 17     ecut=    45.00 Ry     beta= 0.70
     Davidson diagonalization with overlap
     ethr =  2.74E-09,  avg # of iterations =  2.5

[...]

     End of self-consistent calculation

          k = 0.0000 0.0000 0.0000 ( 12995 PWs)   bands (ev):

   -11.8414 -11.8182 -11.8090 -11.7823 -10.6211 -10.5992 -10.5931 -10.5779
    -3.3566  -3.2886  -3.2593  -3.2497  -0.5138  -0.4879  -0.4773  -0.4700
    -0.4463  -0.4440  -0.4338  -0.4011   0.3418   0.5199   0.5446   0.5940
     0.6174   0.6266   0.6559   0.6678   0.6885   0.7000   0.7107   0.7278
     2.0757   2.1872   2.2052   2.3121   4.8230   4.8365   4.8420   4.8459
     4.8507   4.8567   4.8639

[...]

          k = 0.3333 0.0010 0.0090 ( 12876 PWs)   bands (ev):

[...]

          k =-0.5000-0.2914-0.0207 ( 12742 PWs)   bands (ev):

[...]

          k =-0.5000-0.8713-0.0350 ( 12760 PWs)   bands (ev):

   -10.1418 -10.1199 -10.1102 -10.0831  -9.8573  -9.8384  -9.8308  -9.8093
    -3.4687  -3.4488  -3.4391  -3.4148  -2.4929  -2.4725  -2.4660  -2.4466
    -1.8603  -1.8191  -1.8026  -1.7899  -0.9464  -0.9235  -0.9126  -0.8830
     0.2740   0.3417   0.3522   0.3886   1.1915   1.2107   1.2209   1.2473
     1.4698   1.5071   1.5232   1.5251   4.1245   4.1374   4.1445   4.1612
     4.6427   4.6615   4.6715

     the Fermi energy is     2.2645 ev

!    total energy              =    -281.84604938 Ry
     Harris-Foulkes estimate   =    -281.84604947 Ry
     estimated scf accuracy    <       0.00000047 Ry

     The total energy is the sum of the following terms:

     one-electron contribution =   -1519.50654862 Ry
     hartree contribution      =     789.86183037 Ry
     xc contribution           =    -111.36351628 Ry
     ewald contribution        =     559.15533469 Ry
     smearing contrib. (-TS)   =       0.00685046 Ry

     convergence has been achieved in  17 iterations

     negative rho (up, down):  2.292E-04 0.000E+00

     Forces acting on atoms (cartesian axes, Ry/au):

     atom    1 type  1   force =    -0.00252677    0.00277527    0.00154632
     atom    2 type  1   force =    -0.00277373    0.00214490   -0.00061447
     atom    3 type  1   force =     0.00210598   -0.00246947   -0.00198438
     atom    4 type  1   force =     0.00277842   -0.00251292    0.00031129
     atom    5 type  2   force =    -0.00309187    0.00110840   -0.00631202
     atom    6 type  2   force =    -0.00480022   -0.00179947   -0.00073902
     atom    7 type  2   force =    -0.00366663    0.00315355   -0.00242023
     atom    8 type  2   force =    -0.00367148    0.00424679   -0.00247324
     atom    9 type  2   force =     0.00565209   -0.00435514    0.00417382
     atom   10 type  2   force =     0.00804621   -0.00026199    0.00114034
     atom   11 type  2   force =     0.00092788   -0.00013155    0.00408854
     atom   12 type  2   force =     0.00102011   -0.00189837    0.00328306

     Total force =     0.019224     Total SCF correction =     0.001875

     General routines

     Parallel routines

   This run was terminated on:  18: 9: 2  10Nov2021

   JOB DONE.