     Program PWSCF v.6.4.1 starts on  2Aug2021 at 11:40:58

     R & G space division:  proc/nbgrp/npool/nimage =      20
     Waiting for input...
     Reading input from standard input
Warning: card    &IONS ignored
Warning: card      ION_DYNAMICS = 'BFGS' ignored
Warning: card   / ignored
Warning: card    &CELL ignored
Warning: card      CELL_DYNAMICS = 'BFGS', ignored
Warning: card    / ignored

     Current dimensions of program PWSCF are:
     Max number of different atomic species (ntypx) = 10
     Max number of k-points (npk) =  40000
     Max angular momentum in pseudopotentials (lmaxx) =  3

     Subspace diagonalization in iterative solution of the eigenvalue problem:
     a serial algorithm will be used

     bravais-lattice index     =            0
     lattice parameter (alat)  =      12.3591  a.u.
     unit-cell volume          =    6374.6886 (a.u.)^3
     number of atoms/cell      =           24
     number of atomic types    =            2
     number of electrons       =       144.00
     number of Kohn-Sham states=           86
     kinetic-energy cutoff     =      45.0000  Ry
     charge density cutoff     =     360.0000  Ry
     convergence threshold     =      1.0E-06
     mixing beta               =       0.7000
     number of iterations used =            8  local-TF  mixing
     Exchange-correlation      = SLA PW GGX GGC ( 1  4  2  2 0 0)

     celldm(1)=  12.359084  celldm(2)=   0.000000  celldm(3)=   0.000000
     celldm(4)=   0.000000  celldm(5)=   0.000000  celldm(6)=   0.000000

     crystal axes: (cart. coord. in units of alat)
               a(1) = (   1.000000   0.000000   0.000000 )
               a(2) = (  -0.500000   0.866025   0.000000 )
               a(3) = (   0.000000   0.000000   3.899145 )

     reciprocal axes: (cart. coord. in units 2 pi/alat)
               b(1) = (  1.000000  0.577350 -0.000000 )
               b(2) = (  0.000000  1.154700  0.000000 )
               b(3) = (  0.000000 -0.000000  0.256466 )

     PseudoPot. # 1 for Mo read from file:
     /home/kkety/pseudo/Mo.pw91-n-van.UPF
     MD5 check sum: 875977911cf57e7168990cb144db214a
     Pseudo is Ultrasoft + core correction, Zval =  6.0
     Generated by new atomic code, or converted to UPF format
     Using radial grid of  965 points,  3 beta functions with:
                l(1) =   1
                l(2) =   2
                l(3) =   2
     Q(r) pseudized with  8 coefficients,  rinner =    1.000   1.000   1.000
                                                       1.200   1.200

     PseudoPot. # 2 for S  read from file:
     /home/kkety/pseudo/S.pw91-van_ak.UPF
     MD5 check sum: 708c80e9edb6b1bde406d41998b2c042
     Pseudo is Ultrasoft, Zval =  6.0
     Generated by new atomic code, or converted to UPF format
     Using radial grid of  811 points,  6 beta functions with:
                l(1) =   0
                l(2) =   0
                l(3) =   1
                l(4) =   1
                l(5) =   2
                l(6) =   2
     Q(r) pseudized with  8 coefficients,  rinner =    1.100   1.100   1.100
                                                       1.100   1.100

     atomic species   valence    mass     pseudopotential
        Mo             6.00    95.50000     Mo( 1.00)
        S              6.00    32.06500     S ( 1.00)

     No symmetry found

   Cartesian axes

     site n.     atom                  positions (alat units)
         1           Mo  tau(   1) = (   0.2518029   0.1516284   0.5533331  )
         2           Mo  tau(   2) = (   0.0016624   0.5681456   0.6120916  )
         3           Mo  tau(   3) = (   0.7488894   0.1468376   0.5525191  )
         4           Mo  tau(   4) = (   0.5022269   0.5698174   0.6125311  )
         5           Mo  tau(   5) = (   0.0029021   0.2858332   3.2858592  )
         6           Mo  tau(   6) = (  -0.2430049   0.7290295   3.3450186  )
         7           Mo  tau(   7) = (   0.5067134   0.3025243   3.2897434  )
         8           Mo  tau(   8) = (   0.2795393   0.7138765   3.3174110  )
         9           S   tau(   9) = (  -0.0017857   0.2845585   0.8584824  )
        10           S   tau(  10) = (  -0.2266547   0.7138285   0.8101122  )
        11           S   tau(  11) = (   0.5246891   0.3007556   0.8148295  )
        12           S   tau(  12) = (   0.2483819   0.7514625   0.8214490  )
        13           S   tau(  13) = (   0.2517861   0.1579027   3.5887735  )
        14           S   tau(  14) = (  -0.0001294   0.5774138   3.5308448  )
        15           S   tau(  15) = (   0.7569858   0.1708621   3.5749453  )
        16           S   tau(  16) = (   0.5168860   0.5798518   3.5360522  )
        17           S   tau(  17) = (   0.0205297   0.2660167   0.3372073  )
        18           S   tau(  18) = (  -0.2481796   0.7196426   0.3072631  )
        19           S   tau(  19) = (   0.4918873   0.3172724   0.3449005  )
        20           S   tau(  20) = (   0.2603998   0.6977764   0.3217447  )
        21           S   tau(  21) = (   0.2248370   0.1448127   3.0535415  )
        22           S   tau(  22) = (  -0.0022114   0.5832983   3.1008270  )
        23           S   tau(  23) = (   0.7197859   0.1403320   3.0684202  )
        24           S   tau(  24) = (   0.5024893   0.5965677   3.0472554  )

     number of k points=     5  Marzari-Vanderbilt smearing, width (Ry)=  0.0200
                       cart. coord. in units 2pi/alat
        k(    1) = (   0.0000000   0.0000000   0.0000000), wk =   0.2222222
        k(    2) = (   0.0000000   0.3849002   0.0000000), wk =   0.4444444
        k(    3) = (   0.3333333   0.5773503   0.0000000), wk =   0.4444444
        k(    4) = (  -0.3333333   0.1924500   0.0000000), wk =   0.4444444
        k(    5) = (   0.3333333   0.1924501   0.0000000), wk =   0.4444444

     Initial potential from superposition of free atoms

     starting charge  143.98738, renormalised to  144.00000

     negative rho (up, down):  8.045E-04 0.000E+00
     Starting wfcs are  136 randomized atomic wfcs

     Self-consistent Calculation

     iteration #  1     ecut=    45.00 Ry     beta= 0.70
     Davidson diagonalization with overlap
     ethr =  1.00E-02,  avg # of iterations =  2.0

     negative rho (up, down):  8.883E-05 0.000E+00

     total energy              =    -562.14885557 Ry
     Harris-Foulkes estimate   =    -564.11090549 Ry
     estimated scf accuracy    <       5.15854045 Ry

[...]

     total energy              =    -563.16327581 Ry
     Harris-Foulkes estimate   =    -563.16327739 Ry
     estimated scf accuracy    <       0.00000151 Ry

     iteration # 16     ecut=    45.00 Ry     beta= 0.70
     Davidson diagonalization with overlap
     ethr =  1.05E-09,  avg # of iterations =  3.0

[...]

     End of self-consistent calculation

          k = 0.0000 0.0000 0.0000 ( 32461 PWs)   bands (ev):

   -13.4711 -13.2901 -12.3463 -12.2877 -12.1838 -11.9173 -11.7567 -11.7274
   -11.6467 -11.6372 -11.4464 -11.3170 -11.2842 -11.2133 -11.0483 -10.9988
    -5.1617  -4.9711  -4.9523  -4.9236  -4.8596  -4.8020  -4.7635  -4.6714
    -4.1665  -4.1231  -4.0657  -4.0495  -3.9038  -3.8399  -3.6861  -3.4223
    -3.3929  -3.2380  -3.0736  -3.0265  -3.0016  -2.8247  -2.7647  -2.6434
    -2.4061  -2.3889  -2.0685  -2.0462  -2.0245  -1.7055  -1.6569  -1.5607
    -1.5417  -1.5034  -1.4409  -1.3264  -1.2829  -1.1514  -1.1414  -1.0874
    -0.9590  -0.8947  -0.5666  -0.5436  -0.4339  -0.3236  -0.1811  -0.0432
    -0.0376   0.0801   0.1958   0.2781   0.3525   0.4532   0.6506   0.7718
     1.7491   1.7830   1.9560   2.0019   2.1247   2.1808   2.4652   2.4869
     2.5027   2.5213   2.5762   2.6586   2.6978   2.9690

[...]

          k =-0.3333 0.1925 0.0000 ( 32525 PWs)   bands (ev):

[...]

          k = 0.3333 0.1925 0.0000 ( 32525 PWs)   bands (ev):

   -13.1814 -12.9883 -12.5518 -12.2793 -12.1224 -12.1103 -11.8776 -11.7835
   -11.6868 -11.6605 -11.5374 -11.3391 -11.3141 -11.2132 -11.2092 -11.1179
    -4.8260  -4.6671  -4.6484  -4.5513  -4.3960  -4.3560  -4.3469  -4.2457
    -4.0906  -4.0328  -3.9878  -3.8841  -3.6738  -3.6074  -3.4511  -3.3701
    -3.3238  -3.2112  -3.0447  -3.0376  -2.9397  -2.8321  -2.6700  -2.6099
    -2.5410  -2.4318  -2.3633  -2.2777  -2.1490  -2.1361  -1.9246  -1.8496
    -1.8024  -1.6216  -1.5339  -1.4309  -1.3684  -1.3173  -1.2775  -1.2437
    -1.1182  -1.0349  -0.9863  -0.9760  -0.8463  -0.7989  -0.5903  -0.4633
    -0.1750  -0.1258  -0.0522   0.1116   0.3066   0.3602   0.4211   0.4716
     1.8965   1.9524   1.9781   2.0377   2.1126   2.1411   2.2281   2.2786
     2.3277   2.3569   2.4210   2.4593   2.5859   2.6840

     the Fermi energy is     0.8048 ev

!    total energy              =    -563.16327593 Ry
     Harris-Foulkes estimate   =    -563.16327603 Ry
     estimated scf accuracy    <       0.00000056 Ry

     The total energy is the sum of the following terms:

     one-electron contribution =   -3280.94312759 Ry
     hartree contribution      =    1691.96317705 Ry
     xc contribution           =    -222.09757518 Ry
     ewald contribution        =    1247.89847192 Ry
     smearing contrib. (-TS)   =       0.01577788 Ry

     convergence has been achieved in  16 iterations

     negative rho (up, down):  1.113E-03 0.000E+00

     Forces acting on atoms (cartesian axes, Ry/au):

     atom    1 type  1   force =     0.06980722   -0.10148269    0.17204850
     atom    2 type  1   force =     0.09091510   -0.04749203   -0.19252214
     atom    3 type  1   force =     0.02483106   -0.02160537    0.06871387
     atom    4 type  1   force =     0.00022342    0.13143538   -0.18026663
     atom    5 type  1   force =    -0.06375254   -0.01880295    0.15769755
     atom    6 type  1   force =    -0.01435481    0.10358719   -0.19420123
     atom    7 type  1   force =    -0.07238774   -0.01916732    0.09934591
     atom    8 type  1   force =    -0.12208230    0.10175421   -0.03780039
     atom    9 type  2   force =     0.01239765   -0.00771232   -0.10020969
     atom   10 type  2   force =    -0.08903465    0.09223026    0.07956668
     atom   11 type  2   force =    -0.03974066   -0.10444982    0.05341303
     atom   12 type  2   force =     0.00629250   -0.03492792   -0.00113226
     atom   13 type  2   force =     0.00734849   -0.00042279   -0.10403735
     atom   14 type  2   force =     0.08790311   -0.05045012    0.09918879
     atom   15 type  2   force =     0.00042385   -0.03634036   -0.09836749
     atom   16 type  2   force =    -0.03339991   -0.05988266    0.10725649
     atom   17 type  2   force =    -0.09452179    0.09242324   -0.05387856
     atom   18 type  2   force =     0.00840438   -0.00635058    0.10514325
     atom   19 type  2   force =     0.03490724   -0.02391486   -0.03728440
     atom   20 type  2   force =    -0.02469252    0.03254309    0.08734139
     atom   21 type  2   force =     0.07596170   -0.01860013    0.02559116
     atom   22 type  2   force =     0.01418225    0.04196831   -0.08109402
     atom   23 type  2   force =     0.09238796   -0.02423905   -0.02615748
     atom   24 type  2   force =     0.02798098   -0.02010070    0.05164501

     Total force =     0.669958     Total SCF correction =     0.001632

     General routines

     Parallel routines

   This run was terminated on:  11:59:28   2Aug2021

   JOB DONE.