     Program PWSCF v.6.4 starts on  5Aug2021 at 16: 6: 6

     R & G space division:  proc/nbgrp/npool/nimage =      40
     Waiting for input...
     Reading input from standard input
Warning: card    &IONS ignored
Warning: card      ION_DYNAMICS = 'BFGS' ignored
Warning: card   / ignored
Warning: card    &CELL ignored
Warning: card      CELL_DYNAMICS = 'BFGS', ignored
Warning: card    / ignored

     Current dimensions of program PWSCF are:
     Max number of different atomic species (ntypx) = 10
     Max number of k-points (npk) =  40000
     Max angular momentum in pseudopotentials (lmaxx) =  3

     bravais-lattice index     =            0
     lattice parameter (alat)  =      13.2816  a.u.
     unit-cell volume          =    6671.8605 (a.u.)^3
     number of atoms/cell      =           24
     number of atomic types    =            2
     number of electrons       =       144.00
     number of Kohn-Sham states=           86
     kinetic-energy cutoff     =      45.0000  Ry
     charge density cutoff     =     360.0000  Ry
     convergence threshold     =      1.0E-06
     mixing beta               =       0.7000
     number of iterations used =            8  local-TF  mixing
     Exchange-correlation      = SLA PW GGX GGC ( 1  4  2  2 0 0)

     celldm(1)=  13.281649  celldm(2)=   0.000000  celldm(3)=   0.000000
     celldm(4)=   0.000000  celldm(5)=   0.000000  celldm(6)=   0.000000

     crystal axes: (cart. coord. in units of alat)
               a(1) = (   0.999982  -0.005112   0.003106 )
               a(2) = (  -0.501181   0.859776  -0.000949 )
               a(3) = (   0.133664  -0.104532   3.322417 )

     reciprocal axes: (cart. coord. in units 2 pi/alat)
               b(1) = (  1.003075  0.584689 -0.021959 )
               b(2) = (  0.005850  1.166544  0.036467 )
               b(3) = ( -0.000936 -0.000213  0.301017 )

     PseudoPot. # 1 for Mo read from file:
     ~/pseudo/Mo.pw91-n-van.UPF
     MD5 check sum: Not computed, couldn't open file
     Pseudo is Ultrasoft + core correction, Zval =  6.0
     Generated by new atomic code, or converted to UPF format
     Using radial grid of  965 points,  3 beta functions with:
                l(1) =   1
                l(2) =   2
                l(3) =   2
     Q(r) pseudized with  8 coefficients,  rinner =    1.000   1.000   1.000
                                                       1.200   1.200

     PseudoPot. # 2 for S  read from file:
     ~/pseudo/S.pw91-van_ak.UPF
     MD5 check sum: Not computed, couldn't open file
     Pseudo is Ultrasoft, Zval =  6.0
     Generated by new atomic code, or converted to UPF format
     Using radial grid of  811 points,  6 beta functions with:
                l(1) =   0
                l(2) =   0
                l(3) =   1
                l(4) =   1
                l(5) =   2
                l(6) =   2
     Q(r) pseudized with  8 coefficients,  rinner =    1.100   1.100   1.100
                                                       1.100   1.100

     atomic species   valence    mass     pseudopotential
        Mo             6.00    95.50000     Mo( 1.00)
        S              6.00    32.06500     S ( 1.00)

     No symmetry found

   Cartesian axes

     site n.     atom                  positions (alat units)
         1           Mo  tau(   1) = (   0.4163791   0.0438463   0.5343076  )
         2           Mo  tau(   2) = (   0.1302344   0.5139578   0.5900134  )
         3           Mo  tau(   3) = (   0.9090636   0.0623718   0.5544905  )
         4           Mo  tau(   4) = (   0.6604633   0.5096852   0.5483596  )
         5           Mo  tau(   5) = (  -0.0210930   0.2530123   2.7749841  )
         6           Mo  tau(   6) = (  -0.2819608   0.6792751   2.7496404  )
         7           Mo  tau(   7) = (   0.4822435   0.2565190   2.7581178  )
         8           Mo  tau(   8) = (   0.2373481   0.6727291   2.7862576  )
         9           S   tau(   9) = (  -0.1058031   0.3522865   0.7769207  )
        10           S   tau(  10) = (  -0.3411134   0.7852726   0.7602721  )
        11           S   tau(  11) = (   0.4029174   0.3458405   0.7523514  )
        12           S   tau(  12) = (   0.1529747   0.7969972   0.7807440  )
        13           S   tau(  13) = (   0.2303329   0.1170336   2.9722692  )
        14           S   tau(  14) = (  -0.0309759   0.5504773   2.9810851  )
        15           S   tau(  15) = (   0.7234143   0.1154218   2.9866215  )
        16           S   tau(  16) = (   0.4847352   0.5428059   2.9850920  )
        17           S   tau(  17) = (   0.1593277   0.2149886   0.3542785  )
        18           S   tau(  18) = (  -0.0845456   0.6225601   0.3347079  )
        19           S   tau(  19) = (   0.6611679   0.2055861   0.3366083  )
        20           S   tau(  20) = (   0.3905360   0.6307189   0.3554673  )
        21           S   tau(  21) = (   0.4830351  -0.0325584   2.5572881  )
        22           S   tau(  22) = (   0.2255179   0.4037838   2.5601368  )
        23           S   tau(  23) = (   0.9722049  -0.0307301   2.5596696  )
        24           S   tau(  24) = (   0.7301377   0.3955342   2.5443225  )

     number of k points=     5  Marzari-Vanderbilt smearing, width (Ry)=  0.0200
                       cart. coord. in units 2pi/alat
        k(    1) = (   0.0000000   0.0000000   0.0000000), wk =   0.2222222
        k(    2) = (   0.0019501   0.3888480   0.0121558), wk =   0.4444444
        k(    3) = (   0.3343583   0.1948964  -0.0073196), wk =   0.4444444
        k(    4) = (   0.3363084   0.5837444   0.0048362), wk =   0.4444444
        k(    5) = (   0.3324083  -0.1939516  -0.0194753), wk =   0.4444444

     Initial potential from superposition of free atoms

     starting charge  143.98738, renormalised to  144.00000

     negative rho (up, down):  6.224E-04 0.000E+00
     Starting wfcs are  136 randomized atomic wfcs

     Self-consistent Calculation

     iteration #  1     ecut=    45.00 Ry     beta= 0.70
     Davidson diagonalization with overlap
     ethr =  1.00E-02,  avg # of iterations =  2.0

     negative rho (up, down):  4.675E-04 0.000E+00

     total energy              =    -561.65468452 Ry
     Harris-Foulkes estimate   =    -564.24208370 Ry
     estimated scf accuracy    <       6.91781300 Ry

[...]

     total energy              =    -563.01704702 Ry
     Harris-Foulkes estimate   =    -563.01704680 Ry
     estimated scf accuracy    <       0.00000382 Ry

     iteration # 21     ecut=    45.00 Ry     beta= 0.70
     Davidson diagonalization with overlap
     ethr =  2.65E-09,  avg # of iterations =  2.8

[...]

     End of self-consistent calculation

          k = 0.0000 0.0000 0.0000 ( 33983 PWs)   bands (ev):

   -13.1284 -13.0529 -12.1446 -12.1416 -12.0431 -12.0156 -12.0026 -11.9393
   -11.9298 -11.7845 -11.6411 -11.6190 -11.5706 -11.5651 -11.4945 -11.2745
    -5.0120  -5.0014  -4.9879  -4.9312  -4.9246  -4.8620  -4.5493  -4.4370
    -3.5401  -3.5199  -3.5027  -3.4878  -3.4497  -3.4343  -3.2608  -3.2099
    -3.1994  -3.1781  -3.1713  -3.1590  -3.1498  -3.1233  -3.1087  -3.0770
    -3.0486  -3.0194  -3.0142  -2.9820  -2.8855  -2.8413  -1.7317  -1.6955
    -1.6862  -1.6343  -1.5853  -1.4521  -1.3393  -1.2544  -1.1499  -1.1359
    -1.1098  -1.0669  -1.0281  -0.9706  -0.4853  -0.4278  -0.4089  -0.3854
    -0.3418  -0.3183  -0.2743  -0.2451  -0.1615  -0.0224   0.0479   0.1481
     0.2161   0.3535   0.7040   0.8057   1.0044   1.0327   1.1263   1.1307
     1.3081   1.4441   1.6064   1.6600   1.6723   1.6969

[...]

          k = 0.3324-0.1940-0.0195 ( 33985 PWs)   bands (ev):

   -12.8533 -12.7828 -12.2700 -12.2055 -12.0797 -12.0241 -11.9713 -11.9100
   -11.8867 -11.8450 -11.8318 -11.7191 -11.7095 -11.6504 -11.5890 -11.3111
    -4.5557  -4.5282  -4.4836  -4.4400  -4.3529  -4.3327  -4.1671  -4.0721
    -3.8894  -3.8505  -3.8321  -3.7833  -3.7762  -3.6218  -3.5490  -3.5230
    -3.1905  -3.1608  -3.1305  -3.0812  -3.0659  -3.0463  -2.9727  -2.9080
    -2.8963  -2.7857  -2.7716  -2.7520  -2.6148  -2.5790  -2.3940  -2.3557
    -2.3494  -2.2877  -1.8881  -1.8151  -1.7485  -1.7156  -1.6024  -1.4754
    -1.3486  -1.2998  -1.2776  -1.0878  -0.9502  -0.8718  -0.8601  -0.6555
    -0.3092  -0.2238   0.0076   0.1385   0.2437   0.3512   0.3751   0.3776
     0.8350   0.8656   0.9744   1.0578   1.1178   1.1906   1.2685   1.3068
     1.3706   1.5011   1.5938   1.6080   1.6457   1.6729

     the Fermi energy is     0.5713 ev

!    total energy              =    -563.01704591 Ry
     Harris-Foulkes estimate   =    -563.01704723 Ry
     estimated scf accuracy    <       0.00000090 Ry

     The total energy is the sum of the following terms:

     one-electron contribution =   -2101.20763460 Ry
     hartree contribution      =    1100.61028622 Ry
     xc contribution           =    -220.83599650 Ry
     ewald contribution        =     658.40520075 Ry
     smearing contrib. (-TS)   =       0.01109821 Ry

     convergence has been achieved in  21 iterations

     negative rho (up, down):  9.130E-04 0.000E+00

     Forces acting on atoms (cartesian axes, Ry/au):

     atom    1 type  1   force =     0.01473648   -0.02621061    0.03386972
     atom    2 type  1   force =    -0.02618826    0.01475546   -0.02690001
     atom    3 type  1   force =    -0.01237433   -0.00928194   -0.01008822
     atom    4 type  1   force =     0.02917236    0.00923971    0.01484490
     atom    5 type  1   force =    -0.00680489    0.00427375    0.00206239
     atom    6 type  1   force =    -0.02027579   -0.01232248    0.00916831
     atom    7 type  1   force =     0.00718539    0.03384715    0.00420046
     atom    8 type  1   force =     0.02237163   -0.00398387   -0.01326306
     atom    9 type  2   force =    -0.00472095    0.00136007   -0.01551768
     atom   10 type  2   force =    -0.00018937    0.00483507   -0.01716367
     atom   11 type  2   force =    -0.00461495    0.00828366   -0.02957889
     atom   12 type  2   force =    -0.00316681   -0.00573871   -0.01652803
     atom   13 type  2   force =    -0.00284414   -0.00400335   -0.02040053
     atom   14 type  2   force =     0.00278315   -0.00513943   -0.02497156
     atom   15 type  2   force =     0.00236650   -0.00298804   -0.02307332
     atom   16 type  2   force =    -0.00119912   -0.00601381   -0.00804032
     atom   17 type  2   force =    -0.00077634   -0.00610450    0.02671112
     atom   18 type  2   force =    -0.00509459    0.00299010   -0.00407103
     atom   19 type  2   force =     0.00044036   -0.00009290    0.02261703
     atom   20 type  2   force =     0.01154185    0.00379640    0.02138174
     atom   21 type  2   force =    -0.00420626    0.00108782    0.02819071
     atom   22 type  2   force =     0.00193373   -0.00282310    0.01461582
     atom   23 type  2   force =    -0.00092722   -0.00068906    0.01245665
     atom   24 type  2   force =     0.00085159    0.00092261    0.01947747

     Total force =     0.122091     Total SCF correction =     0.001846

     General routines

     Parallel routines

   This run was terminated on:  16: 7:45   5Aug2021

   JOB DONE.