     Program PWSCF v.6.4 starts on 24Dec2021 at  0: 2: 2

     R & G space division:  proc/nbgrp/npool/nimage =      40
     Waiting for input...
     Reading input from standard input
Warning: card    &IONS ignored
Warning: card      ION_DYNAMICS = 'BFGS' ignored
Warning: card   / ignored
Warning: card    &CELL ignored
Warning: card      CELL_DYNAMICS = 'BFGS', ignored
Warning: card    / ignored

     Current dimensions of program PWSCF are:
     Max number of different atomic species (ntypx) = 10
     Max number of k-points (npk) =  40000
     Max angular momentum in pseudopotentials (lmaxx) =  3

     bravais-lattice index     =            0
     lattice parameter (alat)  =      12.1447  a.u.
     unit-cell volume          =    7517.6907 (a.u.)^3
     number of atoms/cell      =           24
     number of atomic types    =            2
     number of electrons       =       144.00
     number of Kohn-Sham states=           86
     kinetic-energy cutoff     =      45.0000  Ry
     charge density cutoff     =     360.0000  Ry
     convergence threshold     =      1.0E-06
     mixing beta               =       0.7000
     number of iterations used =            8  local-TF  mixing
     Exchange-correlation      = SLA PW GGX GGC ( 1  4  2  2 0 0)

     celldm(1)=  12.144706  celldm(2)=   0.000000  celldm(3)=   0.000000
     celldm(4)=   0.000000  celldm(5)=   0.000000  celldm(6)=   0.000000

     crystal axes: (cart. coord. in units of alat)
               a(1) = (   1.000000   0.000000   0.000000 )
               a(2) = (   0.008312   1.817057   0.000000 )
               a(3) = (   0.421791   0.517145   2.309696 )

     reciprocal axes: (cart. coord. in units 2 pi/alat)
               b(1) = (  1.000000 -0.004574 -0.181593 )
               b(2) = (  0.000000  0.550340 -0.123222 )
               b(3) = (  0.000000  0.000000  0.432957 )

     PseudoPot. # 1 for Mo read from file:
     ~/pseudo/Mo.pw91-n-van.UPF
     MD5 check sum: Not computed, couldn't open file
     Pseudo is Ultrasoft + core correction, Zval =  6.0
     Generated by new atomic code, or converted to UPF format
     Using radial grid of  965 points,  3 beta functions with:
                l(1) =   1
                l(2) =   2
                l(3) =   2
     Q(r) pseudized with  8 coefficients,  rinner =    1.000   1.000   1.000
                                                       1.200   1.200

     PseudoPot. # 2 for S  read from file:
     ~/pseudo/S.pw91-van_ak.UPF
     MD5 check sum: Not computed, couldn't open file
     Pseudo is Ultrasoft, Zval =  6.0
     Generated by new atomic code, or converted to UPF format
     Using radial grid of  811 points,  6 beta functions with:
                l(1) =   0
                l(2) =   0
                l(3) =   1
                l(4) =   1
                l(5) =   2
                l(6) =   2
     Q(r) pseudized with  8 coefficients,  rinner =    1.100   1.100   1.100
                                                       1.100   1.100

     atomic species   valence    mass     pseudopotential
        Mo             6.00    95.50000     Mo( 1.00)
        S              6.00    32.06500     S ( 1.00)

     No symmetry found

   Cartesian axes

     site n.     atom                  positions (alat units)
         1           Mo  tau(   1) = (   0.2088975   0.6961327   0.8213777  )
         2           Mo  tau(   2) = (   0.9578088   0.2642079   0.7505202  )
         3           Mo  tau(   3) = (   0.9484905   1.1343849   0.8940746  )
         4           Mo  tau(   4) = (   0.4457924   1.1350011   0.8627652  )
         5           Mo  tau(   5) = (   0.7067908   1.5475829   0.9329821  )
         6           Mo  tau(   6) = (   0.7002562   0.6902818   0.8280780  )
         7           Mo  tau(   7) = (   0.4518293   0.2757811   0.7467735  )
         8           Mo  tau(   8) = (   0.2049455   1.5488650   0.9154891  )
         9           S   tau(   9) = (   0.4330721   1.3874722   1.1531277  )
        10           S   tau(  10) = (   0.6859328   0.1392711   0.4992443  )
        11           S   tau(  11) = (   0.9497378   1.4405380   0.6672532  )
        12           S   tau(  12) = (   0.1856100   0.1316300   0.4998768  )
        13           S   tau(  13) = (   0.4453566   0.5023943   1.0467474  )
        14           S   tau(  14) = (   0.9406682   0.5052966   1.0303780  )
        15           S   tau(  15) = (   0.4495604   1.4456343   0.6733307  )
        16           S   tau(  16) = (   0.6959965   1.9145952   0.9740741  )
        17           S   tau(  17) = (   0.6929763   0.9611681   1.0994645  )
        18           S   tau(  18) = (   0.6983158   1.0127174   0.6322080  )
        19           S   tau(  19) = (   0.9534787   1.4005570   1.1723543  )
        20           S   tau(  20) = (   0.2040779   1.9023992   0.9985615  )
        21           S   tau(  21) = (   1.2061363   0.9581033   1.0938757  )
        22           S   tau(  22) = (   0.4504573   0.5913325   0.5619704  )
        23           S   tau(  23) = (   0.1884486   1.0217030   0.6301828  )
        24           S   tau(  24) = (   0.9429520   0.5741742   0.5358370  )

     number of k points=     4  Marzari-Vanderbilt smearing, width (Ry)=  0.0200
                       cart. coord. in units 2pi/alat
        k(    1) = (   0.0000000   0.0000000   0.0000000), wk =   0.3333333
        k(    2) = (   0.0000000  -0.2751702   0.0616110), wk =   0.3333333
        k(    3) = (   0.3333333  -0.0015248  -0.0605310), wk =   0.6666667
        k(    4) = (   0.3333333  -0.2766951   0.0010800), wk =   0.6666667

     Initial potential from superposition of free atoms

     starting charge  143.98738, renormalised to  144.00000

     negative rho (up, down):  8.330E-04 0.000E+00
     Starting wfcs are  136 randomized atomic wfcs

     Self-consistent Calculation

     iteration #  1     ecut=    45.00 Ry     beta= 0.70
     Davidson diagonalization with overlap
     ethr =  1.00E-02,  avg # of iterations =  2.0

     negative rho (up, down):  4.790E-05 0.000E+00

     total energy              =    -562.33815956 Ry
     Harris-Foulkes estimate   =    -564.23927515 Ry
     estimated scf accuracy    <       4.93208522 Ry

[...]

     iteration #  5     ecut=    45.00 Ry     beta= 0.70
     Davidson diagonalization with overlap
     c_bands:  2 eigenvalues not converged
     ethr =  2.81E-05,  avg # of iterations =  9.0

[...]

     total energy              =    -563.29488640 Ry
     Harris-Foulkes estimate   =    -563.29488592 Ry
     estimated scf accuracy    <       0.00000110 Ry

     iteration # 15     ecut=    45.00 Ry     beta= 0.70
     Davidson diagonalization with overlap
     ethr =  7.62E-10,  avg # of iterations =  1.8

[...]

     End of self-consistent calculation

          k = 0.0000 0.0000 0.0000 ( 38241 PWs)   bands (ev):

   -14.4867 -13.9529 -13.6223 -13.2683 -13.1469 -12.9982 -12.9682 -12.9107
   -12.7966 -12.7158 -12.6855 -12.6456 -12.4927 -12.4636 -12.1969 -11.6961
    -6.1930  -6.0594  -5.9969  -5.8153  -5.6595  -5.5223  -5.4875  -5.3823
    -5.3635  -5.2382  -5.2110  -4.9203  -4.8418  -4.6061  -4.5308  -4.4568
    -4.3939  -4.3452  -4.2559  -4.1636  -4.0551  -3.8100  -3.7926  -3.6345
    -3.6054  -3.5236  -3.4458  -3.3187  -3.2066  -3.1622  -3.0806  -2.8286
    -2.7965  -2.6568  -2.5814  -2.5707  -2.4471  -2.3563  -2.3187  -2.1312
    -2.0087  -1.9676  -1.9476  -1.8383  -1.7371  -1.5206  -1.3716  -1.3078
    -1.1385  -1.0567  -0.9568  -0.8758  -0.6868  -0.5221  -0.4144  -0.2134
     0.2178   0.3727   0.5274   0.9244   0.9758   1.4166   1.4738   1.5298
     1.7274   1.7889   1.8241   1.8493   1.8894   1.9725

[...]

          k = 0.3333-0.2767 0.0011 ( 38312 PWs)   bands (ev):

   -14.1744 -13.9010 -13.5284 -13.3453 -13.2040 -13.1559 -13.0747 -12.9088
   -12.8594 -12.8199 -12.6929 -12.6237 -12.5948 -12.4702 -12.1072 -11.8212
    -5.7948  -5.7549  -5.6774  -5.6156  -5.5417  -5.4542  -5.3768  -5.2620
    -5.1583  -5.1341  -5.0179  -4.9425  -4.6198  -4.4769  -4.4153  -4.3441
    -4.2850  -4.2263  -4.1396  -4.0899  -4.0257  -3.9362  -3.7781  -3.7193
    -3.6402  -3.5912  -3.5345  -3.5146  -3.4381  -3.3193  -3.1982  -3.1005
    -3.0156  -2.9372  -2.8608  -2.7569  -2.6435  -2.5241  -2.3814  -2.2815
    -2.1691  -2.0963  -2.0053  -1.8898  -1.8368  -1.6179  -1.4964  -1.3542
    -1.2706  -1.1141  -0.9878  -0.9047  -0.7938  -0.7100  -0.5642  -0.3939
     0.3711   0.4078   0.6353   0.9390   1.1044   1.2735   1.3966   1.4544
     1.5133   1.6272   1.7170   1.7610   1.8034   1.8949

     the Fermi energy is    -0.0767 ev

!    total energy              =    -563.29488466 Ry
     Harris-Foulkes estimate   =    -563.29488649 Ry
     estimated scf accuracy    <       0.00000016 Ry

     The total energy is the sum of the following terms:

     one-electron contribution =   -1940.01726848 Ry
     hartree contribution      =    1016.12458253 Ry
     xc contribution           =    -222.56673822 Ry
     ewald contribution        =     583.15522551 Ry
     smearing contrib. (-TS)   =       0.00931399 Ry

     convergence has been achieved in  15 iterations

     negative rho (up, down):  1.199E-03 0.000E+00

     Forces acting on atoms (cartesian axes, Ry/au):

     atom    1 type  1   force =    -0.07925432   -0.01756264   -0.00262514
     atom    2 type  1   force =    -0.05716664   -0.04495863   -0.02813228
     atom    3 type  1   force =    -0.00261246   -0.01298973   -0.03562556
     atom    4 type  1   force =     0.01150287   -0.04164313    0.10140852
     atom    5 type  1   force =    -0.02729137    0.00570492    0.00584151
     atom    6 type  1   force =    -0.01372696    0.01288701   -0.03198114
     atom    7 type  1   force =    -0.05604227   -0.07533671   -0.01083639
     atom    8 type  1   force =    -0.04710843    0.02353894    0.02602362
     atom    9 type  2   force =     0.03897114    0.00434060    0.00099219
     atom   10 type  2   force =     0.01939209    0.01280751    0.00711592
     atom   11 type  2   force =    -0.00897524    0.00296883    0.00078845
     atom   12 type  2   force =     0.03320322    0.00634620    0.01129236
     atom   13 type  2   force =     0.01130913    0.03886193    0.00280141
     atom   14 type  2   force =     0.04828011    0.02740024    0.03692224
     atom   15 type  2   force =     0.03362756    0.02753785   -0.06009184
     atom   16 type  2   force =     0.03756478   -0.00995705    0.01350953
     atom   17 type  2   force =    -0.01063572   -0.01941281    0.02093499
     atom   18 type  2   force =     0.03015214   -0.00200130   -0.04653541
     atom   19 type  2   force =     0.00081804    0.00372250   -0.02772867
     atom   20 type  2   force =     0.01211417    0.04728406   -0.00274539
     atom   21 type  2   force =     0.00315563   -0.01822429    0.03616078
     atom   22 type  2   force =     0.01151402    0.01593801   -0.02547090
     atom   23 type  2   force =    -0.00678458   -0.01515964   -0.05335554
     atom   24 type  2   force =     0.01799308    0.02790733    0.06133674

     Total force =     0.274721     Total SCF correction =     0.000847

     General routines

     Parallel routines

   This run was terminated on:   0: 3:21  24Dec2021

   JOB DONE.