     Program PWSCF v.6.4 starts on 28Nov2021 at 10:38:22

     R & G space division:  proc/nbgrp/npool/nimage =      40
     Waiting for input...
     Reading input from standard input
Warning: card    &IONS ignored
Warning: card      ION_DYNAMICS = 'BFGS' ignored
Warning: card   / ignored
Warning: card    &CELL ignored
Warning: card      CELL_DYNAMICS = 'BFGS', ignored
Warning: card    / ignored

     Current dimensions of program PWSCF are:
     Max number of different atomic species (ntypx) = 10
     Max number of k-points (npk) =  40000
     Max angular momentum in pseudopotentials (lmaxx) =  3

     bravais-lattice index     =            0
     lattice parameter (alat)  =      12.2229  a.u.
     unit-cell volume          =    4169.6792 (a.u.)^3
     number of atoms/cell      =           24
     number of atomic types    =            2
     number of electrons       =       144.00
     number of Kohn-Sham states=           86
     kinetic-energy cutoff     =      45.0000  Ry
     charge density cutoff     =     360.0000  Ry
     convergence threshold     =      1.0E-06
     mixing beta               =       0.7000
     number of iterations used =            8  local-TF  mixing
     Exchange-correlation      = SLA PW GGX GGC ( 1  4  2  2 0 0)

     celldm(1)=  12.222853  celldm(2)=   0.000000  celldm(3)=   0.000000
     celldm(4)=   0.000000  celldm(5)=   0.000000  celldm(6)=   0.000000

     crystal axes: (cart. coord. in units of alat)
               a(1) = (   0.999998   0.000993   0.001727 )
               a(2) = (  -0.453240   0.893829  -0.000721 )
               a(3) = (  -0.032373  -0.169190   2.553295 )

     reciprocal axes: (cart. coord. in units 2 pi/alat)
               b(1) = (  0.999419  0.506819  0.046255 )
               b(2) = ( -0.001239  1.118214  0.074081 )
               b(3) = ( -0.000676 -0.000027  0.391640 )

     PseudoPot. # 1 for Mo read from file:
     ~/pseudo/Mo.pw91-n-van.UPF
     MD5 check sum: Not computed, couldn't open file
     Pseudo is Ultrasoft + core correction, Zval =  6.0
     Generated by new atomic code, or converted to UPF format
     Using radial grid of  965 points,  3 beta functions with:
                l(1) =   1
                l(2) =   2
                l(3) =   2
     Q(r) pseudized with  8 coefficients,  rinner =    1.000   1.000   1.000
                                                       1.200   1.200

     PseudoPot. # 2 for S  read from file:
     ~/pseudo/S.pw91-van_ak.UPF
     MD5 check sum: Not computed, couldn't open file
     Pseudo is Ultrasoft, Zval =  6.0
     Generated by new atomic code, or converted to UPF format
     Using radial grid of  811 points,  6 beta functions with:
                l(1) =   0
                l(2) =   0
                l(3) =   1
                l(4) =   1
                l(5) =   2
                l(6) =   2
     Q(r) pseudized with  8 coefficients,  rinner =    1.100   1.100   1.100
                                                       1.100   1.100

     atomic species   valence    mass     pseudopotential
        Mo             6.00    95.50000     Mo( 1.00)
        S              6.00    32.06500     S ( 1.00)

     No symmetry found

   Cartesian axes

     site n.     atom                  positions (alat units)
         1           Mo  tau(   1) = (  -0.2339101   0.4025041   1.7787949  )
         2           Mo  tau(   2) = (   0.2479791   0.4632786   1.2293458  )
         3           Mo  tau(   3) = (   0.2585802   0.4573606   0.7747159  )
         4           Mo  tau(   4) = (   0.2629229   0.3955894   1.7889020  )
         5           Mo  tau(   5) = (  -0.0173040   0.0111547   0.7866155  )
         6           Mo  tau(   6) = (   0.4125174  -0.0284188   1.7544334  )
         7           Mo  tau(   7) = (  -0.2422038   0.4552321   0.7807243  )
         8           Mo  tau(   8) = (   0.4861243   0.0112888   0.7817991  )
         9           S   tau(   9) = (   0.7388451   0.1617748   0.5463661  )
        10           S   tau(  10) = (   0.7368383   0.1641936   1.0315694  )
        11           S   tau(  11) = (   0.5186428   0.6157862   0.5409712  )
        12           S   tau(  12) = (   0.5204747   0.6128512   1.0331427  )
        13           S   tau(  13) = (   0.0147776   0.5924855   2.0053898  )
        14           S   tau(  14) = (   0.2547990   0.7021051   1.5610435  )
        15           S   tau(  15) = (   0.2358179   0.1525635   0.5400785  )
        16           S   tau(  16) = (   0.2390514   0.1543328   1.0301376  )
        17           S   tau(  17) = (   0.0666106   0.1406239   1.9333003  )
        18           S   tau(  18) = (   0.0247256   0.2915809   1.5126905  )
        19           S   tau(  19) = (   0.0058399   0.6125592   0.5343434  )
        20           S   tau(  20) = (   0.0024803   0.6143736   1.0168891  )
        21           S   tau(  21) = (   0.4889904   0.6201483   1.9548943  )
        22           S   tau(  22) = (  -0.2661105   0.6972068   1.5437024  )
        23           S   tau(  23) = (   0.5230359   0.2179201   2.0183499  )
        24           S   tau(  24) = (   0.4947154   0.2747677   1.5217853  )

     number of k points=     5  Marzari-Vanderbilt smearing, width (Ry)=  0.0200
                       cart. coord. in units 2pi/alat
        k(    1) = (   0.0000000   0.0000000   0.0000000), wk =   0.2222222
        k(    2) = (  -0.0004130   0.3727379   0.0246936), wk =   0.4444444
        k(    3) = (   0.3331395   0.1689398   0.0154183), wk =   0.4444444
        k(    4) = (   0.3327266   0.5416777   0.0401119), wk =   0.4444444
        k(    5) = (   0.3335525  -0.2037981  -0.0092753), wk =   0.4444444

     Initial potential from superposition of free atoms

     starting charge  143.98738, renormalised to  144.00000
     Starting wfcs are  136 randomized atomic wfcs

     Self-consistent Calculation

     iteration #  1     ecut=    45.00 Ry     beta= 0.70
     Davidson diagonalization with overlap
     ethr =  1.00E-02,  avg # of iterations =  2.0

     total energy              =    -561.88707438 Ry
     Harris-Foulkes estimate   =    -563.99289063 Ry
     estimated scf accuracy    <       6.21999472 Ry

[...]

     iteration #  6     ecut=    45.00 Ry     beta= 0.70
     Davidson diagonalization with overlap
     c_bands:  1 eigenvalues not converged
     ethr =  1.93E-05,  avg # of iterations =  8.4

[...]

     negative rho (up, down):  1.417E-08 0.000E+00

[...]

     total energy              =    -563.00437221 Ry
     Harris-Foulkes estimate   =    -563.00437225 Ry
     estimated scf accuracy    <       0.00000158 Ry

     iteration # 16     ecut=    45.00 Ry     beta= 0.70
     Davidson diagonalization with overlap
     ethr =  1.10E-09,  avg # of iterations =  3.2

[...]

     End of self-consistent calculation

          k = 0.0000 0.0000 0.0000 ( 21209 PWs)   bands (ev):

   -10.4782  -9.8599  -9.3099  -9.1618  -9.1274  -8.6624  -8.6146  -8.4600
    -8.3858  -8.2326  -8.1783  -8.1258  -7.8342  -7.6428  -7.4713  -7.4635
    -2.4296  -2.0893  -2.0133  -1.9597  -1.6592  -1.3854  -1.2287  -1.1862
    -1.0872  -1.0351  -0.7289  -0.7003  -0.6457  -0.4045  -0.3026  -0.2345
    -0.1420  -0.0765   0.2087   0.4099   0.4586   0.6453   0.7606   0.9500
     1.0222   1.1216   1.2452   1.2928   1.3805   1.4167   1.4796   1.5892
     1.6756   1.7480   1.8650   1.9351   2.0307   2.0849   2.3263   2.4454
     2.5024   2.5147   2.6800   2.7222   2.7747   2.9454   3.0209   3.1338
     3.4574   3.6443   3.8727   4.0317   4.3279   4.3408   4.4760   4.7073
     4.9221   5.0987   5.1598   5.2695   5.3918   5.5258   5.6220   5.7284
     5.7439   5.8848   6.0066   6.0498   6.0739   6.1088

          k =-0.0004 0.3727 0.0247 ( 21224 PWs)   bands (ev):

[...]

          k = 0.3336-0.2038-0.0093 ( 21279 PWs)   bands (ev):

   -10.1548  -9.5841  -9.4545  -9.1490  -9.1175  -8.7965  -8.6321  -8.4937
    -8.4723  -8.4598  -8.3848  -8.0825  -7.9333  -7.8489  -7.5490  -7.3561
    -1.9703  -1.6365  -1.5608  -1.5518  -1.1867  -1.1257  -1.0234  -0.9234
    -0.8508  -0.7552  -0.6572  -0.5017  -0.4047  -0.3550  -0.1366  -0.0388
     0.0686   0.1179   0.2245   0.4030   0.4738   0.5614   0.6194   0.6801
     0.7321   0.8300   0.9241   0.9630   1.0819   1.1392   1.2569   1.3450
     1.3747   1.4850   1.5284   1.5914   1.7153   1.8080   1.8644   2.0772
     2.2573   2.3432   2.5496   2.7286   2.8480   3.0224   3.0928   3.2075
     3.2912   3.4175   3.6367   4.0548   4.1445   4.3295   4.3801   4.6970
     4.7909   4.9225   5.0033   5.2477   5.2763   5.4593   5.4840   5.5878
     5.6832   5.7656   5.8286   5.8868   5.9498   6.1640

     the Fermi energy is     4.7040 ev

!    total energy              =    -563.00437217 Ry
     Harris-Foulkes estimate   =    -563.00437250 Ry
     estimated scf accuracy    <       0.00000040 Ry

     The total energy is the sum of the following terms:

     one-electron contribution =    -817.91626535 Ry
     hartree contribution      =     478.38038296 Ry
     xc contribution           =    -222.42594546 Ry
     ewald contribution        =      -1.04181744 Ry
     smearing contrib. (-TS)   =      -0.00072688 Ry

     convergence has been achieved in  16 iterations

     negative rho (up, down):  3.984E-08 0.000E+00

     Forces acting on atoms (cartesian axes, Ry/au):

     atom    1 type  1   force =     0.01626809    0.04315595    0.00129815
     atom    2 type  1   force =    -0.00030120   -0.01390144    0.11329336
     atom    3 type  1   force =    -0.00175146    0.00368263    0.00418360
     atom    4 type  1   force =     0.00119544   -0.01397549   -0.01052532
     atom    5 type  1   force =    -0.01665221    0.01157636   -0.00668009
     atom    6 type  1   force =     0.01000885   -0.01004442   -0.03533258
     atom    7 type  1   force =    -0.01146412   -0.01352661   -0.00650850
     atom    8 type  1   force =     0.00732191    0.01731752   -0.00758632
     atom    9 type  2   force =     0.00286919   -0.00058560   -0.00938163
     atom   10 type  2   force =     0.00227691   -0.00375268   -0.02148066
     atom   11 type  2   force =    -0.01443668   -0.01316073    0.00815687
     atom   12 type  2   force =    -0.01946859   -0.00929270   -0.01119164
     atom   13 type  2   force =    -0.02487677    0.00524896    0.01913600
     atom   14 type  2   force =    -0.00663612    0.02011388   -0.03357286
     atom   15 type  2   force =     0.00504810    0.02033071    0.00845523
     atom   16 type  2   force =    -0.00183070    0.02097804   -0.01013840
     atom   17 type  2   force =    -0.04537652   -0.03872452    0.04022198
     atom   18 type  2   force =    -0.01552220    0.01160109   -0.05487113
     atom   19 type  2   force =     0.01884784   -0.01178135    0.01566991
     atom   20 type  2   force =     0.01976263   -0.01280451    0.00980403
     atom   21 type  2   force =     0.05221503    0.01953674    0.01659473
     atom   22 type  2   force =    -0.01245878   -0.00421602   -0.02026929
     atom   23 type  2   force =     0.01423591   -0.00027568    0.00701615
     atom   24 type  2   force =     0.02072543   -0.02750014   -0.01629160

     Total force =     0.197628     Total SCF correction =     0.001527

     General routines

     Parallel routines

   This run was terminated on:  10:39:11  28Nov2021

   JOB DONE.