     Program PWSCF v.6.4 starts on 14Oct2021 at 11:54: 7

     R & G space division:  proc/nbgrp/npool/nimage =      40
     Waiting for input...
     Reading input from standard input
Warning: card    &IONS ignored
Warning: card      ION_DYNAMICS = 'BFGS' ignored
Warning: card   / ignored
Warning: card    &CELL ignored
Warning: card      CELL_DYNAMICS = 'BFGS', ignored
Warning: card    / ignored

     Current dimensions of program PWSCF are:
     Max number of different atomic species (ntypx) = 10
     Max number of k-points (npk) =  40000
     Max angular momentum in pseudopotentials (lmaxx) =  3

     bravais-lattice index     =            0
     lattice parameter (alat)  =      12.0366  a.u.
     unit-cell volume          =    7476.7628 (a.u.)^3
     number of atoms/cell      =           36
     number of atomic types    =            2
     number of electrons       =       216.00
     number of Kohn-Sham states=          130
     kinetic-energy cutoff     =      45.0000  Ry
     charge density cutoff     =     360.0000  Ry
     convergence threshold     =      1.0E-06
     mixing beta               =       0.7000
     number of iterations used =            8  local-TF  mixing
     Exchange-correlation      = SLA PW GGX GGC ( 1  4  2  2 0 0)

     celldm(1)=  12.036601  celldm(2)=   0.000000  celldm(3)=   0.000000
     celldm(4)=   0.000000  celldm(5)=   0.000000  celldm(6)=   0.000000

     crystal axes: (cart. coord. in units of alat)
               a(1) = (   1.000000   0.000000   0.000000 )
               a(2) = (   0.549302   0.880913   0.000000 )
               a(3) = (  -0.278119  -0.344916   4.867083 )

     reciprocal axes: (cart. coord. in units 2 pi/alat)
               b(1) = (  1.000000 -0.623559  0.012953 )
               b(2) = (  0.000000  1.135185  0.080447 )
               b(3) = (  0.000000  0.000000  0.205462 )

     PseudoPot. # 1 for Mo read from file:
     ~/pseudo/Mo.pw91-n-van.UPF
     MD5 check sum: Not computed, couldn't open file
     Pseudo is Ultrasoft + core correction, Zval =  6.0
     Generated by new atomic code, or converted to UPF format
     Using radial grid of  965 points,  3 beta functions with:
                l(1) =   1
                l(2) =   2
                l(3) =   2
     Q(r) pseudized with  8 coefficients,  rinner =    1.000   1.000   1.000
                                                       1.200   1.200

     PseudoPot. # 2 for S  read from file:
     ~/pseudo/S.pw91-van_ak.UPF
     MD5 check sum: Not computed, couldn't open file
     Pseudo is Ultrasoft, Zval =  6.0
     Generated by new atomic code, or converted to UPF format
     Using radial grid of  811 points,  6 beta functions with:
                l(1) =   0
                l(2) =   0
                l(3) =   1
                l(4) =   1
                l(5) =   2
                l(6) =   2
     Q(r) pseudized with  8 coefficients,  rinner =    1.100   1.100   1.100
                                                       1.100   1.100

     atomic species   valence    mass     pseudopotential
        Mo             6.00    95.50000     Mo( 1.00)
        S              6.00    32.06500     S ( 1.00)

     No symmetry found

   Cartesian axes

     site n.     atom                  positions (alat units)
         1           Mo  tau(   1) = (   0.1169875   0.3332821   3.2404596  )
         2           Mo  tau(   2) = (   0.3355909  -0.0711492   3.2050995  )
         3           Mo  tau(   3) = (  -0.1395297  -0.0810874   3.2345691  )
         4           Mo  tau(   4) = (   0.6071128   0.3602012   3.2536070  )
         5           Mo  tau(   5) = (   1.3834939   0.5577962   1.3700921  )
         6           Mo  tau(   6) = (   0.5894220   0.0978897   1.3676352  )
         7           Mo  tau(   7) = (   1.1034651   0.1223717   1.3671418  )
         8           Mo  tau(   8) = (   0.8799324   0.5626158   1.3634669  )
         9           Mo  tau(   9) = (   0.8305261   0.4987566   0.2687744  )
        10           Mo  tau(  10) = (   1.6043775   0.9376443   0.2665924  )
        11           Mo  tau(  11) = (   1.1093387   0.9397156   0.2668092  )
        12           Mo  tau(  12) = (   1.3349837   0.5006921   0.2683086  )
        13           S   tau(  13) = (   0.5846384   0.6527773   0.0157616  )
        14           S   tau(  14) = (   0.8100074   0.2134423   0.0168045  )
        15           S   tau(  15) = (   0.3094691   0.2137264   0.0233727  )
        16           S   tau(  16) = (   1.0842837   0.6520678   0.0214096  )
        17           S   tau(  17) = (   0.3691271   0.4981546   3.4918911  )
        18           S   tau(  18) = (   0.5955482   0.0667717   3.4785034  )
        19           S   tau(  19) = (   0.1214478   0.0541969   3.4874127  )
        20           S   tau(  20) = (   0.8740539   0.5089319   3.4823186  )
        21           S   tau(  21) = (   0.3613391   0.5005537   3.0069610  )
        22           S   tau(  22) = (   0.6002698   0.0810546   2.9845072  )
        23           S   tau(  23) = (   0.0918352   0.0758957   2.9630126  )
        24           S   tau(  24) = (   0.8538397   0.5001418   2.9877562  )
        25           S   tau(  25) = (   0.3516359   0.2633572   1.6182864  )
        26           S   tau(  26) = (   1.1273841   0.6928418   1.6223770  )
        27           S   tau(  27) = (   0.6262150   0.7092310   1.6186562  )
        28           S   tau(  28) = (   0.8381128   0.2629905   1.6088322  )
        29           S   tau(  29) = (   0.3678304   0.2728465   1.1211983  )
        30           S   tau(  30) = (   0.5941347  -0.1755859   1.1086939  )
        31           S   tau(  31) = (   0.6379082   0.7162873   1.1129199  )
        32           S   tau(  32) = (   0.8459359   0.2653660   1.1202798  )
        33           S   tau(  33) = (   0.5863096   0.6477777   0.5234330  )
        34           S   tau(  34) = (   0.8129768   0.2046333   0.5219988  )
        35           S   tau(  35) = (   0.3137427   0.2036148   0.5137607  )
        36           S   tau(  36) = (   1.0876940   0.6444216   0.5204687  )

     number of k points=     5  Marzari-Vanderbilt smearing, width (Ry)=  0.0200
                       cart. coord. in units 2pi/alat
        k(    1) = (   0.0000000   0.0000000   0.0000000), wk =   0.2222222
        k(    2) = (   0.0000000   0.3783951   0.0268158), wk =   0.4444444
        k(    3) = (   0.3333333  -0.2078531   0.0043176), wk =   0.4444444
        k(    4) = (   0.3333333   0.1705420   0.0311334), wk =   0.4444444
        k(    5) = (   0.3333333  -0.5862482  -0.0224981), wk =   0.4444444

     Initial potential from superposition of free atoms

     starting charge  215.98107, renormalised to  216.00000

     negative rho (up, down):  1.118E-04 0.000E+00
     Starting wfcs are  204 randomized atomic wfcs

     Self-consistent Calculation

     iteration #  1     ecut=    45.00 Ry     beta= 0.70
     Davidson diagonalization with overlap
     ethr =  1.00E-02,  avg # of iterations =  2.0

     negative rho (up, down):  6.486E-07 0.000E+00

     total energy              =    -844.07512517 Ry
     Harris-Foulkes estimate   =    -846.70248787 Ry
     estimated scf accuracy    <       6.74883719 Ry

[...]

     iteration #  9     ecut=    45.00 Ry     beta= 0.70
     Davidson diagonalization with overlap
     c_bands:  1 eigenvalues not converged
     ethr =  3.26E-06,  avg # of iterations =  9.2

[...]

     total energy              =    -845.38659701 Ry
     Harris-Foulkes estimate   =    -845.38659721 Ry
     estimated scf accuracy    <       0.00000102 Ry

     iteration # 20     ecut=    45.00 Ry     beta= 0.70
     Davidson diagonalization with overlap
     ethr =  4.71E-10,  avg # of iterations =  1.0

[...]

     End of self-consistent calculation

          k = 0.0000 0.0000 0.0000 ( 38141 PWs)   bands (ev):

   -11.8789 -11.6348 -11.5864 -10.7567 -10.5043 -10.4342 -10.2514 -10.1021
   -10.0727  -9.9596  -9.9580  -9.9246  -9.8939  -9.8626  -9.7815  -9.7640
    -9.7333  -9.7217  -9.7139  -9.6889  -9.6583  -9.6443  -9.4338  -9.4014
    -3.6375  -3.5076  -3.4357  -3.3306  -3.2948  -3.2699  -3.2581  -3.2192
    -3.2023  -3.1808  -3.1419  -3.0027  -2.6776  -2.6095  -2.4630  -2.4615
    -2.3844  -2.3302  -2.3197  -2.2659  -2.2535  -1.9505  -1.8597  -1.6872
    -1.6686  -1.6658  -1.6411  -1.5768  -1.5244  -1.5185  -1.3522  -1.0685
    -1.0634  -0.9055  -0.6867  -0.5317  -0.5170  -0.5082  -0.4343  -0.3921
    -0.3879  -0.3832  -0.2527  -0.1281   0.1034   0.1513   0.1843   0.2295
     0.2561   0.3162   0.3588   0.4311   0.4702   0.5086   0.6104   0.6131
     0.7327   0.7373   0.8109   0.8121   0.8985   1.0451   1.0499   1.1146
     1.1223   1.2256   1.2415   1.3571   1.4221   1.4487   1.4895   1.5627
     1.5865   1.5877   1.6501   1.7195   1.7417   1.7784   1.8734   1.9091
     1.9932   2.0321   2.1450   2.4385   3.8324   3.9310   4.1880   4.2371
     4.2575   4.2704   4.3281   4.4296   4.4833   4.5366   4.5552   4.6533
     4.6849   4.7952   4.8475   4.8575   4.8726   4.9189   4.9383   4.9489
     5.0045   5.0129

[...]

          k = 0.3333-0.5862-0.0225 ( 38101 PWs)   bands (ev):

   -11.0489 -10.9057 -10.7511 -10.7434 -10.6743 -10.6067 -10.5886 -10.5734
   -10.5497 -10.3702 -10.2171 -10.1142 -10.0525 -10.0194  -9.9740  -9.9410
    -9.9125  -9.8988  -9.8429  -9.6352  -9.6214  -9.5919  -9.4362  -9.4070
    -3.0931  -2.8528  -2.8238  -2.8204  -2.6290  -2.5017  -2.4965  -2.4430
    -2.3945  -2.3747  -2.3602  -2.3362  -2.2886  -2.0928  -2.0640  -1.9456
    -1.8627  -1.7697  -1.6559  -1.6110  -1.5788  -1.5699  -1.4997  -1.4652
    -1.4128  -1.4071  -1.3906  -1.3568  -1.3564  -1.3143  -1.2988  -1.2826
    -1.2511  -1.2232  -1.1977  -1.1910  -1.0940  -1.0733  -1.0645  -1.0165
    -0.8371  -0.8090  -0.7282  -0.6962  -0.6851  -0.6589  -0.6060  -0.5646
    -0.5540  -0.4896  -0.3969  -0.0620  -0.0274   0.0964   0.2872   0.2950
     0.3248   0.4044   0.4905   0.5260   0.5503   0.5603   0.6224   0.9407
     1.0095   1.0978   1.1030   1.1536   1.1983   1.3191   1.3303   1.3555
     1.3955   1.4059   1.4370   1.5006   1.5504   1.5682   1.6005   1.6660
     1.7108   2.3163   2.3551   2.3779   3.3543   3.5550   3.7248   3.9447
     3.9768   3.9840   4.0282   4.1058   4.1323   4.1589   4.2059   4.3022
     4.3659   4.3991   4.4549   4.5160   4.5758   4.5888   4.6287   4.6720
     4.7145   4.7624

     the Fermi energy is     2.4623 ev

!    total energy              =    -845.38659708 Ry
     Harris-Foulkes estimate   =    -845.38659706 Ry
     estimated scf accuracy    <       0.00000043 Ry

     The total energy is the sum of the following terms:

     one-electron contribution =   -2240.19598378 Ry
     hartree contribution      =    1211.41136952 Ry
     xc contribution           =    -333.99804900 Ry
     ewald contribution        =     517.37553555 Ry
     smearing contrib. (-TS)   =       0.02053062 Ry

     convergence has been achieved in  20 iterations

     negative rho (up, down):  2.713E-04 0.000E+00

     Forces acting on atoms (cartesian axes, Ry/au):

     atom    1 type  1   force =    -0.04919334    0.11013928   -0.00457615
     atom    2 type  1   force =     0.05220907   -0.06528129    0.08579128
     atom    3 type  1   force =    -0.07607328    0.01343855    0.01709886
     atom    4 type  1   force =     0.05208689   -0.00915165   -0.06943661
     atom    5 type  1   force =    -0.02074630    0.00820628   -0.01432516
     atom    6 type  1   force =     0.03939451    0.06503417    0.00848176
     atom    7 type  1   force =    -0.03577693   -0.00354791   -0.00964444
     atom    8 type  1   force =    -0.02871591   -0.01923577    0.00232200
     atom    9 type  1   force =    -0.00313555    0.01233315    0.01341790
     atom   10 type  1   force =    -0.00024752    0.01825908    0.01612618
     atom   11 type  1   force =    -0.01152657    0.00639978    0.01638625
     atom   12 type  1   force =    -0.01755782    0.01072041    0.01423717
     atom   13 type  2   force =     0.00769238   -0.01458081    0.01130718
     atom   14 type  2   force =     0.00570150   -0.01343924    0.00841955
     atom   15 type  2   force =     0.00823448   -0.01761019   -0.00885552
     atom   16 type  2   force =     0.00727063   -0.01344699    0.00007646
     atom   17 type  2   force =    -0.02496337    0.02967371    0.01286432
     atom   18 type  2   force =     0.01043651   -0.03803680   -0.00572395
     atom   19 type  2   force =    -0.03207188   -0.00870613   -0.00472582
     atom   20 type  2   force =     0.00809912    0.00709487   -0.02181690
     atom   21 type  2   force =     0.01574575    0.00496530   -0.03777246
     atom   22 type  2   force =     0.02212444   -0.01088603    0.00700256
     atom   23 type  2   force =    -0.00168279   -0.02114431    0.00978343
     atom   24 type  2   force =     0.02359304   -0.01128381    0.01178051
     atom   25 type  2   force =     0.00952572   -0.00324887   -0.00328332
     atom   26 type  2   force =     0.00980348    0.00425935   -0.01260748
     atom   27 type  2   force =     0.02925874    0.00569236   -0.01522840
     atom   28 type  2   force =     0.02775361    0.00125792   -0.00425906
     atom   29 type  2   force =    -0.02803319   -0.01928245   -0.00535843
     atom   30 type  2   force =    -0.01517145   -0.02383895    0.02184852
     atom   31 type  2   force =    -0.00201394   -0.00815927    0.02300091
     atom   32 type  2   force =     0.01465210   -0.00719104    0.01332741
     atom   33 type  2   force =     0.00463907   -0.00218648   -0.02613496
     atom   34 type  2   force =     0.00008358    0.00335658   -0.02453448
     atom   35 type  2   force =    -0.00221128    0.00446687   -0.00313489
     atom   36 type  2   force =     0.00081652    0.00496032   -0.02185424

     Total force =     0.267730     Total SCF correction =     0.001848

     General routines

     Parallel routines

   This run was terminated on:  11:57: 4  14Oct2021

   JOB DONE.