     Program PWSCF v.6.4 starts on 23Dec2021 at 23:59:50

     R & G space division:  proc/nbgrp/npool/nimage =      40
     Waiting for input...
     Reading input from standard input
Warning: card    &IONS ignored
Warning: card      ION_DYNAMICS = 'BFGS' ignored
Warning: card   / ignored
Warning: card    &CELL ignored
Warning: card      CELL_DYNAMICS = 'BFGS', ignored
Warning: card    / ignored

     Current dimensions of program PWSCF are:
     Max number of different atomic species (ntypx) = 10
     Max number of k-points (npk) =  40000
     Max angular momentum in pseudopotentials (lmaxx) =  3

     bravais-lattice index     =            0
     lattice parameter (alat)  =      12.6669  a.u.
     unit-cell volume          =    4714.0687 (a.u.)^3
     number of atoms/cell      =           36
     number of atomic types    =            2
     number of electrons       =       216.00
     number of Kohn-Sham states=          130
     kinetic-energy cutoff     =      45.0000  Ry
     charge density cutoff     =     360.0000  Ry
     convergence threshold     =      1.0E-06
     mixing beta               =       0.7000
     number of iterations used =            8  local-TF  mixing
     Exchange-correlation      = SLA PW GGX GGC ( 1  4  2  2 0 0)

     celldm(1)=  12.666943  celldm(2)=   0.000000  celldm(3)=   0.000000
     celldm(4)=   0.000000  celldm(5)=   0.000000  celldm(6)=   0.000000

     crystal axes: (cart. coord. in units of alat)
               a(1) = (   1.000000   0.000000   0.000000 )
               a(2) = (   0.260678   1.501361   0.000000 )
               a(3) = (   0.085351   0.679917   1.544882 )

     reciprocal axes: (cart. coord. in units 2 pi/alat)
               b(1) = (  1.000000 -0.173628  0.021168 )
               b(2) = (  0.000000  0.666062 -0.293140 )
               b(3) = (  0.000000  0.000000  0.647299 )

     PseudoPot. # 1 for Mo read from file:
     ~/pseudo/Mo.pw91-n-van.UPF
     MD5 check sum: Not computed, couldn't open file
     Pseudo is Ultrasoft + core correction, Zval =  6.0
     Generated by new atomic code, or converted to UPF format
     Using radial grid of  965 points,  3 beta functions with:
                l(1) =   1
                l(2) =   2
                l(3) =   2
     Q(r) pseudized with  8 coefficients,  rinner =    1.000   1.000   1.000
                                                       1.200   1.200

     PseudoPot. # 2 for S  read from file:
     ~/pseudo/S.pw91-van_ak.UPF
     MD5 check sum: Not computed, couldn't open file
     Pseudo is Ultrasoft, Zval =  6.0
     Generated by new atomic code, or converted to UPF format
     Using radial grid of  811 points,  6 beta functions with:
                l(1) =   0
                l(2) =   0
                l(3) =   1
                l(4) =   1
                l(5) =   2
                l(6) =   2
     Q(r) pseudized with  8 coefficients,  rinner =    1.100   1.100   1.100
                                                       1.100   1.100

     atomic species   valence    mass     pseudopotential
        Mo             6.00    95.50000     Mo( 1.00)
        S              6.00    32.06500     S ( 1.00)

     No symmetry found

   Cartesian axes

     site n.     atom                  positions (alat units)
         1           Mo  tau(   1) = (   0.5758270   1.0804048   0.5047307  )
         2           Mo  tau(   2) = (   0.8665245   2.0019785   1.4806497  )
         3           Mo  tau(   3) = (   0.6041746   1.4297154   1.2654290  )
         4           Mo  tau(   4) = (   0.6334912   0.8728436   1.2461084  )
         5           Mo  tau(   5) = (   0.8384905   1.2480859   0.8806652  )
         6           Mo  tau(   6) = (   0.8685623   0.7961674   0.7983580  )
         7           Mo  tau(   7) = (   1.1193622   1.4303337   1.2763775  )
         8           Mo  tau(   8) = (   1.0587292   1.0905375   0.4976562  )
         9           Mo  tau(   9) = (   0.1144996   0.5329189   0.4484487  )
        10           Mo  tau(  10) = (   0.2885144   0.9069910   0.1050987  )
        11           Mo  tau(  11) = (   0.3351096   0.3616151   0.0758281  )
        12           Mo  tau(  12) = (   0.3434868   1.6635167   0.6945626  )
        13           S   tau(  13) = (   0.5764160   1.3874710   0.6807777  )
        14           S   tau(  14) = (   1.0626352   1.4228726   0.6476282  )
        15           S   tau(  15) = (   0.5478117   0.6575028   0.0650557  )
        16           S   tau(  16) = (   0.6082795   1.7505019   1.4307184  )
        17           S   tau(  17) = (   0.8049866   1.2469581   0.2871023  )
        18           S   tau(  18) = (   1.1177538   1.7462339   1.4507836  )
        19           S   tau(  19) = (   0.3693432   1.1534438   1.2500553  )
        20           S   tau(  20) = (   0.3201696   0.7479913   1.4219081  )
        21           S   tau(  21) = (   0.5997418   0.5324353   1.1146892  )
        22           S   tau(  22) = (   0.5855489   0.9770818   0.8666117  )
        23           S   tau(  23) = (   0.6517481   0.1526323   0.0418515  )
        24           S   tau(  24) = (   0.8260018   0.8194115   0.4424672  )
        25           S   tau(  25) = (   0.8598681   1.5668116   1.0525700  )
        26           S   tau(  26) = (   0.8653878   1.1624761   1.2394977  )
        27           S   tau(  27) = (   0.8717221   0.4524267   0.7020480  )
        28           S   tau(  28) = (   0.9629822   0.7130411   1.1409645  )
        29           S   tau(  29) = (   0.1143667   0.1920265   0.3214401  )
        30           S   tau(  30) = (   1.0585377   0.6199581   0.0867133  )
        31           S   tau(  31) = (   1.1206055   1.0218456   0.8454506  )
        32           S   tau(  32) = (   0.3524938   0.3952483   0.6944755  )
        33           S   tau(  33) = (   0.3124601   1.2227962   0.2832828  )
        34           S   tau(  34) = (   0.3203151   0.8258866   0.4647658  )
        35           S   tau(  35) = (   0.3523962   1.5831615   1.0497439  )
        36           S   tau(  36) = (   0.4898453   0.4055484   0.4142500  )

     number of k points=     8  Marzari-Vanderbilt smearing, width (Ry)=  0.0200
                       cart. coord. in units 2pi/alat
        k(    1) = (   0.0000000   0.0000000   0.0000000), wk =   0.1666667
        k(    2) = (   0.0000000   0.0000000  -0.3236493), wk =   0.1666667
        k(    3) = (   0.0000000  -0.3330312   0.1465701), wk =   0.1666667
        k(    4) = (   0.0000000  -0.3330312  -0.1770792), wk =   0.1666667
        k(    5) = (   0.3333333  -0.0578759   0.0070558), wk =   0.3333333
        k(    6) = (   0.3333333  -0.0578759  -0.3165935), wk =   0.3333333
        k(    7) = (   0.3333333  -0.3909071   0.1536260), wk =   0.3333333
        k(    8) = (   0.3333333  -0.3909071  -0.1700234), wk =   0.3333333

     Initial potential from superposition of free atoms

     starting charge  215.98107, renormalised to  216.00000
     Starting wfcs are  204 randomized atomic wfcs

     Self-consistent Calculation

     iteration #  1     ecut=    45.00 Ry     beta= 0.70
     Davidson diagonalization with overlap
     ethr =  1.00E-02,  avg # of iterations =  2.0

     total energy              =    -842.55884553 Ry
     Harris-Foulkes estimate   =    -845.62978680 Ry
     estimated scf accuracy    <       8.08690901 Ry

[...]

     total energy              =    -844.20626803 Ry
     Harris-Foulkes estimate   =    -844.20626817 Ry
     estimated scf accuracy    <       0.00000118 Ry

     iteration # 16     ecut=    45.00 Ry     beta= 0.70
     Davidson diagonalization with overlap
     ethr =  5.48E-10,  avg # of iterations =  1.0

     End of self-consistent calculation

          k = 0.0000 0.0000 0.0000 ( 24085 PWs)   bands (ev):

    -7.8026  -6.9748  -6.5253  -6.2223  -5.8964  -5.7973  -5.7599  -5.6784
    -5.6087  -5.4604  -5.4185  -5.3434  -5.2791  -5.1650  -5.0673  -5.0573
    -4.9865  -4.8771  -4.8114  -4.8003  -4.7021  -4.5030  -4.1262  -3.7468
     0.9687   1.2987   1.3917   1.4531   1.5465   1.6591   1.7801   1.8886
     1.9342   2.0483   2.0803   2.1964   2.2890   2.3775   2.4179   2.4542
     2.5185   2.6193   2.6537   2.7490   2.8587   2.9142   2.9297   3.0107
     3.1532   3.2119   3.2332   3.2778   3.3656   3.4238   3.4928   3.6361
     3.6635   3.7500   3.8380   3.8830   3.9967   4.0043   4.0733   4.1140
     4.1419   4.2676   4.2964   4.3894   4.4505   4.4802   4.5977   4.6855
     4.7144   4.8904   4.9581   5.0054   5.1148   5.1630   5.1975   5.2320
     5.3371   5.4039   5.6004   5.6450   5.6660   5.8653   5.9019   5.9807
     6.0757   6.0959   6.1666   6.2814   6.3424   6.5228   6.6542   6.7093
     6.8578   6.9148   7.0306   7.0839   7.1754   7.3163   7.3540   7.4301
     7.6267   7.7209   7.7643   7.8545   7.8841   8.0364   8.0703   8.1374
     8.3200   8.3676   8.4056   8.4817   8.5801   8.6650   8.6978   8.7852
     8.8296   8.9298   9.0200   9.0776   9.1553   9.3384   9.4437   9.4622
     9.4994   9.5381

[...]

          k = 0.3333-0.3909-0.1700 ( 24037 PWs)   bands (ev):

    -7.7561  -6.7256  -6.5862  -6.2266  -6.0531  -5.8665  -5.8276  -5.6658
    -5.5964  -5.4376  -5.3797  -5.3523  -5.2753  -5.1945  -5.1186  -5.0315
    -5.0076  -4.9314  -4.8413  -4.7861  -4.6973  -4.6285  -4.0672  -3.7259
     1.2438   1.3438   1.4889   1.6451   1.6946   1.7287   1.8929   1.9825
     2.0425   2.1158   2.1781   2.2399   2.3051   2.3638   2.3930   2.4507
     2.5259   2.6461   2.6855   2.8046   2.8374   2.9541   3.0080   3.1136
     3.1554   3.2351   3.2779   3.3113   3.3838   3.4232   3.5055   3.5909
     3.6713   3.7280   3.8137   3.8920   3.9563   3.9905   4.0503   4.0692
     4.1157   4.1488   4.2464   4.3495   4.3799   4.4941   4.5306   4.6054
     4.6464   4.7249   4.7799   4.8612   5.0180   5.0345   5.1508   5.2655
     5.3190   5.3955   5.4206   5.5242   5.5846   5.6625   5.7522   5.8427
     5.9010   5.9569   6.0466   6.1886   6.2611   6.3314   6.4659   6.7191
     6.8125   6.9191   7.0574   7.1735   7.2764   7.3234   7.4096   7.4765
     7.6024   7.6690   7.7754   7.8328   7.9247   8.0073   8.1044   8.1868
     8.2770   8.3708   8.4518   8.5185   8.5387   8.6356   8.7291   8.8012
     8.8731   8.9216   8.9757   9.1316   9.2069   9.3232   9.3698   9.4920
     9.5278   9.6403

     the Fermi energy is     7.8741 ev

!    total energy              =    -844.20626807 Ry
     Harris-Foulkes estimate   =    -844.20626811 Ry
     estimated scf accuracy    <       0.00000006 Ry

     The total energy is the sum of the following terms:

     one-electron contribution =      41.29401530 Ry
     hartree contribution      =     109.40305467 Ry
     xc contribution           =    -333.99397671 Ry
     ewald contribution        =    -660.90553289 Ry
     smearing contrib. (-TS)   =      -0.00382844 Ry

     convergence has been achieved in  16 iterations

     Forces acting on atoms (cartesian axes, Ry/au):

     atom    1 type  1   force =    -0.01255723    0.01018951   -0.00450881
     atom    2 type  1   force =    -0.00802949    0.02947079   -0.03596655
     atom    3 type  1   force =     0.04188234    0.01568624   -0.02884898
     atom    4 type  1   force =    -0.00396640   -0.07708094    0.02279767
     atom    5 type  1   force =     0.00528077    0.00767535    0.02558885
     atom    6 type  1   force =     0.01629309    0.01958634    0.01150901
     atom    7 type  1   force =    -0.01133183    0.02835080   -0.00957868
     atom    8 type  1   force =     0.02422875   -0.03874046    0.00687570
     atom    9 type  1   force =    -0.02659217   -0.02146453    0.01555049
     atom   10 type  1   force =     0.01079631    0.03459067    0.02686532
     atom   11 type  1   force =    -0.01939571   -0.04841647   -0.01297719
     atom   12 type  1   force =     0.00116559   -0.02055980   -0.01576632
     atom   13 type  2   force =    -0.01327864    0.00787273   -0.00154245
     atom   14 type  2   force =     0.00776933    0.02119364    0.00093554
     atom   15 type  2   force =     0.00685796   -0.00043937    0.00608978
     atom   16 type  2   force =     0.00021576   -0.00623323    0.00863770
     atom   17 type  2   force =    -0.01244522    0.01355027   -0.00598372
     atom   18 type  2   force =    -0.01409294   -0.00084470   -0.00731454
     atom   19 type  2   force =     0.00757669   -0.01471724    0.02338200
     atom   20 type  2   force =     0.03163933    0.00990199   -0.00434252
     atom   21 type  2   force =     0.00628699    0.01648494    0.04237937
     atom   22 type  2   force =    -0.02561182    0.01576780    0.00385856
     atom   23 type  2   force =    -0.00296974   -0.00933582   -0.00857277
     atom   24 type  2   force =     0.00183310   -0.02718328   -0.03164719
     atom   25 type  2   force =     0.00673509    0.00634781    0.00313602
     atom   26 type  2   force =    -0.01027764    0.02185524   -0.01747097
     atom   27 type  2   force =     0.00048243   -0.02098581   -0.00386296
     atom   28 type  2   force =    -0.02870626   -0.01673917   -0.00023085
     atom   29 type  2   force =    -0.03030567    0.01131324   -0.00006484
     atom   30 type  2   force =     0.00150861   -0.02747299    0.00077964
     atom   31 type  2   force =     0.02848297    0.02707182    0.01174464
     atom   32 type  2   force =    -0.00910287   -0.00379900    0.02240121
     atom   33 type  2   force =     0.02010534    0.01219424   -0.00726383
     atom   34 type  2   force =    -0.00452675    0.01611605   -0.00813119
     atom   35 type  2   force =    -0.00850396   -0.00534717   -0.01414286
     atom   36 type  2   force =     0.02255392    0.01414053   -0.01431427

     Total force =     0.201882     Total SCF correction =     0.000432

     General routines

     Parallel routines

   This run was terminated on:   0: 2: 0  24Dec2021

   JOB DONE.