     Program PWSCF v.6.4 starts on  8Sep2021 at 12: 0:52

     R & G space division:  proc/nbgrp/npool/nimage =      40
     Waiting for input...
     Reading input from standard input
Warning: card    &IONS ignored
Warning: card      ION_DYNAMICS = 'BFGS' ignored
Warning: card   / ignored
Warning: card    &CELL ignored
Warning: card      CELL_DYNAMICS = 'BFGS', ignored
Warning: card    / ignored

     Current dimensions of program PWSCF are:
     Max number of different atomic species (ntypx) = 10
     Max number of k-points (npk) =  40000
     Max angular momentum in pseudopotentials (lmaxx) =  3

     bravais-lattice index     =            0
     lattice parameter (alat)  =      12.5448  a.u.
     unit-cell volume          =    3282.7364 (a.u.)^3
     number of atoms/cell      =           24
     number of atomic types    =            2
     number of electrons       =       144.00
     number of Kohn-Sham states=           86
     kinetic-energy cutoff     =      45.0000  Ry
     charge density cutoff     =     360.0000  Ry
     convergence threshold     =      1.0E-06
     mixing beta               =       0.7000
     number of iterations used =            8  local-TF  mixing
     Exchange-correlation      = SLA PW GGX GGC ( 1  4  2  2 0 0)

     celldm(1)=  12.544838  celldm(2)=   0.000000  celldm(3)=   0.000000
     celldm(4)=   0.000000  celldm(5)=   0.000000  celldm(6)=   0.000000

     crystal axes: (cart. coord. in units of alat)
               a(1) = (   0.999815   0.017476  -0.008039 )
               a(2) = (  -0.241157   0.419683   0.002282 )
               a(3) = (  -0.088816   0.930073   3.924841 )

     reciprocal axes: (cart. coord. in units 2 pi/alat)
               b(1) = (  0.989333  0.569100 -0.112472 )
               b(2) = ( -0.045747  2.359510 -0.560170 )
               b(3) = (  0.002053 -0.000206  0.254883 )

     PseudoPot. # 1 for Mo read from file:
     ~/pseudo/Mo.pw91-n-van.UPF
     MD5 check sum: Not computed, couldn't open file
     Pseudo is Ultrasoft + core correction, Zval =  6.0
     Generated by new atomic code, or converted to UPF format
     Using radial grid of  965 points,  3 beta functions with:
                l(1) =   1
                l(2) =   2
                l(3) =   2
     Q(r) pseudized with  8 coefficients,  rinner =    1.000   1.000   1.000
                                                       1.200   1.200

     PseudoPot. # 2 for S  read from file:
     ~/pseudo/S.pw91-van_ak.UPF
     MD5 check sum: Not computed, couldn't open file
     Pseudo is Ultrasoft, Zval =  6.0
     Generated by new atomic code, or converted to UPF format
     Using radial grid of  811 points,  6 beta functions with:
                l(1) =   0
                l(2) =   0
                l(3) =   1
                l(4) =   1
                l(5) =   2
                l(6) =   2
     Q(r) pseudized with  8 coefficients,  rinner =    1.100   1.100   1.100
                                                       1.100   1.100

     atomic species   valence    mass     pseudopotential
        Mo             6.00    95.50000     Mo( 1.00)
        S              6.00    32.06500     S ( 1.00)

     No symmetry found

   Cartesian axes

     site n.     atom                  positions (alat units)
         1           Mo  tau(   1) = (   0.0718014   0.4861837   1.4267378  )
         2           Mo  tau(   2) = (  -0.1336057   0.9025739   3.4730769  )
         3           Mo  tau(   3) = (   0.4962077   0.4470177   1.4484121  )
         4           Mo  tau(   4) = (   0.4442895   0.9565967   3.4469915  )
         5           Mo  tau(   5) = (  -0.0591968  -0.0229998   0.5074674  )
         6           Mo  tau(   6) = (  -0.0617959   0.4854938   2.4373709  )
         7           Mo  tau(   7) = (   0.5186284   0.0313356   0.4837876  )
         8           Mo  tau(   8) = (   0.3630894   0.4449147   2.4595266  )
         9           S   tau(   9) = (   0.2889014   0.6070699   1.7001262  )
        10           S   tau(  10) = (   0.1544073   1.0676572   3.6549937  )
        11           S   tau(  11) = (   0.7832337   0.6143004   1.6341444  )
        12           S   tau(  12) = (   0.6606914   1.0793490   3.7209857  )
        13           S   tau(  13) = (  -0.0106094   0.2892082   0.2933328  )
        14           S   tau(  14) = (  -0.0924720   0.7455472   2.1874122  )
        15           S   tau(  15) = (   0.4814150   0.2899020   0.2321926  )
        16           S   tau(  16) = (   0.4122514   0.7554062   2.2471550  )
        17           S   tau(  17) = (  -0.0135786   0.5607346   0.7004646  )
        18           S   tau(  18) = (  -0.0870936   1.0223452   2.7139594  )
        19           S   tau(  19) = (   0.4948581   0.5757852   0.7562360  )
        20           S   tau(  20) = (   0.4081994   1.0312096   2.6473480  )
        21           S   tau(  21) = (   0.2823394   0.3283365   1.1745416  )
        22           S   tau(  22) = (   0.1511688   0.7874281   3.2589696  )
        23           S   tau(  23) = (   0.7889074   0.3379473   1.2396036  )
        24           S   tau(  24) = (   0.6465025   0.7969153   3.1922478  )

     number of k points=    10  Marzari-Vanderbilt smearing, width (Ry)=  0.0200
                       cart. coord. in units 2pi/alat
        k(    1) = (   0.0000000   0.0000000   0.0000000), wk =   0.1111111
        k(    2) = (  -0.0076246   0.3932517  -0.0933617), wk =   0.2222222
        k(    3) = (  -0.0152491   0.7865033  -0.1867234), wk =   0.2222222
        k(    4) = (   0.0228737  -1.1797550   0.2800851), wk =   0.1111111
        k(    5) = (   0.3297777   0.1896999  -0.0374908), wk =   0.2222222
        k(    6) = (   0.3221531   0.5829516  -0.1308525), wk =   0.2222222
        k(    7) = (   0.3145286   0.9762032  -0.2242141), wk =   0.2222222
        k(    8) = (   0.3526514  -0.9900550   0.2425943), wk =   0.2222222
        k(    9) = (   0.3450268  -0.5968034   0.1492326), wk =   0.2222222
        k(   10) = (   0.3374023  -0.2035517   0.0558709), wk =   0.2222222

     Initial potential from superposition of free atoms

     starting charge  143.98738, renormalised to  144.00000
     Starting wfcs are  136 randomized atomic wfcs

     Self-consistent Calculation

     iteration #  1     ecut=    45.00 Ry     beta= 0.70
     Davidson diagonalization with overlap
     ethr =  1.00E-02,  avg # of iterations =  2.0

     total energy              =    -562.38014870 Ry
     Harris-Foulkes estimate   =    -564.27044810 Ry
     estimated scf accuracy    <       4.94366280 Ry

[...]

     iteration #  7     ecut=    45.00 Ry     beta= 0.70
     Davidson diagonalization with overlap
     c_bands:  2 eigenvalues not converged
     ethr =  4.28E-07,  avg # of iterations =  8.7

[...]

     total energy              =    -563.37076375 Ry
     Harris-Foulkes estimate   =    -563.37076581 Ry
     estimated scf accuracy    <       0.00001122 Ry

     iteration # 13     ecut=    45.00 Ry     beta= 0.70
     Davidson diagonalization with overlap
     ethr =  7.79E-09,  avg # of iterations =  3.1

     End of self-consistent calculation

          k = 0.0000 0.0000 0.0000 ( 16849 PWs)   bands (ev):

    -7.3734  -7.2875  -7.2271  -7.1754  -6.4357  -6.3010  -6.2457  -6.1957
    -5.6573  -5.5936  -5.5694  -5.5571  -5.5339  -5.5121  -5.4852  -5.4642
     0.7558   0.8565   0.8777   0.9417   1.0807   1.3890   1.4356   1.7658
     2.0650   2.1132   2.2123   2.2995   2.3199   2.3590   2.4532   2.5194
     3.3659   3.3700   3.4150   3.4249   3.4648   3.4738   3.4843   3.5442
     3.6920   3.7979   3.8832   3.9306   4.0643   4.1763   4.3074   4.3213
     4.4515   4.8755   4.9139   5.2594   5.3657   5.4553   5.5138   5.6133
     5.6364   5.7020   5.7106   5.7570   5.9750   6.1524   6.2140   6.2677
     6.4628   6.5469   6.5695   6.5747   6.5970   6.6033   6.6482   6.7265
     7.0487   7.0703   7.0965   7.1970   7.2128   7.3184   7.3431   7.3938
     8.4942   8.5806   8.6144   8.6484   8.6803   8.6950

          k =-0.0076 0.3933-0.0934 ( 16761 PWs)   bands (ev):

[...]

          k =-0.0152 0.7865-0.1867 ( 16696 PWs)   bands (ev):

[...]

          k = 0.3374-0.2036 0.0559 ( 16765 PWs)   bands (ev):

    -7.0021  -6.9187  -6.8501  -6.8068  -6.2919  -6.1732  -6.1149  -6.0750
    -5.7092  -5.6437  -5.5999  -5.5626  -5.4497  -5.4228  -5.3928  -5.3350
     1.2392   1.2600   1.3460   1.3895   1.5698   1.6676   1.7970   1.8754
     1.9296   1.9630   2.0062   2.1834   2.4265   2.5694   2.6445   2.6724
     2.9417   3.0491   3.0998   3.1696   3.2727   3.3520   3.4874   3.5430
     3.6145   3.6716   3.7299   3.7691   3.9828   4.0485   4.0869   4.1212
     4.1666   4.2532   4.3005   4.3493   4.6089   4.6497   4.6907   4.7336
     5.3558   5.4218   5.4870   5.5461   5.6172   5.7195   5.8064   5.9274
     5.9932   6.0055   6.0648   6.1072   6.2637   6.3552   6.5068   6.6037
     6.9392   7.0212   7.0548   7.1165   7.7005   7.7712   7.8056   7.8625
     8.7828   8.8105   8.8475   8.8816   8.9615   9.0179

     the Fermi energy is     6.7320 ev

!    total energy              =    -563.37076520 Ry
     Harris-Foulkes estimate   =    -563.37076558 Ry
     estimated scf accuracy    <       0.00000041 Ry

     The total energy is the sum of the following terms:

     one-electron contribution =     -26.15260561 Ry
     hartree contribution      =      96.49086402 Ry
     xc contribution           =    -222.50846084 Ry
     ewald contribution        =    -411.20630642 Ry
     smearing contrib. (-TS)   =       0.00574364 Ry

     convergence has been achieved in  13 iterations

     Forces acting on atoms (cartesian axes, Ry/au):

     atom    1 type  1   force =     0.00892224   -0.00000042    0.00637750
     atom    2 type  1   force =    -0.00617922   -0.00283905    0.00428197
     atom    3 type  1   force =    -0.00108716    0.00669070    0.00098474
     atom    4 type  1   force =    -0.00295626   -0.00041232   -0.00748245
     atom    5 type  1   force =     0.00497417    0.00467010    0.00023030
     atom    6 type  1   force =     0.00427457   -0.00743996    0.00384110
     atom    7 type  1   force =    -0.00594601   -0.00445215   -0.00115083
     atom    8 type  1   force =    -0.00035515    0.00400724   -0.00172035
     atom    9 type  2   force =    -0.00099518   -0.00239017    0.00610578
     atom   10 type  2   force =    -0.00274127   -0.00088016    0.01062272
     atom   11 type  2   force =     0.00294503    0.00017169    0.00174620
     atom   12 type  2   force =    -0.00173421   -0.00029216   -0.00800440
     atom   13 type  2   force =    -0.00188696   -0.00504837    0.00893669
     atom   14 type  2   force =    -0.00272998    0.00057995   -0.00359550
     atom   15 type  2   force =     0.00076722    0.00176383   -0.00071369
     atom   16 type  2   force =    -0.00508000   -0.00065603    0.00009832
     atom   17 type  2   force =     0.00278303    0.00190552   -0.00949040
     atom   18 type  2   force =     0.00125214    0.00247458    0.00384285
     atom   19 type  2   force =    -0.00048622   -0.00226030   -0.00244390
     atom   20 type  2   force =     0.00331430    0.00053674   -0.00194795
     atom   21 type  2   force =    -0.00165686   -0.00046409   -0.00060483
     atom   22 type  2   force =     0.00921318    0.00690801   -0.00289876
     atom   23 type  2   force =    -0.00872515   -0.00134170   -0.00792851
     atom   24 type  2   force =     0.00411375   -0.00123149    0.00091335

     Total force =     0.036961     Total SCF correction =     0.001970

     General routines

     Parallel routines

   This run was terminated on:  12: 1:50   8Sep2021

   JOB DONE.