     Program PWSCF v.6.4 starts on  2Dec2021 at 11:13: 6

     R & G space division:  proc/nbgrp/npool/nimage =      40
     Waiting for input...
     Reading input from standard input
Warning: card    &IONS ignored
Warning: card      ION_DYNAMICS = 'BFGS' ignored
Warning: card   / ignored
Warning: card    &CELL ignored
Warning: card      CELL_DYNAMICS = 'BFGS', ignored
Warning: card    / ignored

     Current dimensions of program PWSCF are:
     Max number of different atomic species (ntypx) = 10
     Max number of k-points (npk) =  40000
     Max angular momentum in pseudopotentials (lmaxx) =  3

     bravais-lattice index     =            0
     lattice parameter (alat)  =      12.8190  a.u.
     unit-cell volume          =    3142.6421 (a.u.)^3
     number of atoms/cell      =           24
     number of atomic types    =            2
     number of electrons       =       144.00
     number of Kohn-Sham states=           86
     kinetic-energy cutoff     =      45.0000  Ry
     charge density cutoff     =     360.0000  Ry
     convergence threshold     =      1.0E-06
     mixing beta               =       0.7000
     number of iterations used =            8  local-TF  mixing
     Exchange-correlation      = SLA PW GGX GGC ( 1  4  2  2 0 0)

     celldm(1)=  12.819000  celldm(2)=   0.000000  celldm(3)=   0.000000
     celldm(4)=   0.000000  celldm(5)=   0.000000  celldm(6)=   0.000000

     crystal axes: (cart. coord. in units of alat)
               a(1) = (   1.000000   0.000000   0.000000 )
               a(2) = (   0.493977   0.880022   0.000000 )
               a(3) = (   0.228227   0.171773   1.695270 )

     reciprocal axes: (cart. coord. in units 2 pi/alat)
               b(1) = (  1.000000 -0.561323 -0.077750 )
               b(2) = (  0.000000  1.136335 -0.115139 )
               b(3) = (  0.000000  0.000000  0.589877 )

     PseudoPot. # 1 for Mo read from file:
     ~/pseudo/Mo.pw91-n-van.UPF
     MD5 check sum: Not computed, couldn't open file
     Pseudo is Ultrasoft + core correction, Zval =  6.0
     Generated by new atomic code, or converted to UPF format
     Using radial grid of  965 points,  3 beta functions with:
                l(1) =   1
                l(2) =   2
                l(3) =   2
     Q(r) pseudized with  8 coefficients,  rinner =    1.000   1.000   1.000
                                                       1.200   1.200

     PseudoPot. # 2 for S  read from file:
     ~/pseudo/S.pw91-van_ak.UPF
     MD5 check sum: Not computed, couldn't open file
     Pseudo is Ultrasoft, Zval =  6.0
     Generated by new atomic code, or converted to UPF format
     Using radial grid of  811 points,  6 beta functions with:
                l(1) =   0
                l(2) =   0
                l(3) =   1
                l(4) =   1
                l(5) =   2
                l(6) =   2
     Q(r) pseudized with  8 coefficients,  rinner =    1.100   1.100   1.100
                                                       1.100   1.100

     atomic species   valence    mass     pseudopotential
        Mo             6.00    95.50000     Mo( 1.00)
        S              6.00    32.06500     S ( 1.00)

     No symmetry found

   Cartesian axes

     site n.     atom                  positions (alat units)
         1           Mo  tau(   1) = (   0.8095933   0.7376983   0.0679567  )
         2           Mo  tau(   2) = (   0.5827949   0.8777131   0.3931459  )
         3           Mo  tau(   3) = (   1.0682284   0.8845001   1.3021182  )
         4           Mo  tau(   4) = (   1.3786427   0.7258726   0.0638913  )
         5           Mo  tau(   5) = (   0.7886372   0.1307686   0.9755482  )
         6           Mo  tau(   6) = (   0.1316158   0.2421029   0.0683454  )
         7           Mo  tau(   7) = (   1.0691731   0.6381196   0.9691386  )
         8           Mo  tau(   8) = (   0.3731215   0.1424489   0.9658389  )
         9           S   tau(   9) = (   1.0756735   0.2912013   1.1532772  )
        10           S   tau(  10) = (   0.5719989   0.8768251   0.7332043  )
        11           S   tau(  11) = (   1.3474339   0.7215651   1.1768027  )
        12           S   tau(  12) = (   1.3208711   0.4445475   0.7725540  )
        13           S   tau(  13) = (   0.3175867   0.1727553   1.5194775  )
        14           S   tau(  14) = (   0.8306219   0.1534014   0.2358324  )
        15           S   tau(  15) = (   0.5775752   0.3260492   1.1859483  )
        16           S   tau(  16) = (   1.0742396   0.8825559   0.7152478  )
        17           S   tau(  17) = (   0.6539096   0.5723372   1.5942672  )
        18           S   tau(  18) = (   0.5942585   0.5552664   0.3029627  )
        19           S   tau(  19) = (   0.7869966   0.7414607   1.1593819  )
        20           S   tau(  20) = (   0.8171214   0.4417849   0.7836111  )
        21           S   tau(  21) = (   0.9685474   0.5966083   1.5605500  )
        22           S   tau(  22) = (   0.3784281   0.1378339   0.2892381  )
        23           S   tau(  23) = (   1.3146456   1.0157310   1.5603148  )
        24           S   tau(  24) = (   1.0963400   0.5624852   0.2648885  )

     number of k points=    10  Marzari-Vanderbilt smearing, width (Ry)=  0.0200
                       cart. coord. in units 2pi/alat
        k(    1) = (   0.0000000   0.0000000   0.0000000), wk =   0.1111111
        k(    2) = (   0.0000000   0.0000000  -0.2949383), wk =   0.1111111
        k(    3) = (   0.0000000   0.3787783  -0.0383796), wk =   0.2222222
        k(    4) = (   0.0000000   0.3787783  -0.3333180), wk =   0.2222222
        k(    5) = (   0.3333333  -0.1871077  -0.0259166), wk =   0.2222222
        k(    6) = (   0.3333333  -0.1871077  -0.3208549), wk =   0.2222222
        k(    7) = (   0.3333333   0.1916706  -0.0642962), wk =   0.2222222
        k(    8) = (   0.3333333   0.1916706  -0.3592345), wk =   0.2222222
        k(    9) = (   0.3333333  -0.5658860   0.0124631), wk =   0.2222222
        k(   10) = (   0.3333333  -0.5658860  -0.2824753), wk =   0.2222222

     Initial potential from superposition of free atoms

     starting charge  143.98738, renormalised to  144.00000
     Starting wfcs are  136 randomized atomic wfcs

     Self-consistent Calculation

     iteration #  1     ecut=    45.00 Ry     beta= 0.70
     Davidson diagonalization with overlap
     ethr =  1.00E-02,  avg # of iterations =  2.0

     total energy              =    -562.09473428 Ry
     Harris-Foulkes estimate   =    -563.87130927 Ry
     estimated scf accuracy    <       4.75387255 Ry

[...]

     total energy              =    -562.99216956 Ry
     Harris-Foulkes estimate   =    -562.99216978 Ry
     estimated scf accuracy    <       0.00000155 Ry

     iteration # 12     ecut=    45.00 Ry     beta= 0.70
     Davidson diagonalization with overlap
     ethr =  1.08E-09,  avg # of iterations =  3.4

     End of self-consistent calculation

          k = 0.0000 0.0000 0.0000 ( 16029 PWs)   bands (ev):

    -7.6133  -6.5417  -6.2329  -6.0447  -5.5810  -5.5518  -5.4761  -5.4213
    -5.3613  -4.9032  -4.7451  -4.4130  -4.3939  -4.1458  -4.0646  -3.9921
     1.1048   1.1584   1.2990   1.4773   1.5600   1.7668   1.8988   2.2320
     2.4436   2.5991   2.7179   2.8288   2.9501   2.9963   3.1332   3.2446
     3.3037   3.5365   3.6352   3.7917   3.8402   3.8595   3.9471   3.9886
     4.0574   4.1498   4.2257   4.2833   4.3410   4.4266   4.4665   4.5979
     4.8056   4.8721   5.0877   5.1692   5.2417   5.4320   5.4913   5.5636
     5.7081   5.7332   5.8213   6.0099   6.0828   6.1647   6.2517   6.5149
     6.6918   6.7836   6.8202   6.8719   6.9716   7.1687   7.3030   7.4361
     7.5534   7.8932   7.9193   8.1669   8.5520   8.8984   8.9602   8.9677
     9.2146   9.3530   9.4381   9.4494   9.4832   9.5858

[...]

          k = 0.3333-0.5659-0.2825 ( 16008 PWs)   bands (ev):

    -7.4311  -6.4376  -6.0469  -5.9845  -5.8414  -5.6685  -5.5909  -5.5407
    -5.2772  -4.9306  -4.8728  -4.6131  -4.4639  -4.1677  -4.0139  -3.9253
     1.4172   1.5458   1.7080   1.8637   1.9546   2.1895   2.2738   2.3836
     2.4921   2.5429   2.7024   2.7859   2.8619   2.9289   2.9803   3.1745
     3.3270   3.4089   3.5351   3.5610   3.6336   3.6919   3.7648   3.8339
     3.9703   4.1154   4.1561   4.2203   4.3686   4.4278   4.5633   4.6100
     4.7192   4.8100   4.8821   5.0549   5.1414   5.2245   5.3598   5.4323
     5.5653   5.6801   5.8594   5.9661   6.0427   6.1670   6.2466   6.4724
     6.5546   6.6460   6.7094   6.8827   7.0313   7.1220   7.1993   7.3865
     7.4593   7.6083   7.7809   8.1087   8.2896   8.5179   8.7273   9.0072
     9.1898   9.3411   9.3796   9.4260   9.5041   9.5755

     the Fermi energy is     7.4366 ev

!    total energy              =    -562.99216964 Ry
     Harris-Foulkes estimate   =    -562.99216987 Ry
     estimated scf accuracy    <       0.00000032 Ry

     The total energy is the sum of the following terms:

     one-electron contribution =      31.81936793 Ry
     hartree contribution      =      70.77791181 Ry
     xc contribution           =    -222.57175819 Ry
     ewald contribution        =    -443.02349252 Ry
     smearing contrib. (-TS)   =       0.00580133 Ry

     convergence has been achieved in  12 iterations

     Forces acting on atoms (cartesian axes, Ry/au):

     atom    1 type  1   force =    -0.01724722   -0.02998079   -0.01518298
     atom    2 type  1   force =    -0.01519232    0.01822373    0.04754046
     atom    3 type  1   force =    -0.00303752   -0.02374095    0.10272012
     atom    4 type  1   force =    -0.00227751   -0.02206276    0.02986098
     atom    5 type  1   force =     0.01608600    0.03360086   -0.03053215
     atom    6 type  1   force =    -0.00169672    0.01959394    0.04631938
     atom    7 type  1   force =     0.01046866   -0.05444506   -0.01951316
     atom    8 type  1   force =    -0.04176886    0.02383890   -0.03221493
     atom    9 type  2   force =     0.00226968    0.01370616   -0.02521429
     atom   10 type  2   force =    -0.00285402    0.01912325    0.02518419
     atom   11 type  2   force =    -0.01528541   -0.00709482   -0.01043046
     atom   12 type  2   force =    -0.00321171   -0.00951060    0.01305111
     atom   13 type  2   force =     0.00232712   -0.00843529   -0.02935054
     atom   14 type  2   force =    -0.01569167    0.01045232    0.01236965
     atom   15 type  2   force =     0.01184277    0.01044663   -0.03326839
     atom   16 type  2   force =     0.00456786    0.00356960    0.00022383
     atom   17 type  2   force =    -0.02709199    0.03583715   -0.03942702
     atom   18 type  2   force =     0.00253006   -0.00402002   -0.01629621
     atom   19 type  2   force =     0.00313263   -0.01326089   -0.01491685
     atom   20 type  2   force =     0.01537791   -0.01094818    0.00746150
     atom   21 type  2   force =     0.05638534    0.01046221    0.01351956
     atom   22 type  2   force =     0.01680300    0.00124181    0.00289802
     atom   23 type  2   force =    -0.00455092   -0.01724237    0.00146793
     atom   24 type  2   force =     0.00811484    0.00064516   -0.03626975

     Total force =     0.209522     Total SCF correction =     0.001075

     General routines

     Parallel routines

   This run was terminated on:  11:14: 8   2Dec2021

   JOB DONE.