     Program PWSCF v.6.4 starts on 28Nov2021 at 10:21:10

     R & G space division:  proc/nbgrp/npool/nimage =      40
     Waiting for input...
     Reading input from standard input
Warning: card    &IONS ignored
Warning: card      ION_DYNAMICS = 'BFGS' ignored
Warning: card   / ignored
Warning: card    &CELL ignored
Warning: card      CELL_DYNAMICS = 'BFGS', ignored
Warning: card    / ignored

     Current dimensions of program PWSCF are:
     Max number of different atomic species (ntypx) = 10
     Max number of k-points (npk) =  40000
     Max angular momentum in pseudopotentials (lmaxx) =  3

     bravais-lattice index     =            0
     lattice parameter (alat)  =      12.2793  a.u.
     unit-cell volume          =    3665.5109 (a.u.)^3
     number of atoms/cell      =           24
     number of atomic types    =            2
     number of electrons       =       144.00
     number of Kohn-Sham states=           86
     kinetic-energy cutoff     =      45.0000  Ry
     charge density cutoff     =     360.0000  Ry
     convergence threshold     =      1.0E-06
     mixing beta               =       0.7000
     number of iterations used =            8  local-TF  mixing
     Exchange-correlation      = SLA PW GGX GGC ( 1  4  2  2 0 0)

     celldm(1)=  12.279271  celldm(2)=   0.000000  celldm(3)=   0.000000
     celldm(4)=   0.000000  celldm(5)=   0.000000  celldm(6)=   0.000000

     crystal axes: (cart. coord. in units of alat)
               a(1) = (   0.999773   0.020421  -0.006022 )
               a(2) = (  -0.495097   0.845964  -0.017788 )
               a(3) = (  -0.246892  -0.490826   2.326418 )

     reciprocal axes: (cart. coord. in units 2 pi/alat)
               b(1) = (  0.989673  0.584002  0.228242 )
               b(2) = ( -0.022503  1.174073  0.245317 )
               b(3) = (  0.002390  0.010489  0.432312 )

     PseudoPot. # 1 for Mo read from file:
     ~/pseudo/Mo.pw91-n-van.UPF
     MD5 check sum: Not computed, couldn't open file
     Pseudo is Ultrasoft + core correction, Zval =  6.0
     Generated by new atomic code, or converted to UPF format
     Using radial grid of  965 points,  3 beta functions with:
                l(1) =   1
                l(2) =   2
                l(3) =   2
     Q(r) pseudized with  8 coefficients,  rinner =    1.000   1.000   1.000
                                                       1.200   1.200

     PseudoPot. # 2 for S  read from file:
     ~/pseudo/S.pw91-van_ak.UPF
     MD5 check sum: Not computed, couldn't open file
     Pseudo is Ultrasoft, Zval =  6.0
     Generated by new atomic code, or converted to UPF format
     Using radial grid of  811 points,  6 beta functions with:
                l(1) =   0
                l(2) =   0
                l(3) =   1
                l(4) =   1
                l(5) =   2
                l(6) =   2
     Q(r) pseudized with  8 coefficients,  rinner =    1.100   1.100   1.100
                                                       1.100   1.100

     atomic species   valence    mass     pseudopotential
        Mo             6.00    95.50000     Mo( 1.00)
        S              6.00    32.06500     S ( 1.00)

     No symmetry found

   Cartesian axes

     site n.     atom                  positions (alat units)
         1           Mo  tau(   1) = (   0.1515161   0.7306098   0.4541859  )
         2           Mo  tau(   2) = (  -0.0078817   0.1295202   0.6922274  )
         3           Mo  tau(   3) = (  -0.2627402  -0.1037260   1.7292485  )
         4           Mo  tau(   4) = (   0.3097807   0.3464736   0.5919366  )
         5           Mo  tau(   5) = (  -0.0103279   0.3280854   1.7150836  )
         6           Mo  tau(   6) = (  -0.0007008   0.5114276   0.8059218  )
         7           Mo  tau(   7) = (  -0.5098470   0.3193126   1.7177258  )
         8           Mo  tau(   8) = (   0.2380669  -0.0930115   1.7248252  )
         9           S   tau(   9) = (  -0.2595803   0.4724154   1.9543556  )
        10           S   tau(  10) = (  -0.2615966   0.4619388   1.4721246  )
        11           S   tau(  11) = (   0.7352095  -0.3647481   1.9697220  )
        12           S   tau(  12) = (   0.2373925   0.4722196   1.4700326  )
        13           S   tau(  13) = (   0.2197970   0.4439226   0.2542295  )
        14           S   tau(  14) = (   0.1844749   0.2002923   1.0227183  )
        15           S   tau(  15) = (  -0.0116629   0.0486452   1.9655085  )
        16           S   tau(  16) = (  -0.0155378   0.0358720   1.4817279  )
        17           S   tau(  17) = (   0.3252479   0.6697074   0.7667911  )
        18           S   tau(  18) = (   0.4811916   0.3486149   0.9471153  )
        19           S   tau(  19) = (   0.4878463   0.0610470   1.9622044  )
        20           S   tau(  20) = (   0.4863501   0.0480194   1.4775595  )
        21           S   tau(  21) = (   0.6363137   0.0964755   0.1680501  )
        22           S   tau(  22) = (   0.3001121  -0.0960401   0.5976003  )
        23           S   tau(  23) = (   0.7061520   0.2694703   0.4369399  )
        24           S   tau(  24) = (  -0.2077788   0.2400653   0.9827750  )

     number of k points=    10  Marzari-Vanderbilt smearing, width (Ry)=  0.0200
                       cart. coord. in units 2pi/alat
        k(    1) = (   0.0000000   0.0000000   0.0000000), wk =   0.1111111
        k(    2) = (  -0.0011949  -0.0052445  -0.2161559), wk =   0.1111111
        k(    3) = (  -0.0075010   0.3913575   0.0817722), wk =   0.2222222
        k(    4) = (  -0.0086960   0.3861130  -0.1343837), wk =   0.2222222
        k(    5) = (   0.3298911   0.1946672   0.0760806), wk =   0.2222222
        k(    6) = (   0.3286961   0.1894227  -0.1400754), wk =   0.2222222
        k(    7) = (   0.3223900   0.5860247   0.1578528), wk =   0.2222222
        k(    8) = (   0.3211951   0.5807802  -0.0583032), wk =   0.2222222
        k(    9) = (   0.3373921  -0.1966903  -0.0056916), wk =   0.2222222
        k(   10) = (   0.3361971  -0.2019348  -0.2218476), wk =   0.2222222

     Initial potential from superposition of free atoms

     starting charge  143.98738, renormalised to  144.00000
     Starting wfcs are  136 randomized atomic wfcs

     Self-consistent Calculation

     iteration #  1     ecut=    45.00 Ry     beta= 0.70
     Davidson diagonalization with overlap
     ethr =  1.00E-02,  avg # of iterations =  2.0

     total energy              =    -562.35222234 Ry
     Harris-Foulkes estimate   =    -563.75590336 Ry
     estimated scf accuracy    <       3.66610798 Ry

[...]

     iteration #  5     ecut=    45.00 Ry     beta= 0.70
     Davidson diagonalization with overlap
     c_bands:  2 eigenvalues not converged
     ethr =  3.56E-05,  avg # of iterations =  9.7

[...]

     total energy              =    -563.01072206 Ry
     Harris-Foulkes estimate   =    -563.01072913 Ry
     estimated scf accuracy    <       0.00003783 Ry

     iteration # 15     ecut=    45.00 Ry     beta= 0.70
     Davidson diagonalization with overlap
     ethr =  2.63E-08,  avg # of iterations =  3.0

     End of self-consistent calculation

          k = 0.0000 0.0000 0.0000 ( 18677 PWs)   bands (ev):

   -10.0412  -8.9443  -8.7566  -7.9144  -7.5474  -7.3494  -7.1383  -7.1084
    -7.0361  -7.0227  -6.8353  -6.7354  -6.7149  -6.2969  -6.1575  -5.1259
    -0.7447  -0.4127  -0.3780  -0.3665  -0.3108   0.0498   0.3552   0.5175
     0.5411   0.5737   0.6455   0.6583   0.9732   1.1428   1.1816   1.2257
     1.2536   1.3863   1.6235   1.9005   1.9765   2.0031   2.0302   2.2131
     2.2905   2.4573   2.4641   2.6854   2.7395   2.8807   3.0351   3.1946
     3.2400   3.3685   3.4031   3.4896   3.5712   3.6231   3.7607   3.8055
     3.8510   4.0874   4.1222   4.1554   4.1739   4.3894   4.4969   4.5379
     4.6295   4.6515   4.8263   5.0150   5.3145   5.4752   5.6412   5.9066
     6.3613   6.5261   6.6594   7.0469   7.1701   7.1816   7.2016   7.3026
     7.5524   7.6169   7.6953   7.7667   7.7835   7.8318

          k =-0.0012-0.0052-0.2162 ( 18658 PWs)   bands (ev):

[...]

          k =-0.0087 0.3861-0.1344 ( 18682 PWs)   bands (ev):

[...]

          k = 0.3362-0.2019-0.2218 ( 18702 PWs)   bands (ev):

    -9.7942  -8.9336  -8.4133  -8.3579  -7.8336  -7.5394  -7.3636  -7.1584
    -7.1243  -7.0806  -6.9554  -6.8010  -6.7460  -6.2878  -5.1285  -4.9040
    -1.2901  -0.2929  -0.0073   0.0528   0.0975   0.1110   0.2210   0.4717
     0.5228   0.5475   0.6782   0.9655   1.1177   1.1806   1.3217   1.3791
     1.4006   1.4511   1.5914   1.7903   1.9369   2.0406   2.0934   2.1433
     2.2553   2.3020   2.4011   2.5146   2.6515   2.8328   2.8810   2.9208
     2.9584   3.0923   3.1070   3.2462   3.3687   3.4863   3.5328   3.6430
     3.7320   3.7929   3.8914   4.0376   4.2584   4.3381   4.5043   4.6569
     4.7219   4.7746   4.9089   5.0223   5.1088   5.5307   5.6197   5.8459
     6.3613   6.7790   6.8008   7.1145   7.1742   7.1989   7.2152   7.2356
     7.4459   7.4820   7.5557   7.6371   7.6467   7.6975

     the Fermi energy is     6.0788 ev

!    total energy              =    -563.01072460 Ry
     Harris-Foulkes estimate   =    -563.01072508 Ry
     estimated scf accuracy    <       0.00000077 Ry

     The total energy is the sum of the following terms:

     one-electron contribution =    -162.22500702 Ry
     hartree contribution      =     158.01753726 Ry
     xc contribution           =    -222.64779217 Ry
     ewald contribution        =    -336.16128579 Ry
     smearing contrib. (-TS)   =       0.00582312 Ry

     convergence has been achieved in  15 iterations

     Forces acting on atoms (cartesian axes, Ry/au):

     atom    1 type  1   force =    -0.01045665   -0.00230008    0.00244394
     atom    2 type  1   force =     0.00554545    0.00446839   -0.00203990
     atom    3 type  1   force =    -0.00054846    0.00022369    0.00018461
     atom    4 type  1   force =     0.00358885    0.00894023   -0.01156399
     atom    5 type  1   force =    -0.00091739    0.00298998    0.00121227
     atom    6 type  1   force =    -0.00231765   -0.01434323   -0.00012667
     atom    7 type  1   force =    -0.00139532    0.00149027    0.00120012
     atom    8 type  1   force =    -0.00255623    0.00084173    0.00066087
     atom    9 type  2   force =     0.00109929   -0.00152568    0.00301290
     atom   10 type  2   force =     0.00032690   -0.00059344   -0.00138085
     atom   11 type  2   force =     0.00054907    0.00024270    0.00455219
     atom   12 type  2   force =    -0.00002106   -0.00094370   -0.00272941
     atom   13 type  2   force =     0.00054413    0.00091621   -0.00631970
     atom   14 type  2   force =    -0.00363096    0.00456121   -0.00864571
     atom   15 type  2   force =     0.00090232    0.00152296    0.00122893
     atom   16 type  2   force =     0.00141078   -0.00024265   -0.00027817
     atom   17 type  2   force =     0.00220487    0.00604576    0.00272444
     atom   18 type  2   force =     0.00276408   -0.01099931   -0.00190940
     atom   19 type  2   force =     0.00053661   -0.00123716    0.00135516
     atom   20 type  2   force =    -0.00037617   -0.00164330   -0.00086977
     atom   21 type  2   force =     0.00544637    0.00643207    0.00728943
     atom   22 type  2   force =     0.00296537   -0.00190428   -0.00181776
     atom   23 type  2   force =    -0.00227247   -0.00930809    0.00281932
     atom   24 type  2   force =    -0.00339175    0.00636572    0.00899716

     Total force =     0.037417     Total SCF correction =     0.002052

     General routines

     Parallel routines

   This run was terminated on:  10:22:34  28Nov2021

   JOB DONE.