     Program PWSCF v.6.4 starts on  2Sep2021 at  9:16: 8

     R & G space division:  proc/nbgrp/npool/nimage =      40
     Waiting for input...
     Reading input from standard input
Warning: card    &IONS ignored
Warning: card      ION_DYNAMICS = 'BFGS' ignored
Warning: card   / ignored
Warning: card    &CELL ignored
Warning: card      CELL_DYNAMICS = 'BFGS', ignored
Warning: card    / ignored

     Current dimensions of program PWSCF are:
     Max number of different atomic species (ntypx) = 10
     Max number of k-points (npk) =  40000
     Max angular momentum in pseudopotentials (lmaxx) =  3

     Found symmetry operation: I + (  0.0000 -0.5000 -0.0000)
     This is a supercell, fractional translations are disabled

     bravais-lattice index     =            0
     lattice parameter (alat)  =      12.2002  a.u.
     unit-cell volume          =    5351.2650 (a.u.)^3
     number of atoms/cell      =           36
     number of atomic types    =            2
     number of electrons       =       216.00
     number of Kohn-Sham states=          130
     kinetic-energy cutoff     =      45.0000  Ry
     charge density cutoff     =     360.0000  Ry
     convergence threshold     =      1.0E-06
     mixing beta               =       0.7000
     number of iterations used =            8  local-TF  mixing
     Exchange-correlation      = SLA PW GGX GGC ( 1  4  2  2 0 0)

     celldm(1)=  12.200160  celldm(2)=   0.000000  celldm(3)=   0.000000
     celldm(4)=   0.000000  celldm(5)=   0.000000  celldm(6)=   0.000000

     crystal axes: (cart. coord. in units of alat)
               a(1) = (   1.000000   0.000000   0.000000 )
               a(2) = (   0.499886   0.866037   0.000000 )
               a(3) = (   0.289778  -0.105216   3.402697 )

     reciprocal axes: (cart. coord. in units 2 pi/alat)
               b(1) = (  1.000000 -0.577211 -0.103009 )
               b(2) = (  0.000000  1.154685  0.035704 )
               b(3) = (  0.000000  0.000000  0.293885 )

     PseudoPot. # 1 for Mo read from file:
     ~/pseudo/Mo.pw91-n-van.UPF
     MD5 check sum: Not computed, couldn't open file
     Pseudo is Ultrasoft + core correction, Zval =  6.0
     Generated by new atomic code, or converted to UPF format
     Using radial grid of  965 points,  3 beta functions with:
                l(1) =   1
                l(2) =   2
                l(3) =   2
     Q(r) pseudized with  8 coefficients,  rinner =    1.000   1.000   1.000
                                                       1.200   1.200

     PseudoPot. # 2 for S  read from file:
     ~/pseudo/S.pw91-van_ak.UPF
     MD5 check sum: Not computed, couldn't open file
     Pseudo is Ultrasoft, Zval =  6.0
     Generated by new atomic code, or converted to UPF format
     Using radial grid of  811 points,  6 beta functions with:
                l(1) =   0
                l(2) =   0
                l(3) =   1
                l(4) =   1
                l(5) =   2
                l(6) =   2
     Q(r) pseudized with  8 coefficients,  rinner =    1.100   1.100   1.100
                                                       1.100   1.100

     atomic species   valence    mass     pseudopotential
        Mo             6.00    95.50000     Mo( 1.00)
        S              6.00    32.06500     S ( 1.00)

     No symmetry found

   Cartesian axes

     site n.     atom                  positions (alat units)
         1           Mo  tau(   1) = (   1.3664524   0.8016490   1.2093923  )
         2           Mo  tau(   2) = (   1.1165098   0.3686307   1.2093864  )
         3           Mo  tau(   3) = (   0.6165090   0.3686306   1.2093903  )
         4           Mo  tau(   4) = (   0.8664524   0.8016493   1.2093951  )
         5           Mo  tau(   5) = (   1.3396808   0.7827340   2.2659499  )
         6           Mo  tau(   6) = (   1.0897378   0.3497171   2.2659479  )
         7           Mo  tau(   7) = (   0.5897361   0.3497180   2.2659534  )
         8           Mo  tau(   8) = (   0.8396794   0.7827352   2.2659490  )
         9           Mo  tau(   9) = (   0.3695241  -0.0658248   3.3284780  )
        10           Mo  tau(  10) = (   0.6194690   0.3671957   3.3284745  )
        11           Mo  tau(  11) = (   1.1194674   0.3671944   3.3284736  )
        12           Mo  tau(  12) = (   0.8695264  -0.0658238   3.3284779  )
        13           S   tau(  13) = (   1.3297993   0.7611921   0.1692844  )
        14           S   tau(  14) = (   1.0798560   0.3281771   0.1692802  )
        15           S   tau(  15) = (   0.5798565   0.3281771   0.1692818  )
        16           S   tau(  16) = (   0.8297999   0.7611921   0.1692819  )
        17           S   tau(  17) = (   0.6166148   0.6574009   0.9658993  )
        18           S   tau(  18) = (   0.3666722   0.2243774   0.9658968  )
        19           S   tau(  19) = (   0.8666690   0.2243790   0.9658962  )
        20           S   tau(  20) = (   1.1166124   0.6574030   0.9658977  )
        21           S   tau(  21) = (   0.6161382   0.6571058   1.4547012  )
        22           S   tau(  22) = (   0.3661946   0.2240917   1.4546989  )
        23           S   tau(  23) = (   0.8661980   0.2240904   1.4546968  )
        24           S   tau(  24) = (   1.1161402   0.6571038   1.4546995  )
        25           S   tau(  25) = (   0.8398856   0.2054790   2.0210839  )
        26           S   tau(  26) = (   1.0898313   0.6384987   2.0210803  )
        27           S   tau(  27) = (   0.5898313   0.6384958   2.0210810  )
        28           S   tau(  28) = (   0.3398906   0.2054793   2.0210815  )
        29           S   tau(  29) = (   0.8398873   0.2054590   2.5108114  )
        30           S   tau(  30) = (   1.0898280   0.6384772   2.5108111  )
        31           S   tau(  31) = (   1.5898290   0.6384799   2.5108150  )
        32           S   tau(  32) = (   1.3398831   0.2054585   2.5108128  )
        33           S   tau(  33) = (   1.6191120   0.6556686   3.0831782  )
        34           S   tau(  34) = (   1.3691697   0.2226466   3.0831793  )
        35           S   tau(  35) = (   0.8691683   0.2226466   3.0831777  )
        36           S   tau(  36) = (   1.1191123   0.6556692   3.0831804  )

     number of k points=     5  Marzari-Vanderbilt smearing, width (Ry)=  0.0200
                       cart. coord. in units 2pi/alat
        k(    1) = (   0.0000000   0.0000000   0.0000000), wk =   0.2222222
        k(    2) = (   0.0000000   0.3848949   0.0119014), wk =   0.4444444
        k(    3) = (   0.3333333  -0.1924036  -0.0343365), wk =   0.4444444
        k(    4) = (   0.3333333   0.1924913  -0.0224350), wk =   0.4444444
        k(    5) = (   0.3333333  -0.5772985  -0.0462379), wk =   0.4444444

     Initial potential from superposition of free atoms

     starting charge  215.98107, renormalised to  216.00000
     Starting wfcs are  204 randomized atomic wfcs

     Self-consistent Calculation

     iteration #  1     ecut=    45.00 Ry     beta= 0.70
     Davidson diagonalization with overlap
     ethr =  1.00E-02,  avg # of iterations =  2.0

     total energy              =    -844.20001918 Ry
     Harris-Foulkes estimate   =    -846.86548073 Ry
     estimated scf accuracy    <       6.82475082 Ry

[...]

     total energy              =    -845.53045125 Ry
     Harris-Foulkes estimate   =    -845.53045227 Ry
     estimated scf accuracy    <       0.00000445 Ry

     iteration # 13     ecut=    45.00 Ry     beta= 0.70
     Davidson diagonalization with overlap
     ethr =  2.06E-09,  avg # of iterations =  2.0

     End of self-consistent calculation

          k = 0.0000 0.0000 0.0000 ( 27231 PWs)   bands (ev):

    -8.4557  -8.4100  -8.3931  -7.2892  -7.2201  -7.1865  -6.7506  -6.7506
    -6.7492  -6.7108  -6.7106  -6.7099  -6.6948  -6.6948  -6.6945  -6.4770
    -6.4768  -6.4763  -6.4274  -6.4269  -6.4258  -6.4119  -6.4112  -6.4111
    -0.0899  -0.0899  -0.0897  -0.0806  -0.0396  -0.0380  -0.0378  -0.0177
    -0.0171  -0.0164   0.1083   0.2416   0.8248   0.8253   0.8290   0.8959
     0.9001   0.9027   0.9412   0.9418   0.9432   1.4376   1.4404   1.4458
     1.5660   1.5688   1.5759   1.6648   1.6676   1.6693   2.4235   2.4244
     2.4251   2.4470   2.4495   2.4499   2.4516   2.4538   2.4544   2.9402
     2.9435   2.9564   2.9571   2.9603   2.9609   3.4481   3.4585   3.4654
     3.4675   3.6974   3.7046   3.7128   3.8057   3.9129   3.9156   3.9233
     4.0321   4.0401   4.0574   4.0620   4.0637   4.0677   4.3518   4.5414
     4.5422   4.5428   4.5776   4.5792   4.5804   4.5887   4.5887   4.5889
     4.7913   4.7927   4.7965   4.9194   4.9262   4.9275   5.0027   5.0030
     5.0059   5.3014   5.6592   5.8111   7.4988   7.5000   7.5003   7.5288
     7.5289   7.5297   7.5325   7.5328   7.5336   7.9803   7.9818   7.9838
     8.0432   8.0447   8.0489   8.0680   8.0690   8.0718   8.1624   8.1715
     8.2060   8.2134

[...]

          k = 0.3333-0.5773-0.0462 ( 27346 PWs)   bands (ev):

    -7.4936  -7.4931  -7.4931  -7.4494  -7.4492  -7.4489  -7.4325  -7.4324
    -7.4323  -6.8181  -6.8179  -6.8178  -6.7598  -6.7595  -6.7590  -6.7363
    -6.7363  -6.7359  -6.5146  -6.4767  -6.4612  -6.3172  -6.2689  -6.2554
     0.3082   0.3417   0.3503   0.6614   0.6622   0.6627   0.7697   0.7709
     0.7733   0.8410   0.8428   0.8434   1.0651   1.1153   1.1325   1.5651
     1.6113   1.6276   1.6705   1.6711   1.6713   1.7610   1.7627   1.7629
     1.8441   1.8560   1.8580   1.8589   1.9683   1.9689   1.9705   1.9987
     2.0271   2.0284   2.0293   2.0491   2.0493   2.0495   2.1445   2.3625
     2.3640   2.3650   2.4706   2.4715   2.4748   2.5472   2.5489   2.5492
     2.6408   2.7162   2.7500   3.2054   3.4377   3.5777   3.5778   3.5783
     3.6052   3.6087   3.6092   3.6093   3.6156   3.6161   3.6162   4.2728
     4.2729   4.2756   4.4530   4.4536   4.4595   4.6556   4.6625   4.6637
     4.7172   4.7199   4.7236   4.7828   4.7879   4.7883   4.7905   4.7907
     4.7912   5.4543   5.4931   5.5033   7.0582   7.0856   7.0895   7.2007
     7.2029   7.2058   7.3803   7.3872   7.3945   7.4909   7.4971   7.5005
     7.7514   7.7516   7.7535   7.8188   7.8189   7.8218   7.8952   7.8996
     7.9051   8.0078

     the Fermi energy is     5.6979 ev

!    total energy              =    -845.53045115 Ry
     Harris-Foulkes estimate   =    -845.53045162 Ry
     estimated scf accuracy    <       0.00000051 Ry

     The total energy is the sum of the following terms:

     one-electron contribution =    -322.65821778 Ry
     hartree contribution      =     278.41751693 Ry
     xc contribution           =    -333.99109055 Ry
     ewald contribution        =    -467.31586966 Ry
     smearing contrib. (-TS)   =       0.01720991 Ry

     convergence has been achieved in  13 iterations

     Forces acting on atoms (cartesian axes, Ry/au):

     atom    1 type  1   force =    -0.00002814   -0.00046426    0.00698657
     atom    2 type  1   force =    -0.00041998   -0.00014952    0.00702756
     atom    3 type  1   force =    -0.00032517    0.00022304    0.00704051
     atom    4 type  1   force =    -0.00070916   -0.00052496    0.00700535
     atom    5 type  1   force =     0.00064396   -0.00016086   -0.00011687
     atom    6 type  1   force =     0.00088842    0.00080381   -0.00009959
     atom    7 type  1   force =     0.00031948    0.00085145   -0.00006628
     atom    8 type  1   force =     0.00056887    0.00016321   -0.00008455
     atom    9 type  1   force =    -0.00043867    0.00053596   -0.00720836
     atom   10 type  1   force =    -0.00079405   -0.00061805   -0.00713609
     atom   11 type  1   force =     0.00015590   -0.00075075   -0.00725682
     atom   12 type  1   force =    -0.00020544   -0.00000767   -0.00721187
     atom   13 type  2   force =    -0.00031725   -0.00046820    0.00169791
     atom   14 type  2   force =    -0.00010260   -0.00008589    0.00141646
     atom   15 type  2   force =    -0.00048129    0.00000372    0.00150807
     atom   16 type  2   force =    -0.00032775   -0.00032446    0.00167269
     atom   17 type  2   force =    -0.00039571   -0.00033233   -0.00123777
     atom   18 type  2   force =    -0.00038998   -0.00003815   -0.00144409
     atom   19 type  2   force =    -0.00037210   -0.00011173   -0.00129399
     atom   20 type  2   force =    -0.00020459   -0.00031935   -0.00120907
     atom   21 type  2   force =     0.00070543    0.00069342   -0.00887630
     atom   22 type  2   force =     0.00096080    0.00055534   -0.00860104
     atom   23 type  2   force =     0.00090939    0.00041649   -0.00896275
     atom   24 type  2   force =     0.00109716    0.00081761   -0.00894397
     atom   25 type  2   force =    -0.00074675   -0.00027526    0.00711782
     atom   26 type  2   force =    -0.00057623   -0.00040492    0.00758427
     atom   27 type  2   force =    -0.00045183   -0.00048733    0.00727360
     atom   28 type  2   force =    -0.00047385   -0.00045460    0.00734809
     atom   29 type  2   force =    -0.00051984   -0.00055462   -0.00675618
     atom   30 type  2   force =    -0.00045049   -0.00011737   -0.00703596
     atom   31 type  2   force =    -0.00062105   -0.00011924   -0.00671498
     atom   32 type  2   force =    -0.00042650   -0.00050402   -0.00661825
     atom   33 type  2   force =     0.00082918    0.00064162    0.00849252
     atom   34 type  2   force =     0.00088386    0.00057436    0.00827889
     atom   35 type  2   force =     0.00090916    0.00044708    0.00838077
     atom   36 type  2   force =     0.00090682    0.00054641    0.00804368

     Total force =     0.037816     Total SCF correction =     0.001576

     General routines

     Parallel routines

   This run was terminated on:   9:17:40   2Sep2021

   JOB DONE.