     Program PWSCF v.6.4 starts on 12Aug2021 at 14: 3:49

     R & G space division:  proc/nbgrp/npool/nimage =      40
     Waiting for input...
     Reading input from standard input
Warning: card    &IONS ignored
Warning: card      ION_DYNAMICS = 'BFGS' ignored
Warning: card   / ignored
Warning: card    &CELL ignored
Warning: card      CELL_DYNAMICS = 'BFGS', ignored
Warning: card    / ignored

     Current dimensions of program PWSCF are:
     Max number of different atomic species (ntypx) = 10
     Max number of k-points (npk) =  40000
     Max angular momentum in pseudopotentials (lmaxx) =  3

     bravais-lattice index     =            0
     lattice parameter (alat)  =      13.7182  a.u.
     unit-cell volume          =    3698.0884 (a.u.)^3
     number of atoms/cell      =           24
     number of atomic types    =            2
     number of electrons       =       144.00
     number of Kohn-Sham states=           86
     kinetic-energy cutoff     =      45.0000  Ry
     charge density cutoff     =     360.0000  Ry
     convergence threshold     =      1.0E-06
     mixing beta               =       0.7000
     number of iterations used =            8  local-TF  mixing
     Exchange-correlation      = SLA PW GGX GGC ( 1  4  2  2 0 0)

     celldm(1)=  13.718231  celldm(2)=   0.000000  celldm(3)=   0.000000
     celldm(4)=   0.000000  celldm(5)=   0.000000  celldm(6)=   0.000000

     crystal axes: (cart. coord. in units of alat)
               a(1) = (   0.999845  -0.010833  -0.013900 )
               a(2) = (  -0.454010   0.850437  -0.002038 )
               a(3) = (  -0.233075  -0.195196   1.699638 )

     reciprocal axes: (cart. coord. in units 2 pi/alat)
               b(1) = (  1.008779  0.539022  0.200240 )
               b(2) = (  0.014748  1.184070  0.138008 )
               b(3) = (  0.008268  0.005828  0.590164 )

     PseudoPot. # 1 for Mo read from file:
     ~/pseudo/Mo.pw91-n-van.UPF
     MD5 check sum: Not computed, couldn't open file
     Pseudo is Ultrasoft + core correction, Zval =  6.0
     Generated by new atomic code, or converted to UPF format
     Using radial grid of  965 points,  3 beta functions with:
                l(1) =   1
                l(2) =   2
                l(3) =   2
     Q(r) pseudized with  8 coefficients,  rinner =    1.000   1.000   1.000
                                                       1.200   1.200

     PseudoPot. # 2 for S  read from file:
     ~/pseudo/S.pw91-van_ak.UPF
     MD5 check sum: Not computed, couldn't open file
     Pseudo is Ultrasoft, Zval =  6.0
     Generated by new atomic code, or converted to UPF format
     Using radial grid of  811 points,  6 beta functions with:
                l(1) =   0
                l(2) =   0
                l(3) =   1
                l(4) =   1
                l(5) =   2
                l(6) =   2
     Q(r) pseudized with  8 coefficients,  rinner =    1.100   1.100   1.100
                                                       1.100   1.100

     atomic species   valence    mass     pseudopotential
        Mo             6.00    95.50000     Mo( 1.00)
        S              6.00    32.06500     S ( 1.00)

     No symmetry found

   Cartesian axes

     site n.     atom                  positions (alat units)
         1           Mo  tau(   1) = (   0.0372711   0.2321249   0.5529086  )
         2           Mo  tau(   2) = (  -0.1625436   0.6296988   0.3648056  )
         3           Mo  tau(   3) = (   0.5584222   0.1975117   0.3600387  )
         4           Mo  tau(   4) = (   0.3189593   0.6145655   0.4720479  )
         5           Mo  tau(   5) = (  -0.0483903  -0.0513226   1.2194057  )
         6           Mo  tau(   6) = (  -0.2257120   0.3882186   1.2060146  )
         7           Mo  tau(   7) = (   0.4304157  -0.0348222   1.2765849  )
         8           Mo  tau(   8) = (   0.2057261   0.3749518   1.2943052  )
         9           S   tau(   9) = (   0.0668879  -0.1133655   0.5941521  )
        10           S   tau(  10) = (   0.0195827   0.5568522   0.6370778  )
        11           S   tau(  11) = (   0.7372288   0.0725578   0.6176347  )
        12           S   tau(  12) = (   0.3779437   0.3214949   0.6297593  )
        13           S   tau(  13) = (  -0.2844330   0.1081223   1.4091746  )
        14           S   tau(  14) = (  -0.5206802   0.5375265   1.4326077  )
        15           S   tau(  15) = (   0.1895009   0.0932804   1.4745015  )
        16           S   tau(  16) = (  -0.0500612   0.5216429   1.4558910  )
        17           S   tau(  17) = (   0.2403494   0.1171297   0.3003211  )
        18           S   tau(  18) = (   0.1227766   0.7387139   0.2105373  )
        19           S   tau(  19) = (   0.8733859   0.3017129   0.2557590  )
        20           S   tau(  20) = (   0.5267373   0.5032713   0.2097015  )
        21           S   tau(  21) = (   0.0161879   0.2378242   1.0346616  )
        22           S   tau(  22) = (  -0.2323038   0.6810643   1.0412816  )
        23           S   tau(  23) = (   0.4721480   0.2521546   1.0943663  )
        24           S   tau(  24) = (   0.2295806   0.6533979   1.0638611  )

     number of k points=    10  Marzari-Vanderbilt smearing, width (Ry)=  0.0200
                       cart. coord. in units 2pi/alat
        k(    1) = (   0.0000000   0.0000000   0.0000000), wk =   0.1111111
        k(    2) = (  -0.0041338  -0.0029140  -0.2950818), wk =   0.1111111
        k(    3) = (   0.0049159   0.3946900   0.0460025), wk =   0.2222222
        k(    4) = (   0.0007821   0.3917760  -0.2490792), wk =   0.2222222
        k(    5) = (   0.3362597   0.1796741   0.0667468), wk =   0.2222222
        k(    6) = (   0.3321259   0.1767601  -0.2283350), wk =   0.2222222
        k(    7) = (   0.3411756   0.5743641   0.1127494), wk =   0.2222222
        k(    8) = (   0.3370418   0.5714501  -0.1823324), wk =   0.2222222
        k(    9) = (   0.3313439  -0.2150159   0.0207443), wk =   0.2222222
        k(   10) = (   0.3272101  -0.2179299  -0.2743375), wk =   0.2222222

     Initial potential from superposition of free atoms

     starting charge  143.98738, renormalised to  144.00000
     Starting wfcs are  136 randomized atomic wfcs

     Self-consistent Calculation

     iteration #  1     ecut=    45.00 Ry     beta= 0.70
     Davidson diagonalization with overlap
     ethr =  1.00E-02,  avg # of iterations =  2.0

     total energy              =    -561.51579312 Ry
     Harris-Foulkes estimate   =    -563.92406114 Ry
     estimated scf accuracy    <       6.28529190 Ry

[...]

     total energy              =    -562.83027433 Ry
     Harris-Foulkes estimate   =    -562.83027473 Ry
     estimated scf accuracy    <       0.00000209 Ry

     iteration # 15     ecut=    45.00 Ry     beta= 0.70
     Davidson diagonalization with overlap
     ethr =  1.45E-09,  avg # of iterations =  1.7

     End of self-consistent calculation

          k = 0.0000 0.0000 0.0000 ( 18865 PWs)   bands (ev):

    -8.5494  -7.9697  -7.5256  -7.2002  -7.1559  -7.0997  -7.0160  -6.9635
    -6.8739  -6.8377  -6.7526  -6.7059  -6.4455  -6.3738  -6.3620  -6.2927
    -0.4204   0.1733   0.1959   0.2764   0.3472   0.3808   0.6193   0.7001
     0.8365   1.0137   1.1966   1.2838   1.4212   1.4595   1.5191   1.5907
     1.6581   1.6932   1.7028   1.8089   1.8912   1.9448   2.0358   2.0699
     2.1509   2.2519   2.3388   2.4245   2.4850   2.5223   2.8495   3.0221
     3.0673   3.1213   3.1934   3.2970   3.3641   3.4746   3.8418   3.9398
     4.0251   4.0515   4.0823   4.2140   4.3183   4.5057   4.8709   4.9602
     5.0609   5.2003   5.2215   5.2702   5.4094   5.4831   5.5176   5.5544
     5.7938   5.8320   6.1005   6.2537   6.2968   6.3137   6.3390   6.3904
     6.5091   6.6337   6.6468   6.8204   6.8718   7.1667

          k =-0.0041-0.0029-0.2951 ( 18856 PWs)   bands (ev):

[...]

          k = 0.3272-0.2179-0.2743 ( 18860 PWs)   bands (ev):

    -8.2739  -7.7339  -7.6409  -7.4299  -7.3597  -7.1562  -7.0493  -6.9045
    -6.8376  -6.7914  -6.7582  -6.6642  -6.6100  -6.5453  -6.3633  -6.2270
    -0.0264   0.0459   0.3733   0.5969   0.6337   0.6787   0.7867   0.8989
     0.9374   1.0004   1.1376   1.2934   1.3562   1.3987   1.4880   1.5083
     1.5436   1.6335   1.6847   1.7360   1.8020   2.0484   2.0871   2.1529
     2.2836   2.3527   2.3919   2.4192   2.5493   2.5930   2.8677   2.9098
     3.0014   3.1000   3.1326   3.2626   3.3058   3.4327   3.5073   3.5257
     3.6264   3.7594   3.8179   3.8613   4.0510   4.2059   4.3096   4.7948
     5.1259   5.2063   5.2586   5.3300   5.5035   5.5665   5.5976   5.8192
     6.0328   6.0573   6.1551   6.2331   6.3000   6.3361   6.4153   6.4972
     6.5657   6.6356   6.6870   6.8505   7.0851   7.2951

     the Fermi energy is     5.8033 ev

!    total energy              =    -562.83027409 Ry
     Harris-Foulkes estimate   =    -562.83027449 Ry
     estimated scf accuracy    <       0.00000046 Ry

     The total energy is the sum of the following terms:

     one-electron contribution =     -40.21657673 Ry
     hartree contribution      =      97.07326248 Ry
     xc contribution           =    -221.33786834 Ry
     ewald contribution        =    -398.35732396 Ry
     smearing contrib. (-TS)   =       0.00823246 Ry

     convergence has been achieved in  15 iterations

     Forces acting on atoms (cartesian axes, Ry/au):

     atom    1 type  1   force =     0.00060982    0.01593663   -0.05896902
     atom    2 type  1   force =     0.02073711   -0.01908293    0.01472202
     atom    3 type  1   force =    -0.00051816    0.00752976    0.02366420
     atom    4 type  1   force =    -0.01797303    0.00496352    0.00316798
     atom    5 type  1   force =     0.02005546    0.02771969    0.02720337
     atom    6 type  1   force =     0.00698050    0.02375182    0.03520396
     atom    7 type  1   force =    -0.02356238   -0.01727861   -0.01988645
     atom    8 type  1   force =    -0.00087803   -0.03315888   -0.04198661
     atom    9 type  2   force =     0.01478246    0.00521827    0.00616191
     atom   10 type  2   force =     0.00086332    0.00284500    0.00184789
     atom   11 type  2   force =    -0.00565349    0.00925133    0.00650106
     atom   12 type  2   force =    -0.01820523    0.00508240   -0.01794665
     atom   13 type  2   force =    -0.00132533    0.00429421    0.00159592
     atom   14 type  2   force =     0.00334053   -0.00439660   -0.01532915
     atom   15 type  2   force =    -0.00356424   -0.00309390   -0.02008250
     atom   16 type  2   force =     0.02344937   -0.00229412    0.00684149
     atom   17 type  2   force =    -0.00675829   -0.01782232   -0.01536244
     atom   18 type  2   force =    -0.00145747    0.00384730    0.01857474
     atom   19 type  2   force =     0.00846080   -0.01817118   -0.00379848
     atom   20 type  2   force =     0.00299277    0.00493914    0.02862989
     atom   21 type  2   force =    -0.01837957    0.00677792    0.00988613
     atom   22 type  2   force =    -0.01412863   -0.00546968   -0.00853638
     atom   23 type  2   force =     0.00147807   -0.01120544   -0.00441485
     atom   24 type  2   force =     0.00865363    0.00981667    0.02231197

     Total force =     0.140975     Total SCF correction =     0.001022

     General routines

     Parallel routines

   This run was terminated on:  14: 5: 4  12Aug2021

   JOB DONE.