     Program PWSCF v.6.4 starts on 28Nov2021 at 10:29:59

     R & G space division:  proc/nbgrp/npool/nimage =      40
     Waiting for input...
     Reading input from standard input
Warning: card    &IONS ignored
Warning: card      ION_DYNAMICS = 'BFGS' ignored
Warning: card   / ignored
Warning: card    &CELL ignored
Warning: card      CELL_DYNAMICS = 'BFGS', ignored
Warning: card    / ignored

     Current dimensions of program PWSCF are:
     Max number of different atomic species (ntypx) = 10
     Max number of k-points (npk) =  40000
     Max angular momentum in pseudopotentials (lmaxx) =  3

     bravais-lattice index     =            0
     lattice parameter (alat)  =      12.2936  a.u.
     unit-cell volume          =    4547.1271 (a.u.)^3
     number of atoms/cell      =           24
     number of atomic types    =            2
     number of electrons       =       144.00
     number of Kohn-Sham states=           86
     kinetic-energy cutoff     =      45.0000  Ry
     charge density cutoff     =     360.0000  Ry
     convergence threshold     =      1.0E-06
     mixing beta               =       0.7000
     number of iterations used =            8  local-TF  mixing
     Exchange-correlation      = SLA PW GGX GGC ( 1  4  2  2 0 0)

     celldm(1)=  12.293552  celldm(2)=   0.000000  celldm(3)=   0.000000
     celldm(4)=   0.000000  celldm(5)=   0.000000  celldm(6)=   0.000000

     crystal axes: (cart. coord. in units of alat)
               a(1) = (   1.000000  -0.000712   0.000533 )
               a(2) = (   0.499586   0.859970  -0.007456 )
               a(3) = (   0.399366  -0.106036   2.845898 )

     reciprocal axes: (cart. coord. in units 2 pi/alat)
               b(1) = (  0.999672 -0.582147 -0.161975 )
               b(2) = (  0.000805  1.162738  0.043210 )
               b(3) = ( -0.000185  0.003155  0.351526 )

     PseudoPot. # 1 for Mo read from file:
     ~/pseudo/Mo.pw91-n-van.UPF
     MD5 check sum: Not computed, couldn't open file
     Pseudo is Ultrasoft + core correction, Zval =  6.0
     Generated by new atomic code, or converted to UPF format
     Using radial grid of  965 points,  3 beta functions with:
                l(1) =   1
                l(2) =   2
                l(3) =   2
     Q(r) pseudized with  8 coefficients,  rinner =    1.000   1.000   1.000
                                                       1.200   1.200

     PseudoPot. # 2 for S  read from file:
     ~/pseudo/S.pw91-van_ak.UPF
     MD5 check sum: Not computed, couldn't open file
     Pseudo is Ultrasoft, Zval =  6.0
     Generated by new atomic code, or converted to UPF format
     Using radial grid of  811 points,  6 beta functions with:
                l(1) =   0
                l(2) =   0
                l(3) =   1
                l(4) =   1
                l(5) =   2
                l(6) =   2
     Q(r) pseudized with  8 coefficients,  rinner =    1.100   1.100   1.100
                                                       1.100   1.100

     atomic species   valence    mass     pseudopotential
        Mo             6.00    95.50000     Mo( 1.00)
        S              6.00    32.06500     S ( 1.00)

     No symmetry found

   Cartesian axes

     site n.     atom                  positions (alat units)
         1           Mo  tau(   1) = (   0.6408496   0.5358037   0.9417039  )
         2           Mo  tau(   2) = (   0.8765796   0.2873901   1.4223093  )
         3           Mo  tau(   3) = (   0.8745355   0.2806664   1.9089927  )
         4           Mo  tau(   4) = (   1.1221889   0.5357120   0.9420710  )
         5           Mo  tau(   5) = (   1.6187458   0.7086373   1.9165733  )
         6           Mo  tau(   6) = (   0.8811884   0.0908538   0.9693640  )
         7           Mo  tau(   7) = (   1.3745479   0.2919643   1.9218726  )
         8           Mo  tau(   8) = (   1.1296934   0.7088912   1.9163922  )
         9           S   tau(   9) = (   1.3743270   0.5747906   2.1637286  )
        10           S   tau(  10) = (   1.3740972   0.5687401   1.6732090  )
        11           S   tau(  11) = (   1.1224183   0.1431681   2.1573330  )
        12           S   tau(  12) = (   1.1330077   0.1344923   1.6728825  )
        13           S   tau(  13) = (   1.0578822   0.2697084   0.6870296  )
        14           S   tau(  14) = (   1.3816264   0.6532521   1.1854784  )
        15           S   tau(  15) = (   0.8740896   0.5667302   2.1521801  )
        16           S   tau(  16) = (   0.8743668   0.5689075   1.6629845  )
        17           S   tau(  17) = (   0.8817587   0.7393592   0.7627028  )
        18           S   tau(  18) = (   0.6071640   0.2284461   1.1701014  )
        19           S   tau(  19) = (   0.6263380   0.1434321   2.1569930  )
        20           S   tau(  20) = (   0.6167167   0.1350141   1.6722412  )
        21           S   tau(  21) = (   0.7061356   0.2701707   0.6861511  )
        22           S   tau(  22) = (   1.1505811   0.2305520   1.1745369  )
        23           S   tau(  23) = (   1.3820479   0.6726117   0.7103096  )
        24           S   tau(  24) = (   0.8808447   0.6129879   1.2271501  )

     number of k points=     5  Marzari-Vanderbilt smearing, width (Ry)=  0.0200
                       cart. coord. in units 2pi/alat
        k(    1) = (   0.0000000   0.0000000   0.0000000), wk =   0.2222222
        k(    2) = (   0.0002685   0.3875792   0.0144032), wk =   0.4444444
        k(    3) = (   0.3332240  -0.1940491  -0.0539915), wk =   0.4444444
        k(    4) = (   0.3334924   0.1935301  -0.0395883), wk =   0.4444444
        k(    5) = (   0.3329555  -0.5816283  -0.0683947), wk =   0.4444444

     Initial potential from superposition of free atoms

     starting charge  143.98738, renormalised to  144.00000

     negative rho (up, down):  9.535E-05 0.000E+00
     Starting wfcs are  136 randomized atomic wfcs

     Self-consistent Calculation

     iteration #  1     ecut=    45.00 Ry     beta= 0.70
     Davidson diagonalization with overlap
     ethr =  1.00E-02,  avg # of iterations =  2.0

     negative rho (up, down):  2.289E-06 0.000E+00

     total energy              =    -562.28070170 Ry
     Harris-Foulkes estimate   =    -564.07792366 Ry
     estimated scf accuracy    <       5.42267072 Ry

[...]

     total energy              =    -563.21824443 Ry
     Harris-Foulkes estimate   =    -563.21824268 Ry
     estimated scf accuracy    <       0.00000328 Ry

     iteration # 15     ecut=    45.00 Ry     beta= 0.70
     Davidson diagonalization with overlap
     ethr =  2.28E-09,  avg # of iterations =  1.4

[...]

     End of self-consistent calculation

          k = 0.0000 0.0000 0.0000 ( 23131 PWs)   bands (ev):

   -11.3024 -10.9876 -10.2201  -9.9186  -9.7798  -9.7532  -9.4908  -9.2661
    -9.1775  -9.1742  -9.0607  -8.8830  -8.8249  -8.6223  -8.3702  -7.9210
    -3.2489  -2.9044  -2.8872  -2.8375  -2.3307  -2.1779  -2.1545  -2.0399
    -1.9516  -1.9057  -1.7660  -1.5264  -1.4082  -1.3826  -1.3277  -1.1677
    -0.9861  -0.7062  -0.5945  -0.4254  -0.3643  -0.2861  -0.2081   0.1135
     0.1917   0.2844   0.3809   0.4298   0.4591   0.5571   0.7207   0.7976
     0.8843   1.0925   1.1815   1.2850   1.3067   1.5971   1.6372   1.7395
     1.7539   1.8376   1.8783   1.8970   2.0266   2.1368   2.1394   2.2689
     2.4368   2.6809   2.7750   3.2441   3.2992   3.5552   3.6274   4.1424
     4.1773   4.4614   4.7234   4.7612   4.8678   4.9178   5.1525   5.2135
     5.2854   5.3039   5.3363   5.4516   5.5515   5.5590

[...]

          k = 0.3330-0.5816-0.0684 ( 23202 PWs)   bands (ev):

   -10.7751 -10.4825 -10.4171 -10.2562  -9.7704  -9.6695  -9.6150  -9.5645
    -9.3917  -9.3140  -9.2666  -9.0318  -8.8958  -8.5786  -8.4607  -7.8803
    -2.5620  -2.3974  -2.1591  -2.0670  -1.8976  -1.7431  -1.6611  -1.6117
    -1.5567  -1.3732  -1.3315  -1.2425  -1.2048  -0.9936  -0.9247  -0.8693
    -0.8459  -0.7874  -0.6461  -0.5927  -0.4921  -0.4369  -0.3482  -0.2952
    -0.2609  -0.1945  -0.0883  -0.0695   0.0323   0.2068   0.3584   0.4774
     0.5338   0.6239   0.7056   0.8167   0.8567   1.1147   1.1872   1.3062
     1.4621   1.5961   1.6462   1.7155   1.9823   2.0492   2.0598   2.1057
     2.2522   2.3654   2.7148   2.7686   3.2293   3.6226   3.7812   3.8458
     4.0501   4.2903   4.3951   4.5883   4.6765   4.7656   4.8148   5.0296
     5.0462   5.1521   5.1978   5.2289   5.2762   5.3315

     the Fermi energy is     4.0703 ev

!    total energy              =    -563.21824388 Ry
     Harris-Foulkes estimate   =    -563.21824460 Ry
     estimated scf accuracy    <       0.00000091 Ry

     The total energy is the sum of the following terms:

     one-electron contribution =   -1537.56394355 Ry
     hartree contribution      =     833.94123668 Ry
     xc contribution           =    -222.70455311 Ry
     ewald contribution        =     363.10920686 Ry
     smearing contrib. (-TS)   =      -0.00019077 Ry

     convergence has been achieved in  15 iterations

     negative rho (up, down):  1.913E-04 0.000E+00

     Forces acting on atoms (cartesian axes, Ry/au):

     atom    1 type  1   force =     0.00380277   -0.00494030    0.00045440
     atom    2 type  1   force =    -0.00038167   -0.00006272   -0.00548772
     atom    3 type  1   force =     0.00011673   -0.00090987    0.00033356
     atom    4 type  1   force =    -0.00350598   -0.00463985    0.00105088
     atom    5 type  1   force =     0.00120053    0.00106882    0.00121550
     atom    6 type  1   force =     0.00020604    0.00771590   -0.00729710
     atom    7 type  1   force =    -0.00039820   -0.00301269    0.00052876
     atom    8 type  1   force =    -0.00035652    0.00099476    0.00127933
     atom    9 type  2   force =    -0.00063242   -0.00112256    0.00231860
     atom   10 type  2   force =     0.00037731   -0.00365013    0.00110746
     atom   11 type  2   force =    -0.00076803    0.00123611   -0.00136305
     atom   12 type  2   force =    -0.00247529   -0.00212046   -0.00342374
     atom   13 type  2   force =    -0.00144202   -0.00089622    0.00059163
     atom   14 type  2   force =    -0.00044825    0.00777858   -0.00128863
     atom   15 type  2   force =    -0.00024190   -0.00007073   -0.00099064
     atom   16 type  2   force =    -0.00001254   -0.00221543    0.00326969
     atom   17 type  2   force =    -0.00001699   -0.00312130    0.00507677
     atom   18 type  2   force =     0.00219203    0.00284039    0.00408183
     atom   19 type  2   force =     0.00064600    0.00133968   -0.00126360
     atom   20 type  2   force =     0.00270532   -0.00199148   -0.00323581
     atom   21 type  2   force =     0.00185043   -0.00151903    0.00087617
     atom   22 type  2   force =    -0.00130318    0.00249755    0.00329726
     atom   23 type  2   force =    -0.00065368    0.00104830   -0.00152920
     atom   24 type  2   force =    -0.00046050    0.00375268    0.00039764

     Total force =     0.022336     Total SCF correction =     0.001858

     General routines

     Parallel routines

   This run was terminated on:  10:30:55  28Nov2021

   JOB DONE.