     Program PWSCF v.6.4.1 starts on  2Aug2021 at 13:24:57

     R & G space division:  proc/nbgrp/npool/nimage =      20
     Waiting for input...
     Reading input from standard input
Warning: card    &IONS ignored
Warning: card      ION_DYNAMICS = 'BFGS' ignored
Warning: card   / ignored
Warning: card    &CELL ignored
Warning: card      CELL_DYNAMICS = 'BFGS', ignored
Warning: card    / ignored

     Current dimensions of program PWSCF are:
     Max number of different atomic species (ntypx) = 10
     Max number of k-points (npk) =  40000
     Max angular momentum in pseudopotentials (lmaxx) =  3

     Subspace diagonalization in iterative solution of the eigenvalue problem:
     a serial algorithm will be used

     bravais-lattice index     =            0
     lattice parameter (alat)  =      11.7562  a.u.
     unit-cell volume          =    3281.2720 (a.u.)^3
     number of atoms/cell      =           24
     number of atomic types    =            2
     number of electrons       =       144.00
     number of Kohn-Sham states=           86
     kinetic-energy cutoff     =      45.0000  Ry
     charge density cutoff     =     360.0000  Ry
     convergence threshold     =      1.0E-06
     mixing beta               =       0.7000
     number of iterations used =            8  local-TF  mixing
     Exchange-correlation      = SLA PW GGX GGC ( 1  4  2  2 0 0)

     celldm(1)=  11.756206  celldm(2)=   0.000000  celldm(3)=   0.000000
     celldm(4)=   0.000000  celldm(5)=   0.000000  celldm(6)=   0.000000

     crystal axes: (cart. coord. in units of alat)
               a(1) = (   1.000000   0.000000   0.000000 )
               a(2) = (  -0.250000   0.433013   0.000000 )
               a(3) = (   0.000000   0.000000   4.663803 )

     reciprocal axes: (cart. coord. in units 2 pi/alat)
               b(1) = (  1.000000  0.577350 -0.000000 )
               b(2) = (  0.000000  2.309402  0.000000 )
               b(3) = (  0.000000 -0.000000  0.214417 )

     PseudoPot. # 1 for Mo read from file:
     /home/kkety/pseudo/Mo.pw91-n-van.UPF
     MD5 check sum: 875977911cf57e7168990cb144db214a
     Pseudo is Ultrasoft + core correction, Zval =  6.0
     Generated by new atomic code, or converted to UPF format
     Using radial grid of  965 points,  3 beta functions with:
                l(1) =   1
                l(2) =   2
                l(3) =   2
     Q(r) pseudized with  8 coefficients,  rinner =    1.000   1.000   1.000
                                                       1.200   1.200

     PseudoPot. # 2 for S  read from file:
     /home/kkety/pseudo/S.pw91-van_ak.UPF
     MD5 check sum: 708c80e9edb6b1bde406d41998b2c042
     Pseudo is Ultrasoft, Zval =  6.0
     Generated by new atomic code, or converted to UPF format
     Using radial grid of  811 points,  6 beta functions with:
                l(1) =   0
                l(2) =   0
                l(3) =   1
                l(4) =   1
                l(5) =   2
                l(6) =   2
     Q(r) pseudized with  8 coefficients,  rinner =    1.100   1.100   1.100
                                                       1.100   1.100

     atomic species   valence    mass     pseudopotential
        Mo             6.00    95.50000     Mo( 1.00)
        S              6.00    32.06500     S ( 1.00)

     No symmetry found

   Cartesian axes

     site n.     atom                  positions (alat units)
         1           Mo  tau(   1) = (  -0.0005934   0.2923476   0.5673374  )
         2           Mo  tau(   2) = (   0.0127456   0.2809716   2.9209248  )
         3           Mo  tau(   3) = (   0.4844226   0.2854981   0.5853502  )
         4           Mo  tau(   4) = (   0.4860033   0.2833707   2.9207370  )
         5           Mo  tau(   5) = (   0.2446310   0.1464601   1.7639276  )
         6           Mo  tau(   6) = (   0.2489443   0.1443604   4.0647877  )
         7           Mo  tau(   7) = (   0.7567253   0.1331046   1.7395996  )
         8           Mo  tau(   8) = (   0.7504093   0.1531376   4.0942724  )
         9           S   tau(   9) = (   0.2581663   0.1360054   0.8392885  )
        10           S   tau(  10) = (   0.2388915   0.1450716   3.1485372  )
        11           S   tau(  11) = (   0.7547057   0.1468414   0.8433955  )
        12           S   tau(  12) = (   0.7474260   0.1409974   3.1446207  )
        13           S   tau(  13) = (  -0.0040805   0.2978034   2.0067675  )
        14           S   tau(  14) = (  -0.0081257   0.3020160   4.3222903  )
        15           S   tau(  15) = (   0.4900764   0.2994204   1.9875142  )
        16           S   tau(  16) = (   0.5006428   0.2850479   4.3104362  )
        17           S   tau(  17) = (   0.2445680   0.1403604   0.3523164  )
        18           S   tau(  18) = (   0.2556979   0.1356124   2.6573822  )
        19           S   tau(  19) = (   0.7347095   0.1418940   0.3334065  )
        20           S   tau(  20) = (   0.7439791   0.1298656   2.6660580  )
        21           S   tau(  21) = (  -0.0040289   0.2938793   1.5183359  )
        22           S   tau(  22) = (  -0.0045000   0.2758407   3.8441399  )
        23           S   tau(  23) = (   0.4883520   0.2837081   1.5135721  )
        24           S   tau(  24) = (   0.4967263   0.2773826   3.8246108  )

     number of k points=    10  Marzari-Vanderbilt smearing, width (Ry)=  0.0200
                       cart. coord. in units 2pi/alat
        k(    1) = (   0.0000000   0.0000000   0.0000000), wk =   0.1111111
        k(    2) = (   0.0000000   0.3849003   0.0000000), wk =   0.2222222
        k(    3) = (   0.0000000   0.7698006   0.0000000), wk =   0.2222222
        k(    4) = (   0.0000000  -1.1547008   0.0000000), wk =   0.1111111
        k(    5) = (   0.3333333   0.1924501   0.0000000), wk =   0.2222222
        k(    6) = (   0.3333333   0.5773504   0.0000000), wk =   0.2222222
        k(    7) = (   0.3333333  -0.9622507   0.0000000), wk =   0.2222222
        k(    8) = (   0.3333333  -0.5773504   0.0000000), wk =   0.2222222
        k(    9) = (   0.3333333  -0.1924501   0.0000000), wk =   0.2222222
        k(   10) = (   0.6666667  -0.3849003   0.0000000), wk =   0.2222222

     Initial potential from superposition of free atoms

     starting charge  143.98738, renormalised to  144.00000
     Starting wfcs are  136 randomized atomic wfcs

     Self-consistent Calculation

     iteration #  1     ecut=    45.00 Ry     beta= 0.70
     Davidson diagonalization with overlap
     ethr =  1.00E-02,  avg # of iterations =  2.0

     total energy              =    -562.69307302 Ry
     Harris-Foulkes estimate   =    -563.96582182 Ry
     estimated scf accuracy    <       3.13514449 Ry

[...]

     total energy              =    -563.28075581 Ry
     Harris-Foulkes estimate   =    -563.28075604 Ry
     estimated scf accuracy    <       0.00000109 Ry

     iteration # 14     ecut=    45.00 Ry     beta= 0.70
     Davidson diagonalization with overlap
     ethr =  7.55E-10,  avg # of iterations =  3.0

     End of self-consistent calculation

          k = 0.0000 0.0000 0.0000 ( 16777 PWs)   bands (ev):

    -8.2493  -8.2323  -8.2039  -8.0509  -6.7330  -6.6709  -6.6489  -6.6374
    -6.2803  -6.1522  -6.1047  -6.0131  -5.8847  -5.8804  -5.7456  -5.6186
     0.1231   0.1994   0.2147   0.2580   0.3235   0.3846   0.4233   0.5809
     1.2949   1.3686   1.4120   1.4584   1.9559   2.0254   2.0506   2.1942
     2.7410   2.7599   2.8340   2.9461   3.2069   3.2458   3.2896   3.3888
     3.4678   3.5366   3.5980   3.7252   4.1918   4.2777   4.2966   4.3157
     4.4524   4.5589   4.5855   4.6359   4.6659   4.7781   4.8308   4.9085
     4.9498   5.1098   5.1301   5.2832   5.4675   5.5419   5.7731   5.8307
     5.8560   5.9344   5.9497   6.0329   6.4324   6.6614   6.6912   6.8716
     8.4011   8.4713   8.6760   8.7029   9.0449   9.1025   9.1287   9.1828
     9.2372   9.2695   9.3643   9.4165   9.4858   9.5115

[...]

          k = 0.6667-0.3849 0.0000 ( 16746 PWs)   bands (ev):

    -6.8645  -6.8564  -6.7803  -6.7706  -6.3319  -6.3072  -6.1499  -6.0887
    -6.0720  -6.0134  -6.0023  -5.8922  -5.8653  -5.7224  -5.7147  -5.5663
     0.5262   0.5682   0.6268   0.6481   0.6684   0.7295   0.7405   0.9489
     1.1011   1.1037   1.2330   1.3611   1.8857   1.9189   1.9574   2.0899
     2.1831   2.2808   2.2989   2.3099   2.3934   2.4075   2.4463   2.6673
     2.8617   2.9382   2.9441   3.0078   3.1348   3.3135   3.3265   3.4201
     3.9234   3.9463   4.0220   4.1406   4.5232   4.6653   4.7081   4.7900
     4.8390   4.8895   4.8962   4.9747   5.0037   5.0325   5.0641   5.2603
     5.3217   5.4577   5.5339   5.6027   5.9362   5.9576   5.9749   6.0169
     8.3847   8.5067   8.6410   8.6738   8.6783   8.7206   8.8683   8.9240
     8.9643   9.0142   9.0583   9.1217   9.1768   9.2585

     the Fermi energy is     6.7193 ev

!    total energy              =    -563.28075547 Ry
     Harris-Foulkes estimate   =    -563.28075605 Ry
     estimated scf accuracy    <       0.00000061 Ry

     The total energy is the sum of the following terms:

     one-electron contribution =    -159.48158042 Ry
     hartree contribution      =     162.52850648 Ry
     xc contribution           =    -225.03547665 Ry
     ewald contribution        =    -341.30367122 Ry
     smearing contrib. (-TS)   =       0.01146634 Ry

     convergence has been achieved in  14 iterations

     Forces acting on atoms (cartesian axes, Ry/au):

     atom    1 type  1   force =    -0.07227490   -0.09562290    0.22086723
     atom    2 type  1   force =    -0.15252106    0.03358161   -0.20595116
     atom    3 type  1   force =     0.12515243    0.05331504    0.06706466
     atom    4 type  1   force =     0.09936067   -0.01197589   -0.12926187
     atom    5 type  1   force =    -0.02666017   -0.00001540   -0.03189715
     atom    6 type  1   force =     0.00342842    0.00208651    0.09826580
     atom    7 type  1   force =    -0.08782128    0.12230874    0.10795685
     atom    8 type  1   force =    -0.01199060   -0.10427471   -0.17018462
     atom    9 type  2   force =    -0.05325231    0.00301345    0.02463701
     atom   10 type  2   force =     0.06194774   -0.06309476    0.22950819
     atom   11 type  2   force =    -0.01734217    0.00205564   -0.02295125
     atom   12 type  2   force =    -0.00258005    0.01505248    0.16028895
     atom   13 type  2   force =    -0.02195213   -0.03779305    0.07067243
     atom   14 type  2   force =     0.06237127   -0.00520609    0.10244316
     atom   15 type  2   force =     0.07360172   -0.04716298    0.12332185
     atom   16 type  2   force =    -0.06348457    0.02497845    0.17049016
     atom   17 type  2   force =     0.01255809    0.03422819   -0.23379058
     atom   18 type  2   force =    -0.01643925   -0.01304008   -0.03004603
     atom   19 type  2   force =     0.00501583    0.00308576   -0.05646193
     atom   20 type  2   force =     0.01042764    0.03879820   -0.02398191
     atom   21 type  2   force =     0.03760649    0.00863428   -0.12876565
     atom   22 type  2   force =    -0.02710497    0.03033017   -0.15860801
     atom   23 type  2   force =     0.02516314   -0.04514986   -0.14154869
     atom   24 type  2   force =     0.03679000    0.05186722   -0.04206745

     Total force =     0.755066     Total SCF correction =     0.002336

     General routines

     Parallel routines

   This run was terminated on:  13:37:41   2Aug2021

   JOB DONE.