     Program PWSCF v.6.4 starts on 24Dec2021 at 21:17: 6

     R & G space division:  proc/nbgrp/npool/nimage =      40
     Waiting for input...
     Reading input from standard input
Warning: card    &IONS ignored
Warning: card      ION_DYNAMICS = 'BFGS' ignored
Warning: card   / ignored
Warning: card    &CELL ignored
Warning: card      CELL_DYNAMICS = 'BFGS', ignored
Warning: card    / ignored

     Current dimensions of program PWSCF are:
     Max number of different atomic species (ntypx) = 10
     Max number of k-points (npk) =  40000
     Max angular momentum in pseudopotentials (lmaxx) =  3

     bravais-lattice index     =            0
     lattice parameter (alat)  =      18.0802  a.u.
     unit-cell volume          =    6432.7989 (a.u.)^3
     number of atoms/cell      =           42
     number of atomic types    =            2
     number of electrons       =       252.00
     number of Kohn-Sham states=          151
     kinetic-energy cutoff     =      45.0000  Ry
     charge density cutoff     =     360.0000  Ry
     convergence threshold     =      1.0E-06
     mixing beta               =       0.7000
     number of iterations used =            8  local-TF  mixing
     Exchange-correlation      = SLA PW GGX GGC ( 1  4  2  2 0 0)

     celldm(1)=  18.080183  celldm(2)=   0.000000  celldm(3)=   0.000000
     celldm(4)=   0.000000  celldm(5)=   0.000000  celldm(6)=   0.000000

     crystal axes: (cart. coord. in units of alat)
               a(1) = (   1.000000   0.000000   0.000000 )
               a(2) = (  -0.037936   1.034179   0.000000 )
               a(3) = (   0.025302  -0.072948   1.052436 )

     reciprocal axes: (cart. coord. in units 2 pi/alat)
               b(1) = (  1.000000  0.036682 -0.021499 )
               b(2) = (  0.000000  0.966950  0.067023 )
               b(3) = (  0.000000  0.000000  0.950177 )

     PseudoPot. # 1 for Mo read from file:
     ~/pseudo/Mo.pw91-n-van.UPF
     MD5 check sum: Not computed, couldn't open file
     Pseudo is Ultrasoft + core correction, Zval =  6.0
     Generated by new atomic code, or converted to UPF format
     Using radial grid of  965 points,  3 beta functions with:
                l(1) =   1
                l(2) =   2
                l(3) =   2
     Q(r) pseudized with  8 coefficients,  rinner =    1.000   1.000   1.000
                                                       1.200   1.200

     PseudoPot. # 2 for S  read from file:
     ~/pseudo/S.pw91-van_ak.UPF
     MD5 check sum: Not computed, couldn't open file
     Pseudo is Ultrasoft, Zval =  6.0
     Generated by new atomic code, or converted to UPF format
     Using radial grid of  811 points,  6 beta functions with:
                l(1) =   0
                l(2) =   0
                l(3) =   1
                l(4) =   1
                l(5) =   2
                l(6) =   2
     Q(r) pseudized with  8 coefficients,  rinner =    1.100   1.100   1.100
                                                       1.100   1.100

     atomic species   valence    mass     pseudopotential
        Mo             6.00    95.50000     Mo( 1.00)
        S              6.00    32.06500     S ( 1.00)

     No symmetry found

   Cartesian axes

     site n.     atom                  positions (alat units)
         1           Mo  tau(   1) = (   0.3589291   0.1039426   0.6788874  )
         2           Mo  tau(   2) = (   0.3529611   0.3124919   0.8913240  )
         3           Mo  tau(   3) = (   0.1392682   0.0984568   0.8746488  )
         4           Mo  tau(   4) = (   0.1492720   0.3267412   0.6761065  )
         5           Mo  tau(   5) = (   0.8675048   0.6225681   0.7096964  )
         6           Mo  tau(   6) = (   0.8480057   0.8544216   0.8953343  )
         7           Mo  tau(   7) = (   0.6612728   0.6019704   0.9099359  )
         8           Mo  tau(   8) = (   0.5859021   0.8702982   0.6420552  )
         9           Mo  tau(   9) = (   0.9127449   0.3777982   0.4428520  )
        10           Mo  tau(  10) = (   0.6062337   0.0406592   0.4257325  )
        11           Mo  tau(  11) = (   0.5630139   0.4708864   0.0888508  )
        12           Mo  tau(  12) = (   0.3320510   0.6555891   0.1725886  )
        13           Mo  tau(  13) = (   0.3823772   0.8409533   0.4308770  )
        14           Mo  tau(  14) = (   0.1440568   0.5873262   0.4351155  )
        15           S   tau(  15) = (   0.3874763   0.0634787   0.9286967  )
        16           S   tau(  16) = (   0.4033432   0.3439277   0.6454798  )
        17           S   tau(  17) = (   0.8849321   0.3657528   0.6728579  )
        18           S   tau(  18) = (   0.2619735   0.7155601   1.0186184  )
        19           S   tau(  19) = (   0.6292990   0.3550230   0.9027979  )
        20           S   tau(  20) = (   0.6294236   0.0810442   0.6654942  )
        21           S   tau(  21) = (   0.6105894   0.1033111   0.1747684  )
        22           S   tau(  22) = (   0.8986485   0.6206501   0.9492758  )
        23           S   tau(  23) = (   0.8558950   0.8621801   0.6463491  )
        24           S   tau(  24) = (   0.3372720   0.8614340   0.6756856  )
        25           S   tau(  25) = (   0.3793949   0.5806884   0.8968688  )
        26           S   tau(  26) = (   0.8756153   0.0775751   0.8853708  )
        27           S   tau(  27) = (   0.1288026   0.5950945   0.6742911  )
        28           S   tau(  28) = (   0.8493663   0.1230194   0.4078933  )
        29           S   tau(  29) = (   0.1141568   0.0682035   0.6345996  )
        30           S   tau(  30) = (   0.7506623   0.3907717   0.2373620  )
        31           S   tau(  31) = (   0.3307328   0.4167375   0.1057478  )
        32           S   tau(  32) = (   0.3659547   0.0619598   0.4132219  )
        33           S   tau(  33) = (   0.1466485   0.3413606   0.4106277  )
        34           S   tau(  34) = (   0.1155676   0.3432147   0.9272311  )
        35           S   tau(  35) = (   0.4000290   0.5889348   0.3988716  )
        36           S   tau(  36) = (   0.6225152   0.6026888   0.6558538  )
        37           S   tau(  37) = (   0.1643821   0.7943477   0.2982641  )
        38           S   tau(  38) = (   0.0339224   0.9390375   1.0433430  )
        39           S   tau(  39) = (   0.8891115   0.6298947   0.4350849  )
        40           S   tau(  40) = (   0.6282216   0.8393188   0.3903180  )
        41           S   tau(  41) = (   0.5737348   0.7082770   0.1128551  )
        42           S   tau(  42) = (   0.5953134   0.8554505   0.9023545  )

     number of k points=     8  Marzari-Vanderbilt smearing, width (Ry)=  0.0200
                       cart. coord. in units 2pi/alat
        k(    1) = (   0.0000000   0.0000000   0.0000000), wk =   0.2500000
        k(    2) = (   0.0000000   0.0000000  -0.4750884), wk =   0.2500000
        k(    3) = (   0.0000000  -0.4834751  -0.0335113), wk =   0.2500000
        k(    4) = (   0.0000000  -0.4834751  -0.5085997), wk =   0.2500000
        k(    5) = (  -0.5000000  -0.0183412   0.0107496), wk =   0.2500000
        k(    6) = (  -0.5000000  -0.0183412  -0.4643388), wk =   0.2500000
        k(    7) = (  -0.5000000  -0.5018163  -0.0227618), wk =   0.2500000
        k(    8) = (  -0.5000000  -0.5018163  -0.4978501), wk =   0.2500000

     Initial potential from superposition of free atoms

     starting charge  251.97792, renormalised to  252.00000
     Starting wfcs are  238 randomized atomic wfcs

     Self-consistent Calculation

     iteration #  1     ecut=    45.00 Ry     beta= 0.70
     Davidson diagonalization with overlap
     ethr =  1.00E-02,  avg # of iterations =  2.0

     total energy              =    -983.34190727 Ry
     Harris-Foulkes estimate   =    -986.82354259 Ry
     estimated scf accuracy    <       9.63023404 Ry

[...]

     iteration #  7     ecut=    45.00 Ry     beta= 0.70
     Davidson diagonalization with overlap
     c_bands:  1 eigenvalues not converged
     ethr =  8.55E-06,  avg # of iterations =  5.9

[...]

     total energy              =    -985.13168612 Ry
     Harris-Foulkes estimate   =    -985.13168641 Ry
     estimated scf accuracy    <       0.00000289 Ry

     iteration # 14     ecut=    45.00 Ry     beta= 0.70
     Davidson diagonalization with overlap
     ethr =  1.15E-09,  avg # of iterations =  3.0

     End of self-consistent calculation

          k = 0.0000 0.0000 0.0000 ( 32813 PWs)   bands (ev):

    -9.3021  -8.3991  -7.9019  -7.8971  -7.7502  -7.7032  -7.5003  -7.4627
    -7.4115  -7.3645  -7.2913  -7.2565  -7.2312  -7.1990  -7.1024  -7.0995
    -7.0474  -6.9947  -6.9209  -6.9011  -6.8671  -6.7722  -6.5310  -6.4839
    -5.9222  -5.7517  -5.2865  -5.1992  -0.4228  -0.2273  -0.1846  -0.1208
     0.0723   0.2611   0.2778   0.3559   0.4052   0.4815   0.5138   0.5608
     0.6012   0.6677   0.8092   0.8308   0.9185   0.9393   0.9570   1.0250
     1.1073   1.1600   1.2138   1.2544   1.2998   1.3268   1.4313   1.4414
     1.5220   1.5578   1.6195   1.6850   1.7046   1.7586   1.7692   1.8369
     1.8549   1.9193   1.9467   1.9934   2.0864   2.1619   2.1893   2.1971
     2.2345   2.3171   2.3448   2.3846   2.4159   2.4419   2.5207   2.5485
     2.6087   2.6381   2.6770   2.6979   2.7388   2.7723   2.7972   2.8709
     2.9939   3.0362   3.0638   3.1087   3.2057   3.2650   3.3294   3.4979
     3.5280   3.5535   3.6202   3.7007   3.7409   3.8884   3.9290   4.0211
     4.0845   4.1791   4.2762   4.3095   4.3523   4.5060   4.5418   4.6112
     4.7320   4.7908   4.8337   4.9333   4.9392   5.1000   5.1577   5.1852
     5.3185   5.4038   5.5317   5.5616   5.6597   5.7362   5.7879   5.9375
     6.0289   6.0700   6.1467   6.2362   6.2556   6.3549   6.3585   6.4746
     6.5809   6.6765   6.8320   6.8760   6.9669   7.0979   7.2145   7.2583
     7.2897   7.3713   7.4319   7.5086   7.5422   7.6843   7.7186

[...]

          k = 0.0000-0.4835-0.5086 ( 32818 PWs)   bands (ev):

[...]

          k =-0.5000-0.0183 0.0107 ( 32786 PWs)   bands (ev):

[...]

          k =-0.5000-0.5018-0.4979 ( 32800 PWs)   bands (ev):

    -9.2810  -8.2095  -8.1065  -7.9553  -7.7946  -7.6831  -7.6657  -7.4427
    -7.3747  -7.3704  -7.2990  -7.2554  -7.1999  -7.1692  -7.1163  -7.0830
    -7.0298  -6.9792  -6.9338  -6.8703  -6.8340  -6.7860  -6.5016  -6.4469
    -5.9093  -5.7465  -5.2820  -5.1894  -0.0531  -0.0391  -0.0016   0.0659
     0.1223   0.1654   0.2172   0.3121   0.3652   0.3976   0.4197   0.5412
     0.6268   0.6773   0.7128   0.7781   0.8079   0.9047   0.9190   0.9416
     1.0361   1.0556   1.0836   1.1639   1.2292   1.2372   1.3067   1.3722
     1.4087   1.4508   1.5156   1.5519   1.6817   1.7050   1.7261   1.8185
     1.9022   1.9239   1.9455   2.0019   2.0502   2.1096   2.1662   2.2030
     2.2614   2.2769   2.3417   2.3500   2.3698   2.4265   2.4862   2.4892
     2.6162   2.6724   2.7031   2.7375   2.8010   2.8215   2.8701   2.8785
     3.0384   3.1573   3.2015   3.2639   3.3086   3.3552   3.4825   3.5263
     3.6098   3.6639   3.7241   3.7935   3.8269   3.9116   4.0027   4.0381
     4.1298   4.1892   4.2478   4.2545   4.3717   4.3908   4.5257   4.5847
     4.7155   4.7671   4.9304   4.9957   5.0167   5.0700   5.1508   5.3334
     5.3535   5.4341   5.4894   5.5977   5.6828   5.7462   5.8455   5.8998
     6.0140   6.1118   6.1346   6.1808   6.2658   6.3517   6.3654   6.4330
     6.5433   6.6292   6.7118   6.9667   7.0049   7.0611   7.1486   7.1745
     7.2358   7.3345   7.4152   7.5499   7.5673   7.6361   7.6772

     the Fermi energy is     5.7873 ev

!    total energy              =    -985.13168605 Ry
     Harris-Foulkes estimate   =    -985.13168657 Ry
     estimated scf accuracy    <       0.00000072 Ry

     The total energy is the sum of the following terms:

     one-electron contribution =    -171.43926153 Ry
     hartree contribution      =     220.34119049 Ry
     xc contribution           =    -388.86110105 Ry
     ewald contribution        =    -645.17000338 Ry
     smearing contrib. (-TS)   =      -0.00251059 Ry

     convergence has been achieved in  14 iterations

     Forces acting on atoms (cartesian axes, Ry/au):

     atom    1 type  1   force =     0.02717290   -0.03598829   -0.00324623
     atom    2 type  1   force =     0.05569645   -0.01397869    0.00778757
     atom    3 type  1   force =    -0.03477858   -0.00925509    0.05406601
     atom    4 type  1   force =    -0.00052414    0.00021573   -0.06714461
     atom    5 type  1   force =    -0.01423559    0.02342478   -0.06891928
     atom    6 type  1   force =    -0.06451510    0.06146883   -0.07389170
     atom    7 type  1   force =    -0.08795625    0.06668847    0.00432497
     atom    8 type  1   force =    -0.00062322   -0.02070554   -0.01045078
     atom    9 type  1   force =    -0.04211598   -0.01705148   -0.08258481
     atom   10 type  1   force =     0.03279936    0.00200790   -0.10189928
     atom   11 type  1   force =     0.08532158   -0.03429990    0.00222806
     atom   12 type  1   force =     0.00411276    0.03696077   -0.09962402
     atom   13 type  1   force =    -0.00351455    0.03115556    0.01648017
     atom   14 type  1   force =    -0.04516838   -0.01488754   -0.00339902
     atom   15 type  2   force =    -0.02447140    0.01365384   -0.00596156
     atom   16 type  2   force =    -0.02711822    0.01370107    0.01254236
     atom   17 type  2   force =    -0.00242042   -0.02153271    0.06946183
     atom   18 type  2   force =     0.01526892   -0.02013497    0.03639466
     atom   19 type  2   force =    -0.01275796   -0.03391568    0.02434755
     atom   20 type  2   force =     0.00891082    0.02246097    0.03537041
     atom   21 type  2   force =     0.01050583    0.00556539    0.05154677
     atom   22 type  2   force =     0.06450857   -0.05306843    0.07108393
     atom   23 type  2   force =     0.01058356    0.01582807    0.03153776
     atom   24 type  2   force =     0.00878227   -0.01710222   -0.01805457
     atom   25 type  2   force =     0.01171407   -0.00153531    0.00197487
     atom   26 type  2   force =     0.02551394   -0.00449582    0.01244335
     atom   27 type  2   force =     0.02317808   -0.00514545    0.04083222
     atom   28 type  2   force =     0.01589358    0.04805887    0.01079754
     atom   29 type  2   force =     0.01007820    0.03898389    0.01019078
     atom   30 type  2   force =    -0.04489976    0.01081530   -0.03020310
     atom   31 type  2   force =    -0.02349251   -0.03688645    0.02126947
     atom   32 type  2   force =    -0.02930275   -0.01467772   -0.00496696
     atom   33 type  2   force =     0.02719700   -0.02337105   -0.01618151
     atom   34 type  2   force =    -0.03817015   -0.02324338   -0.01127563
     atom   35 type  2   force =     0.01097493   -0.01047667    0.04611951
     atom   36 type  2   force =     0.00886917    0.00551977    0.02136292
     atom   37 type  2   force =    -0.01818891    0.01703876   -0.01034583
     atom   38 type  2   force =     0.01089297    0.00663544   -0.02916512
     atom   39 type  2   force =     0.02532029   -0.01918564   -0.00837408
     atom   40 type  2   force =    -0.01698482    0.00905476    0.02909295
     atom   41 type  2   force =     0.00267093    0.01718262    0.01648801
     atom   42 type  2   force =     0.03527252   -0.01548277    0.01794438

     Total force =     0.382524     Total SCF correction =     0.001330

     General routines

     Parallel routines

   This run was terminated on:  21:20: 0  24Dec2021

   JOB DONE.