     Program PWSCF v.6.4 starts on 24Dec2021 at  1: 9: 0

     R & G space division:  proc/nbgrp/npool/nimage =      40
     Waiting for input...
     Reading input from standard input
Warning: card    &IONS ignored
Warning: card      ION_DYNAMICS = 'BFGS' ignored
Warning: card   / ignored
Warning: card    &CELL ignored
Warning: card      CELL_DYNAMICS = 'BFGS', ignored
Warning: card    / ignored

     Current dimensions of program PWSCF are:
     Max number of different atomic species (ntypx) = 10
     Max number of k-points (npk) =  40000
     Max angular momentum in pseudopotentials (lmaxx) =  3

     bravais-lattice index     =            0
     lattice parameter (alat)  =      12.0686  a.u.
     unit-cell volume          =   10172.9702 (a.u.)^3
     number of atoms/cell      =           21
     number of atomic types    =            2
     number of electrons       =       126.00
     number of Kohn-Sham states=           76
     kinetic-energy cutoff     =      45.0000  Ry
     charge density cutoff     =     360.0000  Ry
     convergence threshold     =      1.0E-06
     mixing beta               =       0.7000
     number of iterations used =            8  local-TF  mixing
     Exchange-correlation      = SLA PW GGX GGC ( 1  4  2  2 0 0)

     celldm(1)=  12.068552  celldm(2)=   0.000000  celldm(3)=   0.000000
     celldm(4)=   0.000000  celldm(5)=   0.000000  celldm(6)=   0.000000

     crystal axes: (cart. coord. in units of alat)
               a(1) = (   1.000000   0.000000   0.000000 )
               a(2) = (   0.034874   1.260549   0.000000 )
               a(3) = (   0.388055   0.598984   4.591161 )

     reciprocal axes: (cart. coord. in units 2 pi/alat)
               b(1) = (  1.000000 -0.027666 -0.080913 )
               b(2) = (  0.000000  0.793305 -0.103498 )
               b(3) = (  0.000000  0.000000  0.217810 )

     PseudoPot. # 1 for Mo read from file:
     ~/pseudo/Mo.pw91-n-van.UPF
     MD5 check sum: Not computed, couldn't open file
     Pseudo is Ultrasoft + core correction, Zval =  6.0
     Generated by new atomic code, or converted to UPF format
     Using radial grid of  965 points,  3 beta functions with:
                l(1) =   1
                l(2) =   2
                l(3) =   2
     Q(r) pseudized with  8 coefficients,  rinner =    1.000   1.000   1.000
                                                       1.200   1.200

     PseudoPot. # 2 for S  read from file:
     ~/pseudo/S.pw91-van_ak.UPF
     MD5 check sum: Not computed, couldn't open file
     Pseudo is Ultrasoft, Zval =  6.0
     Generated by new atomic code, or converted to UPF format
     Using radial grid of  811 points,  6 beta functions with:
                l(1) =   0
                l(2) =   0
                l(3) =   1
                l(4) =   1
                l(5) =   2
                l(6) =   2
     Q(r) pseudized with  8 coefficients,  rinner =    1.100   1.100   1.100
                                                       1.100   1.100

     atomic species   valence    mass     pseudopotential
        Mo             6.00    95.50000     Mo( 1.00)
        S              6.00    32.06500     S ( 1.00)

     No symmetry found

   Cartesian axes

     site n.     atom                  positions (alat units)
         1           Mo  tau(   1) = (   0.4922693   0.8613415   1.4963872  )
         2           Mo  tau(   2) = (   1.1174207   0.7253406   1.7789108  )
         3           Mo  tau(   3) = (   0.3225139   1.2559708   1.5781388  )
         4           Mo  tau(   4) = (   0.3072210   1.0540488   1.1391038  )
         5           Mo  tau(   5) = (   0.7288928   1.0268538   1.1167178  )
         6           Mo  tau(   6) = (   0.5360273   0.5860696   1.8613492  )
         7           Mo  tau(   7) = (   0.1855567   0.3408136   1.9900947  )
         8           S   tau(   8) = (   0.5375137   1.2261053   0.8946195  )
         9           S   tau(   9) = (   0.5335351   1.4670970   1.8319584  )
        10           S   tau(  10) = (   1.0336584   0.9528091   0.9301573  )
        11           S   tau(  11) = (   0.3101455   0.5049646   1.5507577  )
        12           S   tau(  12) = (   0.6940296   1.1861092   1.4413113  )
        13           S   tau(  13) = (   0.7874986   0.6550343   1.5950913  )
        14           S   tau(  14) = (   0.8928673   0.5972123   2.0547090  )
        15           S   tau(  15) = (   1.0280404   1.3765418   1.7647968  )
        16           S   tau(  16) = (   1.1754838   1.3784892   2.2748372  )
        17           S   tau(  17) = (   0.3800832   0.5941752   2.2155328  )
        18           S   tau(  18) = (   0.2236786   1.4007234   1.2568632  )
        19           S   tau(  19) = (   1.1161645   0.9525099   1.4666530  )
        20           S   tau(  20) = (   0.5198902   0.7372793   1.1438291  )
        21           S   tau(  21) = (   0.4025438   0.9612495   1.8796326  )

     number of k points=     4  Marzari-Vanderbilt smearing, width (Ry)=  0.0200
                       cart. coord. in units 2pi/alat
        k(    1) = (   0.0000000   0.0000000   0.0000000), wk =   0.3333333
        k(    2) = (   0.0000000  -0.3966525   0.0517491), wk =   0.3333333
        k(    3) = (   0.3333333  -0.0092219  -0.0269710), wk =   0.6666667
        k(    4) = (   0.3333333  -0.4058744   0.0247782), wk =   0.6666667

     Initial potential from superposition of free atoms

     starting charge  125.98896, renormalised to  126.00000

     negative rho (up, down):  1.610E-03 0.000E+00
     Starting wfcs are  119 randomized atomic wfcs

     Self-consistent Calculation

     iteration #  1     ecut=    45.00 Ry     beta= 0.70
     Davidson diagonalization with overlap
     ethr =  1.00E-02,  avg # of iterations =  2.0

     negative rho (up, down):  4.527E-03 0.000E+00

     total energy              =    -491.30502794 Ry
     Harris-Foulkes estimate   =    -493.20437300 Ry
     estimated scf accuracy    <       5.30005009 Ry

[...]

     total energy              =    -492.31253080 Ry
     Harris-Foulkes estimate   =    -492.31252864 Ry
     estimated scf accuracy    <       0.00000107 Ry

     iteration # 20     ecut=    45.00 Ry     beta= 0.70
     Davidson diagonalization with overlap
     ethr =  8.50E-10,  avg # of iterations =  3.5

[...]

     End of self-consistent calculation

          k = 0.0000 0.0000 0.0000 ( 51809 PWs)   bands (ev):

   -16.4514 -15.5287 -15.3840 -15.2720 -15.1171 -14.9498 -14.7832 -14.6994
   -14.5788 -14.4482 -14.3833 -14.2224 -13.7975 -13.3971  -8.3292  -7.9930
    -7.7996  -7.5456  -7.4244  -7.2317  -7.1781  -6.9848  -6.8385  -6.7059
    -6.6539  -6.5822  -6.3869  -6.3418  -6.2352  -6.1381  -6.0756  -5.9450
    -5.8798  -5.8000  -5.6508  -5.5615  -5.4467  -5.4149  -5.2902  -5.2219
    -5.0973  -4.9477  -4.9128  -4.7711  -4.6572  -4.5044  -4.4703  -4.2623
    -4.1398  -4.0716  -3.9967  -3.8557  -3.6363  -3.3443  -3.2055  -3.0453
    -3.0194  -2.7704  -2.6310  -2.4611  -2.3836  -2.1942  -2.1391  -2.0755
    -1.8767  -1.6766  -1.6086  -1.5969  -1.2933  -1.2068  -0.9883  -0.8590
    -0.6602  -0.6087  -0.5293  -0.4190

[...]

          k = 0.3333-0.4059 0.0248 ( 51868 PWs)   bands (ev):

   -16.1320 -15.7296 -15.4773 -15.2016 -15.1130 -15.0099 -14.8266 -14.6467
   -14.5895 -14.4813 -14.3774 -14.3088 -13.8349 -13.3949  -8.1445  -8.0573
    -7.6370  -7.4853  -7.4081  -7.2686  -7.0769  -6.9685  -6.7708  -6.7286
    -6.5355  -6.4854  -6.4086  -6.2955  -6.2326  -6.1825  -6.0804  -5.9552
    -5.8545  -5.7557  -5.6455  -5.5627  -5.5073  -5.3955  -5.2984  -5.2185
    -5.1815  -5.0075  -4.9311  -4.8262  -4.7080  -4.5900  -4.5100  -4.3527
    -4.1219  -4.0515  -3.9308  -3.7742  -3.6404  -3.4553  -3.3461  -3.1402
    -3.0995  -2.9160  -2.7641  -2.5167  -2.4403  -2.2389  -2.1416  -2.0123
    -1.8591  -1.7767  -1.6514  -1.5360  -1.3605  -1.1995  -1.0372  -0.8750
    -0.7660  -0.6268  -0.5674  -0.4528

     the Fermi energy is    -2.0696 ev

!    total energy              =    -492.31252950 Ry
     Harris-Foulkes estimate   =    -492.31253097 Ry
     estimated scf accuracy    <       0.00000036 Ry

     The total energy is the sum of the following terms:

     one-electron contribution =   -5016.71856604 Ry
     hartree contribution      =    2539.68542968 Ry
     xc contribution           =    -194.26838885 Ry
     ewald contribution        =    2178.99103052 Ry
     smearing contrib. (-TS)   =      -0.00203480 Ry

     convergence has been achieved in  20 iterations

     negative rho (up, down):  2.195E-03 0.000E+00

     Forces acting on atoms (cartesian axes, Ry/au):

     atom    1 type  1   force =    -0.01286738    0.01455643    0.01248324
     atom    2 type  1   force =     0.00841465    0.03295484    0.02197556
     atom    3 type  1   force =     0.01167960    0.01706310   -0.03176149
     atom    4 type  1   force =    -0.04322495    0.04459679    0.01567695
     atom    5 type  1   force =     0.03717502    0.01068060    0.01462958
     atom    6 type  1   force =    -0.01499735    0.00463442    0.00228515
     atom    7 type  1   force =    -0.00707405   -0.08887612    0.10554998
     atom    8 type  2   force =    -0.00273783    0.00542114    0.00403177
     atom    9 type  2   force =     0.02604345   -0.03389764    0.02638326
     atom   10 type  2   force =    -0.00247099   -0.01609768   -0.02918348
     atom   11 type  2   force =     0.00958243    0.04427522    0.01802942
     atom   12 type  2   force =     0.00430377    0.01164185    0.01529311
     atom   13 type  2   force =     0.02481332   -0.03444196   -0.00905047
     atom   14 type  2   force =    -0.01335220    0.00111037   -0.01717156
     atom   15 type  2   force =    -0.02225616    0.00097471    0.00097151
     atom   16 type  2   force =     0.01185295    0.05526091   -0.05691804
     atom   17 type  2   force =     0.00540075   -0.02829933   -0.05055125
     atom   18 type  2   force =     0.00108443    0.00017870   -0.00086656
     atom   19 type  2   force =    -0.00343125    0.01918437    0.00039811
     atom   20 type  2   force =    -0.00821912   -0.05308131   -0.02125736
     atom   21 type  2   force =    -0.00971909   -0.00783941   -0.02094745

     Total force =     0.228497     Total SCF correction =     0.000916

     General routines

     Parallel routines

   This run was terminated on:   1:10:58  24Dec2021

   JOB DONE.