     Program PWSCF v.6.4 starts on 18Nov2021 at 20:16: 4

     R & G space division:  proc/nbgrp/npool/nimage =      40
     Waiting for input...
     Reading input from standard input
Warning: card    &IONS ignored
Warning: card      ION_DYNAMICS = 'BFGS' ignored
Warning: card   / ignored
Warning: card    &CELL ignored
Warning: card      CELL_DYNAMICS = 'BFGS', ignored
Warning: card    / ignored

     Current dimensions of program PWSCF are:
     Max number of different atomic species (ntypx) = 10
     Max number of k-points (npk) =  40000
     Max angular momentum in pseudopotentials (lmaxx) =  3

     bravais-lattice index     =            0
     lattice parameter (alat)  =      11.8245  a.u.
     unit-cell volume          =    4442.7432 (a.u.)^3
     number of atoms/cell      =           18
     number of atomic types    =            2
     number of electrons       =       108.00
     number of Kohn-Sham states=           65
     kinetic-energy cutoff     =      45.0000  Ry
     charge density cutoff     =     360.0000  Ry
     convergence threshold     =      1.0E-06
     mixing beta               =       0.7000
     number of iterations used =            8  local-TF  mixing
     Exchange-correlation      = SLA PW GGX GGC ( 1  4  2  2 0 0)

     celldm(1)=  11.824534  celldm(2)=   0.000000  celldm(3)=   0.000000
     celldm(4)=   0.000000  celldm(5)=   0.000000  celldm(6)=   0.000000

     crystal axes: (cart. coord. in units of alat)
               a(1) = (   1.000000   0.000000   0.000000 )
               a(2) = (   0.500711   0.890246   0.000000 )
               a(3) = (  -0.013079   0.531832   3.018487 )

     reciprocal axes: (cart. coord. in units 2 pi/alat)
               b(1) = (  1.000000 -0.562441  0.103430 )
               b(2) = (  0.000000  1.123285 -0.197913 )
               b(3) = (  0.000000  0.000000  0.331292 )

     PseudoPot. # 1 for Mo read from file:
     ~/pseudo/Mo.pw91-n-van.UPF
     MD5 check sum: Not computed, couldn't open file
     Pseudo is Ultrasoft + core correction, Zval =  6.0
     Generated by new atomic code, or converted to UPF format
     Using radial grid of  965 points,  3 beta functions with:
                l(1) =   1
                l(2) =   2
                l(3) =   2
     Q(r) pseudized with  8 coefficients,  rinner =    1.000   1.000   1.000
                                                       1.200   1.200

     PseudoPot. # 2 for S  read from file:
     ~/pseudo/S.pw91-van_ak.UPF
     MD5 check sum: Not computed, couldn't open file
     Pseudo is Ultrasoft, Zval =  6.0
     Generated by new atomic code, or converted to UPF format
     Using radial grid of  811 points,  6 beta functions with:
                l(1) =   0
                l(2) =   0
                l(3) =   1
                l(4) =   1
                l(5) =   2
                l(6) =   2
     Q(r) pseudized with  8 coefficients,  rinner =    1.100   1.100   1.100
                                                       1.100   1.100

     atomic species   valence    mass     pseudopotential
        Mo             6.00    95.50000     Mo( 1.00)
        S              6.00    32.06500     S ( 1.00)

     No symmetry found

   Cartesian axes

     site n.     atom                  positions (alat units)
         1           Mo  tau(   1) = (   1.1930460   1.2320533   1.9125933  )
         2           Mo  tau(   2) = (   0.4427952   0.7870142   1.9121977  )
         3           Mo  tau(   3) = (   0.1923275   0.3415464   1.9120423  )
         4           Mo  tau(   4) = (   0.9426418   0.7871176   1.9120867  )
         5           Mo  tau(   5) = (   0.9555494   0.5314217   0.7711305  )
         6           Mo  tau(   6) = (   0.5028144   0.5311657   0.7710835  )
         7           S   tau(   7) = (   0.4431010   1.0815212   2.1665915  )
         8           S   tau(   8) = (   0.6926488   0.6368453   2.1665847  )
         9           S   tau(   9) = (   0.9426958   1.0816174   2.1666279  )
        10           S   tau(  10) = (   0.1925046   0.6363179   2.1660807  )
        11           S   tau(  11) = (   0.7291631   0.3794540   0.5270710  )
        12           S   tau(  12) = (   1.2289785   0.7150486   0.5999696  )
        13           S   tau(  13) = (   0.4427285   1.0810666   1.6557721  )
        14           S   tau(  14) = (   0.6928018   0.6354463   1.6562241  )
        15           S   tau(  15) = (   0.9435153   1.0811846   1.6557724  )
        16           S   tau(  16) = (   0.1928618   0.6357622   1.6558793  )
        17           S   tau(  17) = (   0.7291865   0.8254547   0.8894764  )
        18           S   tau(  18) = (   0.2284913   0.2732063   0.8834261  )

     number of k points=     5  Marzari-Vanderbilt smearing, width (Ry)=  0.0200
                       cart. coord. in units 2pi/alat
        k(    1) = (   0.0000000   0.0000000   0.0000000), wk =   0.2222222
        k(    2) = (   0.0000000   0.3744285  -0.0659711), wk =   0.4444444
        k(    3) = (   0.3333333  -0.1874804   0.0344768), wk =   0.4444444
        k(    4) = (   0.3333333   0.1869481  -0.0314943), wk =   0.4444444
        k(    5) = (   0.3333333  -0.5619089   0.1004479), wk =   0.4444444

     Initial potential from superposition of free atoms

     starting charge  107.99054, renormalised to  108.00000

     negative rho (up, down):  7.237E-05 0.000E+00
     Starting wfcs are  102 randomized atomic wfcs

     Self-consistent Calculation

     iteration #  1     ecut=    45.00 Ry     beta= 0.70
     Davidson diagonalization with overlap
     ethr =  1.00E-02,  avg # of iterations =  2.0

     negative rho (up, down):  6.097E-07 0.000E+00

     total energy              =    -421.74247330 Ry
     Harris-Foulkes estimate   =    -422.98098889 Ry
     estimated scf accuracy    <       3.19958092 Ry

[...]

     total energy              =    -422.35325057 Ry
     Harris-Foulkes estimate   =    -422.35325141 Ry
     estimated scf accuracy    <       0.00000369 Ry

     iteration # 18     ecut=    45.00 Ry     beta= 0.70
     Davidson diagonalization with overlap
     ethr =  3.42E-09,  avg # of iterations =  2.6

[...]

     End of self-consistent calculation

          k = 0.0000 0.0000 0.0000 ( 22625 PWs)   bands (ev):

   -13.2136 -13.1881 -12.0519 -11.4022 -11.3098 -11.3049 -11.2299 -11.1026
   -11.0981 -10.9976 -10.5181  -9.6782  -5.0312  -4.8864  -4.8433  -4.8398
    -4.6845  -3.9610  -3.9589  -3.9022  -3.1704  -3.1572  -3.1520  -2.5919
    -2.4132  -2.2774  -2.2667  -2.0689  -1.9589  -1.9315  -1.7842  -1.7300
    -1.6670  -1.6266  -1.4429  -1.3781  -1.1668  -1.0461  -1.0380  -0.9604
    -0.5797  -0.3576  -0.3396  -0.0181  -0.0081   0.0946   0.2572   0.2627
     0.2635   0.6217   0.6910   0.9505   1.7515   1.7843   2.1079   2.1242
     2.6189   3.0502   3.0556   3.0617   3.5009   3.6031   3.6418   3.6824
     3.7388

[...]

          k = 0.3333-0.5619 0.1004 ( 22634 PWs)   bands (ev):

   -13.0432 -12.1848 -12.1812 -12.1357 -11.5486 -11.5456 -11.4937 -11.0759
   -10.9603 -10.8757 -10.7147  -9.9977  -4.4568  -4.2273  -3.9562  -3.9447
    -3.9424  -3.6753  -3.1453  -2.9653  -2.8806  -2.8755  -2.8722  -2.7289
    -2.6822  -2.6760  -2.6401  -2.4012  -2.2900  -2.2399  -2.2379  -2.1466
    -2.0535  -2.0313  -1.7867  -1.4304  -1.3778  -1.3600  -1.0583  -0.9943
    -0.9886  -0.9270  -0.7766  -0.2225  -0.2192  -0.1924  -0.0244   0.0387
     0.1025   0.1064   0.5720   0.8827   1.3877   1.9547   2.1608   2.5709
     2.6558   2.6633   2.6953   2.7035   3.1517   3.2499   3.2550   3.3050
     3.3647

     the Fermi energy is     2.0428 ev

!    total energy              =    -422.35325049 Ry
     Harris-Foulkes estimate   =    -422.35325090 Ry
     estimated scf accuracy    <       0.00000027 Ry

     The total energy is the sum of the following terms:

     one-electron contribution =   -1007.71602905 Ry
     hartree contribution      =     544.61299033 Ry
     xc contribution           =    -166.84232214 Ry
     ewald contribution        =     207.59740558 Ry
     smearing contrib. (-TS)   =      -0.00529521 Ry

     convergence has been achieved in  18 iterations

     negative rho (up, down):  1.824E-04 0.000E+00

     Forces acting on atoms (cartesian axes, Ry/au):

     atom    1 type  1   force =     0.00037050   -0.00471475   -0.00760025
     atom    2 type  1   force =     0.00021487   -0.00491345   -0.00783314
     atom    3 type  1   force =     0.00025640   -0.00381524   -0.00788630
     atom    4 type  1   force =     0.00150921   -0.00510472   -0.00751508
     atom    5 type  1   force =     0.05738497    0.01184350   -0.02397857
     atom    6 type  1   force =    -0.05835169    0.01187452   -0.02385734
     atom    7 type  2   force =    -0.00041073    0.00148001    0.00209753
     atom    8 type  2   force =     0.00000046    0.00116716    0.00243457
     atom    9 type  2   force =     0.00017241    0.00134687    0.00195204
     atom   10 type  2   force =     0.00011227    0.00182015    0.00278029
     atom   11 type  2   force =    -0.00013142   -0.00685722    0.00512509
     atom   12 type  2   force =     0.00050168    0.00778141   -0.00033870
     atom   13 type  2   force =     0.00033834    0.00267607    0.00587936
     atom   14 type  2   force =    -0.00047276    0.00397327    0.00460268
     atom   15 type  2   force =    -0.00116253    0.00254806    0.00557273
     atom   16 type  2   force =    -0.00057901    0.00324429    0.00535563
     atom   17 type  2   force =    -0.00031155   -0.13466568    0.03847399
     atom   18 type  2   force =     0.00055858    0.11031575    0.00473546

     Total force =     0.201446     Total SCF correction =     0.000950

     General routines

     Parallel routines

   This run was terminated on:  20:16:49  18Nov2021

   JOB DONE.