     Program PWSCF v.6.4 starts on  3Dec2021 at 17: 7:16

     R & G space division:  proc/nbgrp/npool/nimage =      40
     Waiting for input...
     Reading input from standard input
Warning: card    &IONS ignored
Warning: card      ION_DYNAMICS = 'BFGS' ignored
Warning: card   / ignored
Warning: card    &CELL ignored
Warning: card      CELL_DYNAMICS = 'BFGS', ignored
Warning: card    / ignored

     Current dimensions of program PWSCF are:
     Max number of different atomic species (ntypx) = 10
     Max number of k-points (npk) =  40000
     Max angular momentum in pseudopotentials (lmaxx) =  3

     bravais-lattice index     =            0
     lattice parameter (alat)  =      11.6509  a.u.
     unit-cell volume          =   13176.2359 (a.u.)^3
     number of atoms/cell      =           36
     number of atomic types    =            2
     number of electrons       =       216.00
     number of Kohn-Sham states=          130
     kinetic-energy cutoff     =      45.0000  Ry
     charge density cutoff     =     360.0000  Ry
     convergence threshold     =      1.0E-06
     mixing beta               =       0.7000
     number of iterations used =            8  local-TF  mixing
     Exchange-correlation      = SLA PW GGX GGC ( 1  4  2  2 0 0)

     celldm(1)=  11.650867  celldm(2)=   0.000000  celldm(3)=   0.000000
     celldm(4)=   0.000000  celldm(5)=   0.000000  celldm(6)=   0.000000

     crystal axes: (cart. coord. in units of alat)
               a(1) = (   1.000000   0.000000   0.000000 )
               a(2) = (  -0.451271   1.913800   0.000000 )
               a(3) = (  -0.338508  -0.659796   4.353315 )

     reciprocal axes: (cart. coord. in units 2 pi/alat)
               b(1) = (  1.000000  0.235798  0.113497 )
               b(2) = (  0.000000  0.522521  0.079194 )
               b(3) = (  0.000000  0.000000  0.229710 )

     PseudoPot. # 1 for Mo read from file:
     ~/pseudo/Mo.pw91-n-van.UPF
     MD5 check sum: Not computed, couldn't open file
     Pseudo is Ultrasoft + core correction, Zval =  6.0
     Generated by new atomic code, or converted to UPF format
     Using radial grid of  965 points,  3 beta functions with:
                l(1) =   1
                l(2) =   2
                l(3) =   2
     Q(r) pseudized with  8 coefficients,  rinner =    1.000   1.000   1.000
                                                       1.200   1.200

     PseudoPot. # 2 for S  read from file:
     ~/pseudo/S.pw91-van_ak.UPF
     MD5 check sum: Not computed, couldn't open file
     Pseudo is Ultrasoft, Zval =  6.0
     Generated by new atomic code, or converted to UPF format
     Using radial grid of  811 points,  6 beta functions with:
                l(1) =   0
                l(2) =   0
                l(3) =   1
                l(4) =   1
                l(5) =   2
                l(6) =   2
     Q(r) pseudized with  8 coefficients,  rinner =    1.100   1.100   1.100
                                                       1.100   1.100

     atomic species   valence    mass     pseudopotential
        Mo             6.00    95.50000     Mo( 1.00)
        S              6.00    32.06500     S ( 1.00)

     No symmetry found

   Cartesian axes

     site n.     atom                  positions (alat units)
         1           Mo  tau(   1) = (  -0.4299580   1.3766610   3.1226523  )
         2           Mo  tau(   2) = (  -0.1854975   0.0802359   2.8989576  )
         3           Mo  tau(   3) = (   0.0628050   1.3764666   3.1204284  )
         4           Mo  tau(   4) = (   0.3140324   0.0805342   2.8990954  )
         5           Mo  tau(   5) = (   0.0695991   0.4892198   2.9592796  )
         6           Mo  tau(   6) = (  -0.4311456   0.4899450   2.9591157  )
         7           Mo  tau(   7) = (  -0.1824226   0.9475694   3.0422939  )
         8           Mo  tau(   8) = (   0.3175763   0.9461952   3.0432691  )
         9           Mo  tau(   9) = (  -0.3836993   1.1611985   4.0361434  )
        10           Mo  tau(  10) = (   0.1173734   1.1638795   4.0355724  )
        11           Mo  tau(  11) = (  -0.0151939   0.9180526   1.4459258  )
        12           Mo  tau(  12) = (   0.4851754   0.9168086   1.4462965  )
        13           S   tau(  13) = (  -0.2345392  -0.4191593   3.3894315  )
        14           S   tau(  14) = (  -0.4304866   1.0508104   3.3250291  )
        15           S   tau(  15) = (   0.2693596  -0.4298796   3.3829243  )
        16           S   tau(  16) = (   0.0659093   1.0511866   3.3232778  )
        17           S   tau(  17) = (   0.2359994   1.1837059   1.3448255  )
        18           S   tau(  18) = (  -0.2656647   0.8155631   1.1794462  )
        19           S   tau(  19) = (  -0.2319899  -0.3054783   2.8863574  )
        20           S   tau(  20) = (  -0.4328174   1.1443690   2.8138978  )
        21           S   tau(  21) = (   0.2664515  -0.3051814   2.8778759  )
        22           S   tau(  22) = (   0.0673626   1.1425860   2.8121124  )
        23           S   tau(  23) = (   0.2338605   0.6505521   1.5467226  )
        24           S   tau(  24) = (  -0.2647106   1.0209389   1.7122661  )
        25           S   tau(  25) = (   0.5644624   0.1544879   3.1784285  )
        26           S   tau(  26) = (   0.0642222   0.1534063   3.1790725  )
        27           S   tau(  27) = (   0.5655456   0.2329211   2.6504242  )
        28           S   tau(  28) = (   0.0654922   0.2323429   2.6498175  )
        29           S   tau(  29) = (  -0.1804139   0.6896179   2.7354452  )
        30           S   tau(  30) = (   0.3189992   0.6906961   2.7365086  )
        31           S   tau(  31) = (  -0.1307549   1.0428885   4.2904681  )
        32           S   tau(  32) = (  -0.1805640  -0.4917891   4.1504420  )
        33           S   tau(  33) = (  -0.1805449   0.6013303   3.2383828  )
        34           S   tau(  34) = (   0.3190532   0.5998475   3.2382704  )
        35           S   tau(  35) = (  -0.1383969   1.2717009   3.7763640  )
        36           S   tau(  36) = (   0.3638912   0.9069058   3.9178028  )

     number of k points=     4  Marzari-Vanderbilt smearing, width (Ry)=  0.0200
                       cart. coord. in units 2pi/alat
        k(    1) = (   0.0000000   0.0000000   0.0000000), wk =   0.3333333
        k(    2) = (   0.0000000  -0.2612603  -0.0395971), wk =   0.3333333
        k(    3) = (   0.3333333   0.0785995   0.0378322), wk =   0.6666667
        k(    4) = (   0.3333333  -0.1826608  -0.0017649), wk =   0.6666667

     Initial potential from superposition of free atoms

     starting charge  215.98107, renormalised to  216.00000

     negative rho (up, down):  6.508E-04 0.000E+00
     Starting wfcs are  204 randomized atomic wfcs

     Self-consistent Calculation

     iteration #  1     ecut=    45.00 Ry     beta= 0.70
     Davidson diagonalization with overlap
     ethr =  1.00E-02,  avg # of iterations =  2.5

     negative rho (up, down):  1.445E-05 0.000E+00

     total energy              =    -843.35917406 Ry
     Harris-Foulkes estimate   =    -846.01495886 Ry
     estimated scf accuracy    <       6.83366469 Ry

[...]

     iteration # 11     ecut=    45.00 Ry     beta= 0.70
     Davidson diagonalization with overlap
     c_bands:  2 eigenvalues not converged
     ethr =  1.66E-06,  avg # of iterations = 13.5

[...]

     total energy              =    -844.69681546 Ry
     Harris-Foulkes estimate   =    -844.69681815 Ry
     estimated scf accuracy    <       0.00000795 Ry

     iteration # 18     ecut=    45.00 Ry     beta= 0.70
     Davidson diagonalization with overlap
     ethr =  3.68E-09,  avg # of iterations =  1.0

[...]

     End of self-consistent calculation

          k = 0.0000 0.0000 0.0000 ( 67251 PWs)   bands (ev):

   -15.4961 -15.0112 -14.4932 -14.3849 -14.2271 -13.9086 -13.8818 -13.7527
   -13.7487 -13.7379 -13.6433 -13.6277 -13.5210 -13.5137 -13.4445 -13.3558
   -13.1743 -13.1394 -13.0663 -12.9820 -12.9526 -12.9484 -12.8477 -12.7730
    -7.1605  -7.1171  -6.9621  -6.9174  -6.8783  -6.6613  -6.4917  -6.4266
    -6.4028  -6.3756  -6.3571  -6.0104  -5.9280  -5.8570  -5.7170  -5.5415
    -5.4586  -5.4430  -5.4215  -5.3518  -5.3138  -5.1155  -5.0034  -4.9235
    -4.8321  -4.7110  -4.6404  -4.6199  -4.5528  -4.5317  -4.4653  -4.4602
    -4.4222  -4.3492  -4.3136  -4.2695  -4.2576  -4.1899  -4.1314  -4.0324
    -3.9537  -3.9410  -3.9139  -3.8769  -3.8171  -3.8007  -3.7868  -3.6924
    -3.6015  -3.5942  -3.5671  -3.5388  -3.3089  -3.3075  -3.2725  -3.2401
    -3.1374  -3.0844  -3.0589  -2.9562  -2.9320  -2.7696  -2.7174  -2.6311
    -2.5925  -2.5874  -2.4860  -2.3769  -2.3675  -2.2898  -2.2067  -2.1056
    -1.9651  -1.9523  -1.8488  -1.7782  -1.6524  -1.6183  -1.5115  -1.0500
    -1.0230  -0.9726  -0.9711  -0.9528  -0.8567  -0.8158  -0.6193  -0.5507
    -0.4606  -0.1386   0.3233   0.5165   0.6057   0.6549   0.6705   0.6957
     0.7665   0.8445   1.0218   1.0517   1.1692   1.1994   1.2032   1.3101
     1.3112   1.3251

[...]

          k = 0.3333-0.1827-0.0018 ( 67130 PWs)   bands (ev):

   -15.1552 -14.8243 -14.4034 -14.2376 -14.1790 -14.0926 -14.0646 -13.9030
   -13.8234 -13.7866 -13.7402 -13.6742 -13.6098 -13.4517 -13.3789 -13.3323
   -13.2884 -13.1315 -13.0991 -13.0444 -12.9903 -12.9471 -12.9428 -12.8966
    -6.7326  -6.6990  -6.6606  -6.6315  -6.5707  -6.4630  -6.3798  -6.2449
    -6.1964  -6.0601  -5.9628  -5.8417  -5.6580  -5.5459  -5.4503  -5.3517
    -5.3202  -5.2479  -5.1879  -5.1240  -5.0484  -4.9686  -4.9641  -4.9070
    -4.8435  -4.7591  -4.7150  -4.6555  -4.5987  -4.5324  -4.4642  -4.4581
    -4.4562  -4.4089  -4.3891  -4.3654  -4.3113  -4.2796  -4.2235  -4.2186
    -4.1652  -4.0639  -3.9861  -3.9597  -3.9178  -3.8793  -3.8620  -3.8541
    -3.8181  -3.8094  -3.7406  -3.6568  -3.6500  -3.6132  -3.5397  -3.4779
    -3.3774  -3.2085  -3.1717  -3.0853  -3.0656  -3.0593  -2.9941  -2.9726
    -2.9229  -2.9119  -2.8590  -2.8281  -2.8067  -2.5250  -2.4420  -2.2821
    -2.2565  -2.1881  -1.9724  -1.8911  -1.8128  -1.7442  -1.5274  -0.9952
    -0.9622  -0.9260  -0.9181  -0.8983  -0.4941  -0.4549  -0.3096  -0.1239
    -0.0593  -0.0290   0.1977   0.3779   0.5095   0.5971   0.6356   0.7069
     0.7417   0.7860   0.7904   0.8418   0.8623   0.8967   0.9561   0.9916
     1.0574   1.1274

     the Fermi energy is    -0.7626 ev

!    total energy              =    -844.69681456 Ry
     Harris-Foulkes estimate   =    -844.69681567 Ry
     estimated scf accuracy    <       0.00000054 Ry

     The total energy is the sum of the following terms:

     one-electron contribution =   -4521.28483978 Ry
     hartree contribution      =    2323.88604635 Ry
     xc contribution           =    -333.41964995 Ry
     ewald contribution        =    1686.12745895 Ry
     smearing contrib. (-TS)   =      -0.00583013 Ry

     convergence has been achieved in  18 iterations

     negative rho (up, down):  1.203E-03 0.000E+00

     Forces acting on atoms (cartesian axes, Ry/au):

     atom    1 type  1   force =    -0.03092787    0.07286513   -0.02680004
     atom    2 type  1   force =    -0.00479783   -0.08729611   -0.02178130
     atom    3 type  1   force =     0.03192977    0.07308243   -0.02897109
     atom    4 type  1   force =    -0.00278193   -0.08666983   -0.02234354
     atom    5 type  1   force =    -0.00485111    0.02962430    0.00620573
     atom    6 type  1   force =     0.00092234    0.02916148    0.00700495
     atom    7 type  1   force =     0.00031449   -0.03230576   -0.02458365
     atom    8 type  1   force =     0.00199855   -0.01854836   -0.02120441
     atom    9 type  1   force =    -0.00896574   -0.00044904    0.00220870
     atom   10 type  1   force =     0.00061350    0.00494069   -0.00746503
     atom   11 type  1   force =    -0.00094774   -0.00074590   -0.00218640
     atom   12 type  1   force =    -0.00047879    0.00058350    0.00002936
     atom   13 type  2   force =     0.00601050    0.00481555   -0.00580228
     atom   14 type  2   force =    -0.00754988   -0.02813202    0.01358005
     atom   15 type  2   force =    -0.00289228    0.04775350    0.02167940
     atom   16 type  2   force =     0.00692529   -0.02819820    0.01575491
     atom   17 type  2   force =    -0.00071583   -0.01770309    0.00653589
     atom   18 type  2   force =     0.00117319    0.00748968    0.01914742
     atom   19 type  2   force =     0.00709181   -0.01462632    0.03481147
     atom   20 type  2   force =    -0.00018032   -0.01757960   -0.01750290
     atom   21 type  2   force =     0.00896373   -0.01703008    0.03813475
     atom   22 type  2   force =    -0.00004450   -0.01547834   -0.01568496
     atom   23 type  2   force =     0.00091990    0.01841689   -0.00608968
     atom   24 type  2   force =    -0.00094652   -0.00823129   -0.01786350
     atom   25 type  2   force =    -0.00110593    0.01274729    0.02198616
     atom   26 type  2   force =    -0.00070602    0.01372332    0.02158519
     atom   27 type  2   force =    -0.00345465    0.02357408   -0.01201740
     atom   28 type  2   force =    -0.00331610    0.02437284   -0.01153334
     atom   29 type  2   force =    -0.00090186    0.00777191   -0.00303750
     atom   30 type  2   force =     0.00039194    0.00558962   -0.00648888
     atom   31 type  2   force =    -0.00285196    0.00678157   -0.00765215
     atom   32 type  2   force =    -0.00027568   -0.01250129   -0.00459866
     atom   33 type  2   force =    -0.00057249    0.00469895    0.00792157
     atom   34 type  2   force =     0.00065957    0.00686697    0.01219127
     atom   35 type  2   force =     0.00806398   -0.01466695    0.03062480
     atom   36 type  2   force =     0.00328647    0.00530247    0.00420509

     Total force =     0.224599     Total SCF correction =     0.001637

     General routines

     Parallel routines

   This run was terminated on:  17:11:20   3Dec2021

   JOB DONE.