     Program PWSCF v.6.4 starts on  8Sep2021 at 12: 4: 8

     R & G space division:  proc/nbgrp/npool/nimage =      40
     Waiting for input...
     Reading input from standard input
Warning: card    &IONS ignored
Warning: card      ION_DYNAMICS = 'BFGS' ignored
Warning: card   / ignored
Warning: card    &CELL ignored
Warning: card      CELL_DYNAMICS = 'BFGS', ignored
Warning: card    / ignored

     Current dimensions of program PWSCF are:
     Max number of different atomic species (ntypx) = 10
     Max number of k-points (npk) =  40000
     Max angular momentum in pseudopotentials (lmaxx) =  3

     bravais-lattice index     =            0
     lattice parameter (alat)  =      12.2950  a.u.
     unit-cell volume          =    5213.2773 (a.u.)^3
     number of atoms/cell      =           36
     number of atomic types    =            2
     number of electrons       =       216.00
     number of Kohn-Sham states=          130
     kinetic-energy cutoff     =      45.0000  Ry
     charge density cutoff     =     360.0000  Ry
     convergence threshold     =      1.0E-06
     mixing beta               =       0.7000
     number of iterations used =            8  local-TF  mixing
     Exchange-correlation      = SLA PW GGX GGC ( 1  4  2  2 0 0)

     celldm(1)=  12.295043  celldm(2)=   0.000000  celldm(3)=   0.000000
     celldm(4)=   0.000000  celldm(5)=   0.000000  celldm(6)=   0.000000

     crystal axes: (cart. coord. in units of alat)
               a(1) = (   0.999316  -0.020611   0.030699 )
               a(2) = (  -0.504947   0.884486   0.034931 )
               a(3) = (  -0.482650  -0.691271   3.155931 )

     reciprocal axes: (cart. coord. in units 2 pi/alat)
               b(1) = (  1.003780  0.562126  0.276640 )
               b(2) = (  0.015624  1.129654  0.249827 )
               b(3) = ( -0.009937 -0.017971  0.311408 )

     PseudoPot. # 1 for Mo read from file:
     ~/pseudo/Mo.pw91-n-van.UPF
     MD5 check sum: Not computed, couldn't open file
     Pseudo is Ultrasoft + core correction, Zval =  6.0
     Generated by new atomic code, or converted to UPF format
     Using radial grid of  965 points,  3 beta functions with:
                l(1) =   1
                l(2) =   2
                l(3) =   2
     Q(r) pseudized with  8 coefficients,  rinner =    1.000   1.000   1.000
                                                       1.200   1.200

     PseudoPot. # 2 for S  read from file:
     ~/pseudo/S.pw91-van_ak.UPF
     MD5 check sum: Not computed, couldn't open file
     Pseudo is Ultrasoft, Zval =  6.0
     Generated by new atomic code, or converted to UPF format
     Using radial grid of  811 points,  6 beta functions with:
                l(1) =   0
                l(2) =   0
                l(3) =   1
                l(4) =   1
                l(5) =   2
                l(6) =   2
     Q(r) pseudized with  8 coefficients,  rinner =    1.100   1.100   1.100
                                                       1.100   1.100

     atomic species   valence    mass     pseudopotential
        Mo             6.00    95.50000     Mo( 1.00)
        S              6.00    32.06500     S ( 1.00)

     No symmetry found

   Cartesian axes

     site n.     atom                  positions (alat units)
         1           Mo  tau(   1) = (   0.1899348   0.0786049   1.1078058  )
         2           Mo  tau(   2) = (  -0.0817605   0.4797879   1.1269216  )
         3           Mo  tau(   3) = (   0.6692817   0.0588678   1.1238306  )
         4           Mo  tau(   4) = (   0.4280005   0.5138623   1.1763977  )
         5           Mo  tau(   5) = (  -0.3034702  -0.2921200   2.0887763  )
         6           Mo  tau(   6) = (  -0.5549006   0.0568917   2.0679558  )
         7           Mo  tau(   7) = (   0.1986688  -0.3067896   2.1013454  )
         8           Mo  tau(   8) = (  -0.0506641   0.0522976   2.0872579  )
         9           Mo  tau(   9) = (  -0.5841580  -0.7577362   3.0628165  )
        10           Mo  tau(  10) = (  -0.9062474  -0.2513630   3.2791170  )
        11           Mo  tau(  11) = (  -0.1912442  -0.7528383   3.2663683  )
        12           Mo  tau(  12) = (  -0.3308191  -0.3345977   3.1260442  )
        13           S   tau(  13) = (  -0.1464436   0.2075375   0.1610493  )
        14           S   tau(  14) = (  -0.3403567   0.6328452   0.4233124  )
        15           S   tau(  15) = (   0.2653822   0.2732609   0.3120924  )
        16           S   tau(  16) = (   0.1221362   0.6750752   0.1934374  )
        17           S   tau(  17) = (  -0.0673691   0.0381903   0.8271322  )
        18           S   tau(  18) = (  -0.3462637   0.3935202   0.8874593  )
        19           S   tau(  19) = (   0.4279773  -0.0968164   0.8637964  )
        20           S   tau(  20) = (   0.2152690   0.3947867   0.9047381  )
        21           S   tau(  21) = (  -0.0779723  -0.0566417   1.3368615  )
        22           S   tau(  22) = (  -0.3419073   0.3367982   1.3677232  )
        23           S   tau(  23) = (   0.4209282  -0.1172113   1.3387686  )
        24           S   tau(  24) = (   0.1673729   0.3358999   1.3788310  )
        25           S   tau(  25) = (  -0.0481336  -0.4843498   1.8563318  )
        26           S   tau(  26) = (  -0.2991902  -0.0365125   1.8151632  )
        27           S   tau(  27) = (   0.4498994  -0.4955219   1.8781280  )
        28           S   tau(  28) = (   0.2018467  -0.0428431   1.8316200  )
        29           S   tau(  29) = (  -0.0516788  -0.2101786   2.3593728  )
        30           S   tau(  30) = (  -0.3094073   0.2368603   2.3097463  )
        31           S   tau(  31) = (   0.4425858  -0.2246054   2.3721466  )
        32           S   tau(  32) = (   0.1930758   0.2233313   2.3308441  )
        33           S   tau(  33) = (  -0.5073802  -0.4855723   2.8334431  )
        34           S   tau(  34) = (  -0.7867163  -0.0489175   2.9897209  )
        35           S   tau(  35) = (  -0.0161060  -0.5206636   3.0293084  )
        36           S   tau(  36) = (  -0.2663630  -0.0837304   2.8655260  )

     number of k points=     5  Marzari-Vanderbilt smearing, width (Ry)=  0.0200
                       cart. coord. in units 2pi/alat
        k(    1) = (   0.0000000   0.0000000   0.0000000), wk =   0.2222222
        k(    2) = (   0.0052082   0.3765512   0.0832758), wk =   0.4444444
        k(    3) = (   0.3345933   0.1873754   0.0922133), wk =   0.4444444
        k(    4) = (   0.3398014   0.5639266   0.1754891), wk =   0.4444444
        k(    5) = (   0.3293851  -0.1891758   0.0089374), wk =   0.4444444

     Initial potential from superposition of free atoms

     starting charge  215.98107, renormalised to  216.00000
     Starting wfcs are  204 randomized atomic wfcs

     Self-consistent Calculation

     iteration #  1     ecut=    45.00 Ry     beta= 0.70
     Davidson diagonalization with overlap
     ethr =  1.00E-02,  avg # of iterations =  2.0

     total energy              =    -843.27804542 Ry
     Harris-Foulkes estimate   =    -846.27184776 Ry
     estimated scf accuracy    <       8.29327947 Ry

[...]

     iteration #  6     ecut=    45.00 Ry     beta= 0.70
     Davidson diagonalization with overlap
     c_bands:  1 eigenvalues not converged
     ethr =  4.45E-06,  avg # of iterations =  8.8

[...]

     total energy              =    -844.83299730 Ry
     Harris-Foulkes estimate   =    -844.83299841 Ry
     estimated scf accuracy    <       0.00000393 Ry

     iteration # 13     ecut=    45.00 Ry     beta= 0.70
     Davidson diagonalization with overlap
     ethr =  1.82E-09,  avg # of iterations =  3.0

     End of self-consistent calculation

          k = 0.0000 0.0000 0.0000 ( 26543 PWs)   bands (ev):

    -8.0951  -8.0638  -7.7777  -7.0067  -6.9517  -6.8161  -6.5769  -6.5097
    -6.4982  -6.4414  -6.4185  -6.4102  -6.3509  -6.3104  -6.1800  -6.1463
    -6.0798  -5.9990  -5.9570  -5.8897  -5.8528  -5.7535  -5.6601  -5.6073
     0.0765   0.1585   0.2834   0.2852   0.3159   0.3764   0.3884   0.4943
     0.5310   0.7294   0.9289   0.9785   1.0444   1.1863   1.2519   1.3305
     1.4361   1.5912   1.6594   1.6691   1.7008   1.7240   1.8024   1.9349
     1.9870   2.0655   2.1600   2.2212   2.3102   2.3373   2.4265   2.6544
     2.7191   2.7516   2.7669   2.8665   2.9006   3.0061   3.0113   3.0598
     3.1494   3.2443   3.3253   3.4073   3.4695   3.4981   3.5763   3.6267
     3.6954   3.7537   3.7720   3.8552   3.8945   3.9617   4.0315   4.0773
     4.1789   4.2199   4.3243   4.3354   4.3942   4.4633   4.5346   4.5706
     4.6609   4.7255   4.7846   4.8187   4.9314   4.9981   5.0203   5.1588
     5.2210   5.2664   5.3004   5.4085   5.6535   5.6701   5.6922   5.7537
     5.7932   5.8914   5.9022   6.1440   6.2549   6.5672   6.8741   6.9253
     7.0402   7.2829   7.3291   7.4169   7.5624   7.5705   7.5921   7.6876
     7.7318   7.8330   7.8758   8.0168   8.0534   8.0732   8.1806   8.2508
     8.3033   8.4049

[...]

          k = 0.3294-0.1892 0.0089 ( 26550 PWs)   bands (ev):

    -7.8318  -7.7430  -7.4256  -7.1322  -7.0139  -6.8124  -6.7036  -6.6647
    -6.6541  -6.6333  -6.5402  -6.4283  -6.3917  -6.3369  -6.2485  -6.1725
    -6.1275  -6.0763  -6.0403  -5.9278  -5.9219  -5.7060  -5.6907  -5.6557
     0.3771   0.4600   0.5645   0.6710   0.7371   0.7623   0.7673   0.7776
     0.8531   0.9962   1.1196   1.2143   1.2357   1.2553   1.2863   1.3097
     1.4378   1.4860   1.5849   1.7242   1.8369   1.8600   1.9258   1.9882
     2.0149   2.0369   2.0849   2.1561   2.2770   2.3851   2.5138   2.5502
     2.5905   2.6482   2.6931   2.7752   2.8065   2.9155   2.9921   3.0434
     3.0535   3.1076   3.1741   3.2331   3.3302   3.4294   3.4587   3.5974
     3.6203   3.6685   3.6960   3.7360   3.7648   3.8377   3.8702   3.9042
     3.9098   4.0153   4.0764   4.2061   4.2750   4.3279   4.3924   4.5365
     4.6391   4.6885   4.7234   4.7952   4.8357   4.8980   5.0123   5.0710
     5.1311   5.1781   5.2349   5.3024   5.3872   5.4637   5.4981   5.5478
     5.5811   5.6680   5.7806   5.9395   6.3133   6.4094   6.4597   6.9314
     6.9624   7.1087   7.1704   7.2460   7.2867   7.5642   7.5928   7.6621
     7.7897   7.8716   7.9522   8.0330   8.1069   8.1482   8.2150   8.2852
     8.3154   8.4168

     the Fermi energy is     6.0407 ev

!    total energy              =    -844.83299751 Ry
     Harris-Foulkes estimate   =    -844.83299810 Ry
     estimated scf accuracy    <       0.00000068 Ry

     The total energy is the sum of the following terms:

     one-electron contribution =    -121.55487026 Ry
     hartree contribution      =     180.66813522 Ry
     xc contribution           =    -333.34783271 Ry
     ewald contribution        =    -570.61763830 Ry
     smearing contrib. (-TS)   =       0.01920855 Ry

     convergence has been achieved in  13 iterations

     Forces acting on atoms (cartesian axes, Ry/au):

     atom    1 type  1   force =    -0.02141238   -0.01050505   -0.01170656
     atom    2 type  1   force =     0.02798903    0.07463756    0.02992650
     atom    3 type  1   force =    -0.00852083    0.00678511   -0.01360322
     atom    4 type  1   force =    -0.00643852    0.01705897   -0.03124766
     atom    5 type  1   force =     0.01635709   -0.01737948   -0.00564492
     atom    6 type  1   force =     0.00829898    0.01433462    0.01397647
     atom    7 type  1   force =    -0.01395489    0.00117112   -0.01072454
     atom    8 type  1   force =    -0.00771464   -0.01808245    0.00780139
     atom    9 type  1   force =    -0.01048389    0.01376429   -0.02459398
     atom   10 type  1   force =     0.00508647    0.00620044    0.00934612
     atom   11 type  1   force =    -0.01108951   -0.00596235    0.02345629
     atom   12 type  1   force =     0.01633624   -0.00256861   -0.01734557
     atom   13 type  2   force =     0.00508962    0.00470806   -0.00862788
     atom   14 type  2   force =    -0.00508613   -0.00817606    0.00270112
     atom   15 type  2   force =     0.02720894   -0.02348884    0.01115961
     atom   16 type  2   force =    -0.01057673   -0.01583773   -0.01657470
     atom   17 type  2   force =     0.01206320   -0.08902852    0.04967266
     atom   18 type  2   force =     0.01300641   -0.01654307   -0.00855460
     atom   19 type  2   force =     0.01101924    0.01989041    0.02665094
     atom   20 type  2   force =    -0.03541246   -0.01630554   -0.00689855
     atom   21 type  2   force =     0.00749498   -0.01580188   -0.01542255
     atom   22 type  2   force =     0.00406460    0.01565645   -0.01397178
     atom   23 type  2   force =    -0.00928321   -0.00129130   -0.00324671
     atom   24 type  2   force =     0.00960720    0.01313145   -0.00489261
     atom   25 type  2   force =     0.00072894    0.01000517    0.02194262
     atom   26 type  2   force =     0.00614399    0.00253780    0.01477238
     atom   27 type  2   force =     0.01035655    0.01357673    0.00633704
     atom   28 type  2   force =    -0.00394491   -0.00156934    0.00157682
     atom   29 type  2   force =    -0.01234578   -0.00415975   -0.01771971
     atom   30 type  2   force =    -0.00298564   -0.00667676   -0.00661047
     atom   31 type  2   force =    -0.00243738    0.00357923   -0.00528505
     atom   32 type  2   force =    -0.00190710    0.00419410   -0.01449688
     atom   33 type  2   force =    -0.00414989   -0.01066516    0.00155025
     atom   34 type  2   force =     0.00100130   -0.00452366    0.01538959
     atom   35 type  2   force =    -0.01875790    0.03423165    0.00296026
     atom   36 type  2   force =     0.00464902    0.01310239   -0.00205211

     Total force =     0.188224     Total SCF correction =     0.001514

     General routines

     Parallel routines

   This run was terminated on:  12: 5:34   8Sep2021

   JOB DONE.