     Program PWSCF v.6.4 starts on  8Sep2021 at 11:59:12

     R & G space division:  proc/nbgrp/npool/nimage =      40
     Waiting for input...
     Reading input from standard input
Warning: card    &IONS ignored
Warning: card      ION_DYNAMICS = 'BFGS' ignored
Warning: card   / ignored
Warning: card    &CELL ignored
Warning: card      CELL_DYNAMICS = 'BFGS', ignored
Warning: card    / ignored

     Current dimensions of program PWSCF are:
     Max number of different atomic species (ntypx) = 10
     Max number of k-points (npk) =  40000
     Max angular momentum in pseudopotentials (lmaxx) =  3

     bravais-lattice index     =            0
     lattice parameter (alat)  =       6.0519  a.u.
     unit-cell volume          =    5308.9378 (a.u.)^3
     number of atoms/cell      =           24
     number of atomic types    =            2
     number of electrons       =       144.00
     number of Kohn-Sham states=           86
     kinetic-energy cutoff     =      45.0000  Ry
     charge density cutoff     =     360.0000  Ry
     convergence threshold     =      1.0E-06
     mixing beta               =       0.7000
     number of iterations used =            8  local-TF  mixing
     Exchange-correlation      = SLA PW GGX GGC ( 1  4  2  2 0 0)

     celldm(1)=   6.051898  celldm(2)=   0.000000  celldm(3)=   0.000000
     celldm(4)=   0.000000  celldm(5)=   0.000000  celldm(6)=   0.000000

     crystal axes: (cart. coord. in units of alat)
               a(1) = (   1.000000  -0.000040   0.000448 )
               a(2) = (  -0.000013   3.154291  -0.143931 )
               a(3) = (   0.200775   1.265686   7.535647 )

     reciprocal axes: (cart. coord. in units 2 pi/alat)
               b(1) = (  1.000012 -0.001203 -0.026442 )
               b(2) = (  0.000036  0.314617 -0.052844 )
               b(3) = ( -0.000059  0.006009  0.131695 )

     PseudoPot. # 1 for Mo read from file:
     ~/pseudo/Mo.pw91-n-van.UPF
     MD5 check sum: Not computed, couldn't open file
     Pseudo is Ultrasoft + core correction, Zval =  6.0
     Generated by new atomic code, or converted to UPF format
     Using radial grid of  965 points,  3 beta functions with:
                l(1) =   1
                l(2) =   2
                l(3) =   2
     Q(r) pseudized with  8 coefficients,  rinner =    1.000   1.000   1.000
                                                       1.200   1.200

     PseudoPot. # 2 for S  read from file:
     ~/pseudo/S.pw91-van_ak.UPF
     MD5 check sum: Not computed, couldn't open file
     Pseudo is Ultrasoft, Zval =  6.0
     Generated by new atomic code, or converted to UPF format
     Using radial grid of  811 points,  6 beta functions with:
                l(1) =   0
                l(2) =   0
                l(3) =   1
                l(4) =   1
                l(5) =   2
                l(6) =   2
     Q(r) pseudized with  8 coefficients,  rinner =    1.100   1.100   1.100
                                                       1.100   1.100

     atomic species   valence    mass     pseudopotential
        Mo             6.00    95.50000     Mo( 1.00)
        S              6.00    32.06500     S ( 1.00)

     No symmetry found

   Cartesian axes

     site n.     atom                  positions (alat units)
         1           Mo  tau(   1) = (   0.7866214   3.2105601   2.7644817  )
         2           Mo  tau(   2) = (   0.7869428   3.4235829   3.6754094  )
         3           Mo  tau(   3) = (   0.7949810   0.9523829   0.8151598  )
         4           Mo  tau(   4) = (   0.2954511   1.8376157   1.1833032  )
         5           Mo  tau(   5) = (   0.7882458   1.9558174   3.4472778  )
         6           Mo  tau(   6) = (   0.2881502   1.3089821   3.0798805  )
         7           Mo  tau(   7) = (   0.7959768   2.4920179   0.0928205  )
         8           Mo  tau(   8) = (   0.2953541   0.2232853   0.6010122  )
         9           S   tau(   9) = (   0.2870974   2.9668473   2.2950185  )
        10           S   tau(  10) = (   0.7949402   2.2372981   1.5569301  )
        11           S   tau(  11) = (   0.7881501   1.0657906   2.5733988  )
        12           S   tau(  12) = (   0.2868405   3.6879003   3.1240099  )
        13           S   tau(  13) = (   0.2862244   3.4477382   4.2129581  )
        14           S   tau(  14) = (   0.2951545   0.8832748   0.2480206  )
        15           S   tau(  15) = (   0.7956781   3.1786295  -0.1243332  )
        16           S   tau(  16) = (   0.2952150   1.1520834   1.3971813  )
        17           S   tau(  17) = (   0.2872435   2.0849099   3.9808799  )
        18           S   tau(  18) = (   0.7875942   2.7796100   3.3447714  )
        19           S   tau(  19) = (   0.7952700   0.2907761   1.1688419  )
        20           S   tau(  20) = (   0.2882131   2.0486801   2.8819225  )
        21           S   tau(  21) = (   0.4965397   3.3582713   7.2539897  )
        22           S   tau(  22) = (   0.7881399   1.2163984   3.6384746  )
        23           S   tau(  23) = (   0.7958944   1.7386595   0.6247555  )
        24           S   tau(  24) = (   0.2960944   2.5926025   0.6505811  )

     number of k points=     6  Marzari-Vanderbilt smearing, width (Ry)=  0.0200
                       cart. coord. in units 2pi/alat
        k(    1) = (   0.0000000   0.0000000   0.0000000), wk =   0.2000000
        k(    2) = (  -0.0000181  -0.1573086   0.0264220), wk =   0.2000000
        k(    3) = (   0.2000024  -0.0002405  -0.0052884), wk =   0.4000000
        k(    4) = (   0.1999842  -0.1575491   0.0211336), wk =   0.4000000
        k(    5) = (   0.4000048  -0.0004810  -0.0105767), wk =   0.4000000
        k(    6) = (   0.3999866  -0.1577896   0.0158453), wk =   0.4000000

     Initial potential from superposition of free atoms

     starting charge  143.98738, renormalised to  144.00000

     negative rho (up, down):  3.155E-04 0.000E+00
     Starting wfcs are  136 randomized atomic wfcs

     Self-consistent Calculation

     iteration #  1     ecut=    45.00 Ry     beta= 0.70
     Davidson diagonalization with overlap
     ethr =  1.00E-02,  avg # of iterations =  2.2

     negative rho (up, down):  8.243E-05 0.000E+00

     total energy              =    -561.98116720 Ry
     Harris-Foulkes estimate   =    -564.02021156 Ry
     estimated scf accuracy    <       5.58737367 Ry

[...]

     total energy              =    -563.03380189 Ry
     Harris-Foulkes estimate   =    -563.03380240 Ry
     estimated scf accuracy    <       0.00000125 Ry

     iteration # 16     ecut=    45.00 Ry     beta= 0.70
     Davidson diagonalization with overlap
     ethr =  8.69E-10,  avg # of iterations =  4.0

[...]

     End of self-consistent calculation

          k = 0.0000 0.0000 0.0000 ( 27153 PWs)   bands (ev):

   -12.5566 -12.2558 -11.5324 -11.5176 -11.4806 -11.1939 -11.1303 -10.8432
   -10.7620 -10.7484 -10.5218 -10.4129 -10.3193 -10.2290 -10.1084  -9.9121
    -3.9779  -3.9240  -3.7942  -3.7484  -3.2222  -3.1375  -3.0989  -3.0827
    -2.9082  -2.7642  -2.5624  -2.4168  -2.3609  -2.2974  -1.9055  -1.8420
    -1.5265  -1.4640  -1.3844  -1.2628  -1.1410  -1.1352  -1.1180  -1.1162
    -1.0763  -0.9362  -0.8356  -0.7526  -0.6247  -0.6136  -0.5465  -0.3809
    -0.2945  -0.0822   0.0943   0.2190   0.2352   0.2504   0.2867   0.4682
     0.5773   0.7185   0.8238   0.9260   0.9309   0.9434   1.1929   1.2725
     1.4084   1.5025   1.5398   1.6524   1.6950   1.6966   1.9221   2.0598
     2.0718   2.0822   2.1057   2.1670   2.2916   2.6996   2.8406   3.3097
     3.4527   3.5360   3.6955   3.8798   3.9338   3.9593

          k =-0.0000-0.1573 0.0264 ( 27146 PWs)   bands (ev):

[...]

          k = 0.4000-0.1578 0.0158 ( 27007 PWs)   bands (ev):

   -11.4645 -10.9817 -10.8004 -10.7720 -10.7313 -10.6582 -10.6119 -10.4135
   -10.3454 -10.2604  -9.9833  -9.8936  -9.8466  -9.8133  -9.5799  -9.4981
    -4.2759  -3.8322  -3.7393  -3.7343  -3.4506  -3.3310  -3.2590  -3.0774
    -3.0625  -2.9451  -2.7519  -2.6689  -2.6005  -2.5526  -2.3226  -2.2003
    -2.1147  -2.0131  -1.9446  -1.9394  -1.8577  -1.5961  -1.5940  -1.5422
    -1.4787  -1.2917  -1.2779  -1.2454  -1.2140  -1.1782  -1.0926  -1.0505
    -0.9400  -0.8447  -0.7412  -0.7227  -0.7052  -0.6266  -0.5471  -0.4366
    -0.4008  -0.2623  -0.1538  -0.0330   0.2940   0.4759   0.5311   0.7136
     0.8089   1.1182   1.1438   1.7123   1.9113   2.1704   2.3027   2.4003
     2.7174   2.7594   2.7742   2.8085   3.1692   3.2382   3.4031   3.6361
     3.7077   3.7808   3.8053   3.9056   3.9801   4.1385

     the Fermi energy is     2.1848 ev

!    total energy              =    -563.03380208 Ry
     Harris-Foulkes estimate   =    -563.03380221 Ry
     estimated scf accuracy    <       0.00000074 Ry

     The total energy is the sum of the following terms:

     one-electron contribution =   -2159.98884993 Ry
     hartree contribution      =    1138.14988981 Ry
     xc contribution           =    -222.32135401 Ry
     ewald contribution        =     681.12208131 Ry
     smearing contrib. (-TS)   =       0.00443073 Ry

     convergence has been achieved in  16 iterations

     negative rho (up, down):  4.855E-04 0.000E+00

     Forces acting on atoms (cartesian axes, Ry/au):

     atom    1 type  1   force =     0.00018434   -0.00353580    0.00523032
     atom    2 type  1   force =    -0.00022667    0.00324117    0.00208752
     atom    3 type  1   force =     0.00035821   -0.00219567   -0.00023089
     atom    4 type  1   force =    -0.00022036   -0.00999067    0.00806257
     atom    5 type  1   force =     0.00033785    0.00475656    0.00022140
     atom    6 type  1   force =    -0.00057071    0.00623082    0.00327600
     atom    7 type  1   force =    -0.00019182    0.01220664   -0.00828110
     atom    8 type  1   force =     0.00018232    0.00270210    0.00211728
     atom    9 type  2   force =     0.00006567   -0.00008471   -0.00273557
     atom   10 type  2   force =     0.00034898   -0.00484784   -0.00455843
     atom   11 type  2   force =     0.00030124   -0.00458360   -0.00814488
     atom   12 type  2   force =     0.00032104   -0.00948914   -0.00935071
     atom   13 type  2   force =     0.00064963   -0.00735270   -0.01039792
     atom   14 type  2   force =     0.00027546    0.00726615    0.00187892
     atom   15 type  2   force =     0.00017658    0.00569284   -0.00538318
     atom   16 type  2   force =    -0.00027514   -0.00843556    0.00711206
     atom   17 type  2   force =    -0.00028664    0.01168274    0.01466061
     atom   18 type  2   force =     0.00016866    0.00107254    0.00225178
     atom   19 type  2   force =    -0.00022951   -0.00440346   -0.00296793
     atom   20 type  2   force =    -0.00000991   -0.01821077   -0.01074599
     atom   21 type  2   force =     0.00038056    0.00375840    0.00414205
     atom   22 type  2   force =    -0.00050187    0.01550653    0.01193747
     atom   23 type  2   force =    -0.00055871   -0.00139448   -0.01022992
     atom   24 type  2   force =    -0.00067919    0.00040791    0.01004850

     Total force =     0.051983     Total SCF correction =     0.001723

     General routines

     Parallel routines

   This run was terminated on:  12: 0:16   8Sep2021

   JOB DONE.