     Program PWSCF v.6.4 starts on  3Aug2021 at 21:50: 0

     R & G space division:  proc/nbgrp/npool/nimage =      40
     Waiting for input...
     Reading input from standard input
Warning: card    &IONS ignored
Warning: card      ION_DYNAMICS = 'BFGS' ignored
Warning: card   / ignored
Warning: card    &CELL ignored
Warning: card      CELL_DYNAMICS = 'BFGS', ignored
Warning: card    / ignored

     Current dimensions of program PWSCF are:
     Max number of different atomic species (ntypx) = 10
     Max number of k-points (npk) =  40000
     Max angular momentum in pseudopotentials (lmaxx) =  3

     bravais-lattice index     =            0
     lattice parameter (alat)  =      12.0576  a.u.
     unit-cell volume          =    5919.5321 (a.u.)^3
     number of atoms/cell      =           24
     number of atomic types    =            2
     number of electrons       =       144.00
     number of Kohn-Sham states=           86
     kinetic-energy cutoff     =      45.0000  Ry
     charge density cutoff     =     360.0000  Ry
     convergence threshold     =      1.0E-06
     mixing beta               =       0.7000
     number of iterations used =            8  local-TF  mixing
     Exchange-correlation      = SLA PW GGX GGC ( 1  4  2  2 0 0)

     celldm(1)=  12.057643  celldm(2)=   0.000000  celldm(3)=   0.000000
     celldm(4)=   0.000000  celldm(5)=   0.000000  celldm(6)=   0.000000

     crystal axes: (cart. coord. in units of alat)
               a(1) = (   1.000000   0.000000   0.000000 )
               a(2) = (  -0.500000   0.866025   0.000000 )
               a(3) = (   0.000000   0.000000   3.899145 )

     reciprocal axes: (cart. coord. in units 2 pi/alat)
               b(1) = (  1.000000  0.577350  0.000000 )
               b(2) = (  0.000000  1.154700  0.000000 )
               b(3) = (  0.000000  0.000000  0.256466 )

     PseudoPot. # 1 for Mo read from file:
     ~/pseudo/Mo.pw91-n-van.UPF
     MD5 check sum: Not computed, couldn't open file
     Pseudo is Ultrasoft + core correction, Zval =  6.0
     Generated by new atomic code, or converted to UPF format
     Using radial grid of  965 points,  3 beta functions with:
                l(1) =   1
                l(2) =   2
                l(3) =   2
     Q(r) pseudized with  8 coefficients,  rinner =    1.000   1.000   1.000
                                                       1.200   1.200

     PseudoPot. # 2 for S  read from file:
     ~/pseudo/S.pw91-van_ak.UPF
     MD5 check sum: Not computed, couldn't open file
     Pseudo is Ultrasoft, Zval =  6.0
     Generated by new atomic code, or converted to UPF format
     Using radial grid of  811 points,  6 beta functions with:
                l(1) =   0
                l(2) =   0
                l(3) =   1
                l(4) =   1
                l(5) =   2
                l(6) =   2
     Q(r) pseudized with  8 coefficients,  rinner =    1.100   1.100   1.100
                                                       1.100   1.100

     atomic species   valence    mass     pseudopotential
        Mo             6.00    95.50000     Mo( 1.00)
        S              6.00    32.06500     S ( 1.00)

     No symmetry found

   Cartesian axes

     site n.     atom                  positions (alat units)
         1           Mo  tau(   1) = (   0.2344028   0.1256286   0.5632486  )
         2           Mo  tau(   2) = (  -0.0084269   0.5636094   0.5560942  )
         3           Mo  tau(   3) = (   0.7392385   0.1530616   0.5548597  )
         4           Mo  tau(   4) = (   0.5045961   0.6051813   0.5693092  )
         5           Mo  tau(   5) = (  -0.0148610   0.3064773   3.3372576  )
         6           Mo  tau(   6) = (  -0.2554873   0.7259775   3.2856072  )
         7           Mo  tau(   7) = (   0.4881222   0.2659357   3.2981592  )
         8           Mo  tau(   8) = (   0.2791092   0.7102774   3.3183895  )
         9           S   tau(   9) = (   0.0276104   0.3027886   0.8328121  )
        10           S   tau(  10) = (  -0.2739563   0.7305343   0.8100573  )
        11           S   tau(  11) = (   0.4923072   0.3047882   0.8024707  )
        12           S   tau(  12) = (   0.2532302   0.7102854   0.8572511  )
        13           S   tau(  13) = (   0.2298535   0.1338972   3.5830492  )
        14           S   tau(  14) = (  -0.0160137   0.5504126   3.5620758  )
        15           S   tau(  15) = (   0.7474595   0.1134538   3.5661415  )
        16           S   tau(  16) = (   0.5296005   0.5675620   3.5581824  )
        17           S   tau(  17) = (   0.0303736   0.2814975   0.3348209  )
        18           S   tau(  18) = (  -0.2414694   0.7050022   0.3125948  )
        19           S   tau(  19) = (   0.5209591   0.2670010   0.3291516  )
        20           S   tau(  20) = (   0.2674847   0.7463840   0.3458986  )
        21           S   tau(  21) = (   0.2247126   0.1284281   3.0614292  )
        22           S   tau(  22) = (   0.0187094   0.5842976   3.0950825  )
        23           S   tau(  23) = (   0.7784400   0.1396623   3.0585907  )
        24           S   tau(  24) = (   0.4957422   0.5688028   3.0410575  )

     number of k points=     5  Marzari-Vanderbilt smearing, width (Ry)=  0.0200
                       cart. coord. in units 2pi/alat
        k(    1) = (   0.0000000   0.0000000   0.0000000), wk =   0.2222222
        k(    2) = (   0.0000000   0.3849002   0.0000000), wk =   0.4444444
        k(    3) = (   0.3333333   0.5773503   0.0000000), wk =   0.4444444
        k(    4) = (  -0.3333333   0.1924500   0.0000000), wk =   0.4444444
        k(    5) = (   0.3333333   0.1924501   0.0000000), wk =   0.4444444

     Initial potential from superposition of free atoms

     starting charge  143.98738, renormalised to  144.00000

     negative rho (up, down):  7.401E-04 0.000E+00
     Starting wfcs are  136 randomized atomic wfcs

     Self-consistent Calculation

     iteration #  1     ecut=    45.00 Ry     beta= 0.70
     Davidson diagonalization with overlap
     ethr =  1.00E-02,  avg # of iterations =  2.0

     negative rho (up, down):  3.756E-05 0.000E+00

     total energy              =    -562.35636395 Ry
     Harris-Foulkes estimate   =    -563.99103762 Ry
     estimated scf accuracy    <       4.20372708 Ry

[...]

     total energy              =    -563.17365972 Ry
     Harris-Foulkes estimate   =    -563.17365577 Ry
     estimated scf accuracy    <       0.00000249 Ry

     iteration # 15     ecut=    45.00 Ry     beta= 0.70
     Davidson diagonalization with overlap
     ethr =  1.73E-09,  avg # of iterations =  2.4

[...]

     End of self-consistent calculation

          k = 0.0000 0.0000 0.0000 ( 30143 PWs)   bands (ev):

   -13.2837 -13.1269 -12.0691 -11.9605 -11.7036 -11.5632 -11.4862 -11.4771
   -11.3301 -11.3021 -11.1512 -11.0412 -10.9404 -10.8774 -10.8260 -10.5955
    -5.0105  -4.9014  -4.8717  -4.7737  -4.7218  -4.6790  -4.6604  -4.5083
    -3.9997  -3.9628  -3.9024  -3.7735  -3.7599  -3.6755  -3.2075  -3.1861
    -3.0893  -3.0625  -2.9469  -2.8718  -2.5749  -2.4178  -2.3973  -2.2403
    -2.1220  -1.9943  -1.9318  -1.6565  -1.5977  -1.5473  -1.4309  -1.2268
    -1.1684  -1.0909  -0.8870  -0.8594  -0.7924  -0.7662  -0.6279  -0.4272
    -0.4191  -0.1907  -0.1495  -0.0538   0.0965   0.1434   0.2488   0.2576
     0.3891   0.5127   0.5970   0.7429   0.7549   0.8367   1.1005   1.2880
     2.5885   2.5992   2.6543   2.7711   2.9991   3.0069   3.0725   3.1315
     3.2378   3.3073   3.4147   3.4614   3.5107   3.5310

[...]

          k =-0.3333 0.1925 0.0000 ( 30168 PWs)   bands (ev):

[...]

          k = 0.3333 0.1925 0.0000 ( 30168 PWs)   bands (ev):

   -12.9362 -12.7845 -12.1422 -11.8922 -11.8812 -11.7723 -11.5812 -11.5343
   -11.4426 -11.4211 -11.2370 -11.1169 -11.0075 -10.9937 -10.8078 -10.6829
    -4.6792  -4.4935  -4.4776  -4.4477  -4.2516  -4.2308  -4.1583  -4.0434
    -3.9584  -3.8382  -3.7082  -3.6682  -3.4130  -3.1831  -3.1547  -3.0228
    -2.9922  -2.8315  -2.8248  -2.6815  -2.6625  -2.4916  -2.3998  -2.3833
    -2.2527  -2.2102  -2.1692  -2.0589  -1.8880  -1.6973  -1.6748  -1.4483
    -1.4120  -1.3516  -1.1730  -1.0301  -0.9934  -0.9065  -0.8835  -0.7400
    -0.6632  -0.6335  -0.4646  -0.4516  -0.2200  -0.1830  -0.0849  -0.0535
     0.1632   0.1973   0.4014   0.5246   0.7681   0.8316   0.9528   1.1192
     2.3475   2.5162   2.5456   2.7000   2.7334   2.8451   2.9104   3.0660
     3.1092   3.1667   3.2489   3.3439   3.3608   3.4598

     the Fermi energy is     1.3037 ev

!    total energy              =    -563.17365854 Ry
     Harris-Foulkes estimate   =    -563.17365993 Ry
     estimated scf accuracy    <       0.00000087 Ry

     The total energy is the sum of the following terms:

     one-electron contribution =   -3377.96125388 Ry
     hartree contribution      =    1742.89884041 Ry
     xc contribution           =    -223.24422122 Ry
     ewald contribution        =    1295.12003645 Ry
     smearing contrib. (-TS)   =       0.01293970 Ry

     convergence has been achieved in  15 iterations

     negative rho (up, down):  1.043E-03 0.000E+00

     Forces acting on atoms (cartesian axes, Ry/au):

     atom    1 type  1   force =     0.17579086    0.07458668    0.08911765
     atom    2 type  1   force =     0.08249968    0.09759813    0.14781971
     atom    3 type  1   force =     0.17627293    0.00967906    0.29076916
     atom    4 type  1   force =    -0.06730218   -0.17653716    0.01101033
     atom    5 type  1   force =     0.05856084   -0.25639955   -0.14661819
     atom    6 type  1   force =     0.00858370   -0.06953334    0.17308538
     atom    7 type  1   force =     0.05392451    0.03880497    0.05474552
     atom    8 type  1   force =    -0.07164628    0.01430334    0.00394599
     atom    9 type  2   force =    -0.06827638   -0.03046058   -0.03818422
     atom   10 type  2   force =     0.09948140   -0.03163726    0.08378628
     atom   11 type  2   force =    -0.00397551   -0.02452990    0.00256691
     atom   12 type  2   force =    -0.02777121    0.03036754   -0.10090028
     atom   13 type  2   force =     0.03106410    0.00836992   -0.07434389
     atom   14 type  2   force =     0.02384842    0.20377824    0.11621861
     atom   15 type  2   force =    -0.03278856    0.04804326   -0.00323832
     atom   16 type  2   force =    -0.03061812   -0.03721182   -0.02483079
     atom   17 type  2   force =    -0.12213037    0.02120062   -0.15309344
     atom   18 type  2   force =    -0.02121658    0.01987761   -0.05596707
     atom   19 type  2   force =    -0.15169276    0.10935855   -0.13308552
     atom   20 type  2   force =    -0.07230995   -0.09973728   -0.14520676
     atom   21 type  2   force =     0.00726191    0.09742145   -0.04352448
     atom   22 type  2   force =    -0.00702120   -0.01535261   -0.10808511
     atom   23 type  2   force =    -0.05865621    0.00236297    0.03351513
     atom   24 type  2   force =     0.01811696   -0.03435285    0.02049740

     Total force =     0.800002     Total SCF correction =     0.002001

     General routines

     Parallel routines

   This run was terminated on:  21:51: 4   3Aug2021

   JOB DONE.