     Program PWSCF v.6.4 starts on 19Nov2021 at 16:59:42

     R & G space division:  proc/nbgrp/npool/nimage =      40
     Waiting for input...
     Reading input from standard input
Warning: card    &IONS ignored
Warning: card      ION_DYNAMICS = 'BFGS' ignored
Warning: card   / ignored
Warning: card    &CELL ignored
Warning: card      CELL_DYNAMICS = 'BFGS', ignored
Warning: card    / ignored

     Current dimensions of program PWSCF are:
     Max number of different atomic species (ntypx) = 10
     Max number of k-points (npk) =  40000
     Max angular momentum in pseudopotentials (lmaxx) =  3

     bravais-lattice index     =            0
     lattice parameter (alat)  =      12.0961  a.u.
     unit-cell volume          =    6886.4860 (a.u.)^3
     number of atoms/cell      =           36
     number of atomic types    =            2
     number of electrons       =       216.00
     number of Kohn-Sham states=          130
     kinetic-energy cutoff     =      45.0000  Ry
     charge density cutoff     =     360.0000  Ry
     convergence threshold     =      1.0E-06
     mixing beta               =       0.7000
     number of iterations used =            8  local-TF  mixing
     Exchange-correlation      = SLA PW GGX GGC ( 1  4  2  2 0 0)

     celldm(1)=  12.096065  celldm(2)=   0.000000  celldm(3)=   0.000000
     celldm(4)=   0.000000  celldm(5)=   0.000000  celldm(6)=   0.000000

     crystal axes: (cart. coord. in units of alat)
               a(1) = (   1.000000   0.000000   0.000000 )
               a(2) = (   0.004259   1.722272   0.000000 )
               a(3) = (   0.284719   0.490844   2.259246 )

     reciprocal axes: (cart. coord. in units 2 pi/alat)
               b(1) = (  1.000000 -0.002473 -0.125487 )
               b(2) = (  0.000000  0.580628 -0.126147 )
               b(3) = (  0.000000  0.000000  0.442626 )

     PseudoPot. # 1 for Mo read from file:
     ~/pseudo/Mo.pw91-n-van.UPF
     MD5 check sum: Not computed, couldn't open file
     Pseudo is Ultrasoft + core correction, Zval =  6.0
     Generated by new atomic code, or converted to UPF format
     Using radial grid of  965 points,  3 beta functions with:
                l(1) =   1
                l(2) =   2
                l(3) =   2
     Q(r) pseudized with  8 coefficients,  rinner =    1.000   1.000   1.000
                                                       1.200   1.200

     PseudoPot. # 2 for S  read from file:
     ~/pseudo/S.pw91-van_ak.UPF
     MD5 check sum: Not computed, couldn't open file
     Pseudo is Ultrasoft, Zval =  6.0
     Generated by new atomic code, or converted to UPF format
     Using radial grid of  811 points,  6 beta functions with:
                l(1) =   0
                l(2) =   0
                l(3) =   1
                l(4) =   1
                l(5) =   2
                l(6) =   2
     Q(r) pseudized with  8 coefficients,  rinner =    1.100   1.100   1.100
                                                       1.100   1.100

     atomic species   valence    mass     pseudopotential
        Mo             6.00    95.50000     Mo( 1.00)
        S              6.00    32.06500     S ( 1.00)

     No symmetry found

   Cartesian axes

     site n.     atom                  positions (alat units)
         1           Mo  tau(   1) = (   0.8678248   1.1879111   1.4759544  )
         2           Mo  tau(   2) = (   1.1163130   0.7561630   1.4826485  )
         3           Mo  tau(   3) = (   0.3684284   1.1882527   1.4752342  )
         4           Mo  tau(   4) = (   0.6165319   0.7578464   1.4833623  )
         5           Mo  tau(   5) = (   0.3633259   0.3259854   1.4799563  )
         6           Mo  tau(   6) = (   0.8654435   0.3260797   1.4802724  )
         7           Mo  tau(   7) = (   0.6179176   1.6178501   1.4720362  )
         8           Mo  tau(   8) = (   1.1181670   1.6188381   1.4714057  )
         9           Mo  tau(   9) = (   0.3567025   0.2514996   0.3789087  )
        10           Mo  tau(  10) = (   0.8092516   0.2455997   0.3755423  )
        11           Mo  tau(  11) = (   0.8428084   0.6470285   0.5412183  )
        12           Mo  tau(  12) = (   0.3132252   0.6524562   0.5388217  )
        13           S   tau(  13) = (   1.1185530   1.0434117   1.7263340  )
        14           S   tau(  14) = (   0.8681891   1.4752614   1.7208590  )
        15           S   tau(  15) = (   0.6175188   1.0454860   1.7274825  )
        16           S   tau(  16) = (   0.3678708   1.4749917   1.7209342  )
        17           S   tau(  17) = (   0.5790346   0.8050389   0.7270938  )
        18           S   tau(  18) = (   1.0816936   0.6144142   0.8180078  )
        19           S   tau(  19) = (   1.1178585   1.0443143   1.2319515  )
        20           S   tau(  20) = (   0.8679418   1.4752650   1.2233435  )
        21           S   tau(  21) = (   0.6185870   1.0448484   1.2291761  )
        22           S   tau(  22) = (   0.3681566   1.4759032   1.2226253  )
        23           S   tau(  23) = (   0.5794298   0.5769775   0.2606117  )
        24           S   tau(  24) = (   0.0735120   0.8662013   0.3717639  )
        25           S   tau(  25) = (   0.3659702   0.6119160   1.7323877  )
        26           S   tau(  26) = (   0.8663564   0.6116764   1.7329328  )
        27           S   tau(  27) = (   0.3674554   0.6163713   1.2372543  )
        28           S   tau(  28) = (   0.8644267   0.6166066   1.2374027  )
        29           S   tau(  29) = (   0.6182556   1.9095812   1.2295487  )
        30           S   tau(  30) = (   1.1183035   1.9100067   1.2268041  )
        31           S   tau(  31) = (   0.0801586   0.3385399   0.6492767  )
        32           S   tau(  32) = (   0.5855959   1.7738231   0.5710156  )
        33           S   tau(  33) = (   0.6183852   1.9021588   1.7244609  )
        34           S   tau(  34) = (   1.1182254   1.9010568   1.7265795  )
        35           S   tau(  35) = (   0.0910960   1.7609656   0.2550501  )
        36           S   tau(  36) = (   0.5819586   0.2996566   0.0923628  )

     number of k points=     4  Marzari-Vanderbilt smearing, width (Ry)=  0.0200
                       cart. coord. in units 2pi/alat
        k(    1) = (   0.0000000   0.0000000   0.0000000), wk =   0.3333333
        k(    2) = (   0.0000000  -0.2903142   0.0630737), wk =   0.3333333
        k(    3) = (   0.3333333  -0.0008242  -0.0418289), wk =   0.6666667
        k(    4) = (   0.3333333  -0.2911384   0.0212447), wk =   0.6666667

     Initial potential from superposition of free atoms

     starting charge  215.98107, renormalised to  216.00000
     Starting wfcs are  204 randomized atomic wfcs

     Self-consistent Calculation

     iteration #  1     ecut=    45.00 Ry     beta= 0.70
     Davidson diagonalization with overlap
     ethr =  1.00E-02,  avg # of iterations =  2.2

     total energy              =    -843.78551727 Ry
     Harris-Foulkes estimate   =    -846.01489549 Ry
     estimated scf accuracy    <       5.76726639 Ry

[...]

     negative rho (up, down):  1.672E-08 0.000E+00

[...]

     total energy              =    -844.85834812 Ry
     Harris-Foulkes estimate   =    -844.85835066 Ry
     estimated scf accuracy    <       0.00001036 Ry

     iteration # 17     ecut=    45.00 Ry     beta= 0.70
     Davidson diagonalization with overlap
     ethr =  4.80E-09,  avg # of iterations =  5.5

[...]

     End of self-consistent calculation

          k = 0.0000 0.0000 0.0000 ( 35049 PWs)   bands (ev):

   -12.7991 -12.4602 -11.1149 -10.3276 -10.3106  -9.9414  -9.5606  -9.5422
    -9.3748  -9.3384  -9.3092  -9.2963  -9.2837  -9.1110  -9.0872  -9.0767
    -9.0635  -9.0521  -9.0495  -8.9420  -8.6557  -8.5502  -8.4818  -8.1638
    -3.0189  -2.8513  -2.7562  -2.7417  -2.7348  -2.5675  -2.5127  -2.1454
    -2.0757  -2.0341  -1.9640  -1.8773  -1.8607  -1.8378  -1.8252  -1.8182
    -1.7508  -1.6547  -1.5363  -1.1219  -1.0967  -1.0893  -0.8422  -0.7965
    -0.7674  -0.7493  -0.6421  -0.5948  -0.5277  -0.5179  -0.4778  -0.3277
    -0.2619  -0.1806  -0.1496  -0.1295  -0.1008  -0.0568   0.0688   0.0745
     0.0833   0.2177   0.2780   0.2875   0.3822   0.4518   0.4866   0.5202
     0.5331   0.7376   0.7640   0.8319   0.9740   1.0463   1.0925   1.1063
     1.2236   1.2383   1.2398   1.2751   1.2992   1.5161   1.5640   1.5908
     1.6003   1.8237   1.8916   2.0362   2.0806   2.1066   2.1770   2.1941
     2.2557   2.2720   2.3054   2.4697   2.4709   2.6754   2.9724   3.0262
     3.1559   3.3246   3.6711   3.7180   3.9304   4.1124   4.4937   4.8305
     4.9888   5.0146   5.0300   5.0369   5.0515   5.0572   5.0682   5.1707
     5.1814   5.1914   5.3334   5.3493   5.3935   5.4690   5.5527   5.5676
     5.5753   5.5842

[...]

          k = 0.3333-0.2911 0.0212 ( 35111 PWs)   bands (ev):

   -12.7379 -12.5114 -10.6460 -10.6125  -9.9805  -9.9452  -9.7229  -9.6913
    -9.4894  -9.4592  -9.4003  -9.3715  -9.2254  -9.1955  -9.1444  -9.1202
    -9.0077  -8.9905  -8.9558  -8.8811  -8.7109  -8.6133  -8.4476  -8.2701
    -2.8911  -2.7598  -2.4918  -2.2062  -2.1927  -2.1856  -2.1695  -2.1526
    -2.1075  -2.0803  -2.0643  -2.0446  -2.0368  -1.8441  -1.7721  -1.7071
    -1.6311  -1.6189  -1.0698  -1.0301  -0.9704  -0.9103  -0.8584  -0.8280
    -0.8147  -0.7550  -0.6104  -0.5131  -0.4919  -0.4355  -0.4055  -0.3056
    -0.2722  -0.2147  -0.1950  -0.1785  -0.1322  -0.0497  -0.0276   0.0705
     0.1801   0.1954   0.2029   0.2118   0.2248   0.3040   0.3747   0.4271
     0.6477   0.6680   0.7009   0.7868   0.8078   0.8714   0.8848   0.9403
     0.9655   1.0377   1.0806   1.1696   1.3009   1.3539   1.3857   1.4079
     1.4374   1.4869   1.5029   1.5202   1.8648   1.8919   2.0076   2.0235
     2.3255   2.3404   2.4461   2.4560   2.5895   2.6019   2.6454   2.8494
     3.0823   3.2559   3.4508   3.9276   4.2504   4.5064   4.6450   4.7404
     4.8981   4.9577   4.9826   4.9858   4.9927   5.0186   5.0334   5.0474
     5.0890   5.1504   5.1752   5.2325   5.2921   5.3798   5.3962   5.4129
     5.4374   5.4605

     the Fermi energy is     3.9792 ev

!    total energy              =    -844.85834874 Ry
     Harris-Foulkes estimate   =    -844.85834926 Ry
     estimated scf accuracy    <       0.00000065 Ry

     The total energy is the sum of the following terms:

     one-electron contribution =    -961.76759857 Ry
     hartree contribution      =     577.79256107 Ry
     xc contribution           =    -334.19541164 Ry
     ewald contribution        =    -126.68607211 Ry
     smearing contrib. (-TS)   =      -0.00182749 Ry

     convergence has been achieved in  17 iterations

     negative rho (up, down):  3.102E-07 0.000E+00

     Forces acting on atoms (cartesian axes, Ry/au):

     atom    1 type  1   force =    -0.00091871    0.00066073    0.00723178
     atom    2 type  1   force =     0.00099427    0.00178110    0.00273051
     atom    3 type  1   force =     0.00077084   -0.00029725    0.00717655
     atom    4 type  1   force =    -0.00162109    0.00215343    0.00829623
     atom    5 type  1   force =     0.00409042    0.00179567    0.00107364
     atom    6 type  1   force =    -0.00345094    0.00165547   -0.00157870
     atom    7 type  1   force =     0.00009841    0.00005432    0.00538559
     atom    8 type  1   force =     0.00099605   -0.00273080    0.00715103
     atom    9 type  1   force =    -0.01586918    0.03600635    0.04319813
     atom   10 type  1   force =     0.01261663    0.03900947    0.04221559
     atom   11 type  1   force =     0.00472733   -0.05372634   -0.05542772
     atom   12 type  1   force =    -0.00463187   -0.05025635   -0.05583336
     atom   13 type  2   force =    -0.00133034    0.01099421   -0.00142032
     atom   14 type  2   force =     0.00094129    0.00347528   -0.00066034
     atom   15 type  2   force =     0.00060651    0.00804010   -0.00339526
     atom   16 type  2   force =    -0.00092682    0.00371182   -0.00123889
     atom   17 type  2   force =    -0.00165672    0.02418754    0.03394438
     atom   18 type  2   force =     0.00249071    0.02036960    0.10407169
     atom   19 type  2   force =    -0.00050737   -0.00822893   -0.00780019
     atom   20 type  2   force =     0.00006895   -0.00344405    0.00426735
     atom   21 type  2   force =    -0.00105078   -0.00610572    0.00372063
     atom   22 type  2   force =    -0.00007951   -0.00416811    0.00502984
     atom   23 type  2   force =     0.00248134    0.04878334   -0.00599628
     atom   24 type  2   force =     0.00214784    0.02039595   -0.03360420
     atom   25 type  2   force =    -0.00025469    0.00012464   -0.00613958
     atom   26 type  2   force =    -0.00045979    0.00123622   -0.00727604
     atom   27 type  2   force =     0.00078312   -0.00322797   -0.00505271
     atom   28 type  2   force =    -0.00429367   -0.00320809    0.00297057
     atom   29 type  2   force =     0.00069991   -0.00173586    0.00038138
     atom   30 type  2   force =     0.00043146   -0.00342090    0.00624098
     atom   31 type  2   force =     0.00246772   -0.03796713   -0.01213231
     atom   32 type  2   force =     0.00194087   -0.01382794    0.02727875
     atom   33 type  2   force =     0.00014397   -0.00086894    0.00169425
     atom   34 type  2   force =     0.00074904    0.00117959   -0.00296281
     atom   35 type  2   force =    -0.00450280   -0.00572168   -0.01294653
     atom   36 type  2   force =     0.00130758   -0.02667873   -0.10059362

     Total force =     0.223862     Total SCF correction =     0.001349

     General routines

     Parallel routines

   This run was terminated on:  17: 1:30  19Nov2021

   JOB DONE.