     Program PWSCF v.6.4 starts on  6Oct2021 at 12:34:53

     R & G space division:  proc/nbgrp/npool/nimage =      40
     Waiting for input...
     Reading input from standard input
Warning: card    &IONS ignored
Warning: card      ION_DYNAMICS = 'BFGS' ignored
Warning: card   / ignored
Warning: card    &CELL ignored
Warning: card      CELL_DYNAMICS = 'BFGS', ignored
Warning: card    / ignored

     Current dimensions of program PWSCF are:
     Max number of different atomic species (ntypx) = 10
     Max number of k-points (npk) =  40000
     Max angular momentum in pseudopotentials (lmaxx) =  3

     bravais-lattice index     =            0
     lattice parameter (alat)  =       6.0528  a.u.
     unit-cell volume          =    2506.8024 (a.u.)^3
     number of atoms/cell      =           12
     number of atomic types    =            2
     number of electrons       =        72.00
     number of Kohn-Sham states=           43
     kinetic-energy cutoff     =      45.0000  Ry
     charge density cutoff     =     360.0000  Ry
     convergence threshold     =      1.0E-06
     mixing beta               =       0.7000
     number of iterations used =            8  local-TF  mixing
     Exchange-correlation      = SLA PW GGX GGC ( 1  4  2  2 0 0)

     celldm(1)=   6.052810  celldm(2)=   0.000000  celldm(3)=   0.000000
     celldm(4)=   0.000000  celldm(5)=   0.000000  celldm(6)=   0.000000

     crystal axes: (cart. coord. in units of alat)
               a(1) = (   1.000000   0.000000   0.000000 )
               a(2) = (  -0.014536   2.232424   0.000000 )
               a(3) = (  -0.196970  -0.019907   5.063750 )

     reciprocal axes: (cart. coord. in units 2 pi/alat)
               b(1) = (  1.000000  0.006511  0.038924 )
               b(2) = (  0.000000  0.447944  0.001761 )
               b(3) = (  0.000000  0.000000  0.197482 )

     PseudoPot. # 1 for Mo read from file:
     ~/pseudo/Mo.pw91-n-van.UPF
     MD5 check sum: Not computed, couldn't open file
     Pseudo is Ultrasoft + core correction, Zval =  6.0
     Generated by new atomic code, or converted to UPF format
     Using radial grid of  965 points,  3 beta functions with:
                l(1) =   1
                l(2) =   2
                l(3) =   2
     Q(r) pseudized with  8 coefficients,  rinner =    1.000   1.000   1.000
                                                       1.200   1.200

     PseudoPot. # 2 for S  read from file:
     ~/pseudo/S.pw91-van_ak.UPF
     MD5 check sum: Not computed, couldn't open file
     Pseudo is Ultrasoft, Zval =  6.0
     Generated by new atomic code, or converted to UPF format
     Using radial grid of  811 points,  6 beta functions with:
                l(1) =   0
                l(2) =   0
                l(3) =   1
                l(4) =   1
                l(5) =   2
                l(6) =   2
     Q(r) pseudized with  8 coefficients,  rinner =    1.100   1.100   1.100
                                                       1.100   1.100

     atomic species   valence    mass     pseudopotential
        Mo             6.00    95.50000     Mo( 1.00)
        S              6.00    32.06500     S ( 1.00)

     No symmetry found

   Cartesian axes

     site n.     atom                  positions (alat units)
         1           Mo  tau(   1) = (   0.5914582   0.3850718   2.1098175  )
         2           Mo  tau(   2) = (   0.0685141   1.9399286   1.9257514  )
         3           Mo  tau(   3) = (   0.6785738   2.0016616   4.6793770  )
         4           Mo  tau(   4) = (   0.1791411   0.5297160   4.3427579  )
         5           S   tau(   5) = (   0.1758583   2.0556710   4.1088924  )
         6           S   tau(   6) = (   0.0914368   0.0619342   2.5773616  )
         7           S   tau(   7) = (   0.5684363   1.4559271   2.2159473  )
         8           S   tau(   8) = (   0.5852763   0.0292240   1.4597420  )
         9           S   tau(   9) = (   0.1790241   1.5117700   4.9277604  )
        10           S   tau(  10) = (   0.0911923   0.8625971   1.8055688  )
        11           S   tau(  11) = (   0.6817446   0.4802682   4.9153546  )
        12           S   tau(  12) = (   0.6787312   0.9916583   4.0489898  )

     number of k points=     6  Marzari-Vanderbilt smearing, width (Ry)=  0.0200
                       cart. coord. in units 2pi/alat
        k(    1) = (   0.0000000   0.0000000   0.0000000), wk =   0.2000000
        k(    2) = (   0.0000000  -0.2239718  -0.0008805), wk =   0.2000000
        k(    3) = (   0.2000000   0.0013023   0.0077847), wk =   0.4000000
        k(    4) = (   0.2000000  -0.2226695   0.0069042), wk =   0.4000000
        k(    5) = (   0.4000000   0.0026046   0.0155695), wk =   0.4000000
        k(    6) = (   0.4000000  -0.2213672   0.0146890), wk =   0.4000000

     Initial potential from superposition of free atoms

     starting charge   71.99369, renormalised to   72.00000
     Starting wfcs are   68 randomized atomic wfcs

     Self-consistent Calculation

     iteration #  1     ecut=    45.00 Ry     beta= 0.70
     Davidson diagonalization with overlap
     ethr =  1.00E-02,  avg # of iterations =  2.2

     total energy              =    -280.84931889 Ry
     Harris-Foulkes estimate   =    -281.93908092 Ry
     estimated scf accuracy    <       3.30965322 Ry

[...]

     total energy              =    -281.43913619 Ry
     Harris-Foulkes estimate   =    -281.43913674 Ry
     estimated scf accuracy    <       0.00000328 Ry

     iteration # 12     ecut=    45.00 Ry     beta= 0.70
     Davidson diagonalization with overlap
     ethr =  4.56E-09,  avg # of iterations =  4.0

     End of self-consistent calculation

          k = 0.0000 0.0000 0.0000 ( 12851 PWs)   bands (ev):

   -11.3297 -11.1027 -10.5153 -10.4507 -10.1933  -9.6766  -9.6477  -9.3148
    -2.7202  -2.5838  -2.5215  -2.4800  -1.9520  -1.6568  -1.4359  -1.3555
    -0.7892  -0.7778  -0.7105  -0.7043  -0.6180  -0.4501  -0.0091   0.1308
     0.7605   0.8522   0.9038   1.0086   1.0644   1.5426   1.8188   2.0359
     2.1938   2.1952   2.2696   2.3446   2.5927   2.8034   3.1801   3.4800
     3.9622   4.4404   4.6408

[...]

          k = 0.4000-0.2214 0.0147 ( 12735 PWs)   bands (ev):

   -10.0760 -10.0697  -9.9910  -9.9552  -9.6172  -9.3313  -9.1909  -9.1712
    -3.0710  -2.8791  -2.7383  -2.3849  -2.0275  -1.9093  -1.5973  -1.5226
    -1.2586  -1.1118  -1.0367  -0.9910  -0.8767  -0.7636  -0.6888  -0.3915
    -0.2218  -0.0945  -0.0493   0.1138   0.3547   0.7854   0.9640   1.4542
     1.9001   2.1480   2.3021   2.3219   3.5661   3.7391   3.8153   4.1215
     4.2855   4.6678   4.7141

     the Fermi energy is     2.7288 ev

!    total energy              =    -281.43913654 Ry
     Harris-Foulkes estimate   =    -281.43913707 Ry
     estimated scf accuracy    <       0.00000061 Ry

     The total energy is the sum of the following terms:

     one-electron contribution =    -199.85401008 Ry
     hartree contribution      =     130.73959483 Ry
     xc contribution           =    -111.05803463 Ry
     ewald contribution        =    -101.26593329 Ry
     smearing contrib. (-TS)   =      -0.00075337 Ry

     convergence has been achieved in  12 iterations

     Forces acting on atoms (cartesian axes, Ry/au):

     atom    1 type  1   force =    -0.00116876    0.01658466   -0.01681083
     atom    2 type  1   force =     0.00306162   -0.01664673    0.01700703
     atom    3 type  1   force =    -0.00116876    0.00883682   -0.02870267
     atom    4 type  1   force =     0.00060421   -0.00823385    0.02930679
     atom    5 type  2   force =     0.00078002   -0.00045489   -0.00748081
     atom    6 type  2   force =    -0.00002274    0.01454420    0.01353054
     atom    7 type  2   force =    -0.00002165    0.00559251   -0.00045281
     atom    8 type  2   force =    -0.00210092   -0.01306288   -0.01705242
     atom    9 type  2   force =    -0.00201145    0.00385909    0.01103290
     atom   10 type  2   force =     0.00038947   -0.00696755    0.00366293
     atom   11 type  2   force =    -0.00069202   -0.00187757    0.00619808
     atom   12 type  2   force =     0.00235099   -0.00217383   -0.01023872

     Total force =     0.065376     Total SCF correction =     0.001462

     General routines

     Parallel routines

   This run was terminated on:  12:35: 9   6Oct2021

   JOB DONE.