     Program PWSCF v.6.4 starts on 23Dec2021 at 23:52: 3

     R & G space division:  proc/nbgrp/npool/nimage =      40
     Waiting for input...
     Reading input from standard input
Warning: card    &IONS ignored
Warning: card      ION_DYNAMICS = 'BFGS' ignored
Warning: card   / ignored
Warning: card    &CELL ignored
Warning: card      CELL_DYNAMICS = 'BFGS', ignored
Warning: card    / ignored

     Current dimensions of program PWSCF are:
     Max number of different atomic species (ntypx) = 10
     Max number of k-points (npk) =  40000
     Max angular momentum in pseudopotentials (lmaxx) =  3

     bravais-lattice index     =            0
     lattice parameter (alat)  =       6.1198  a.u.
     unit-cell volume          =    3456.3940 (a.u.)^3
     number of atoms/cell      =           18
     number of atomic types    =            2
     number of electrons       =       108.00
     number of Kohn-Sham states=           65
     kinetic-energy cutoff     =      45.0000  Ry
     charge density cutoff     =     360.0000  Ry
     convergence threshold     =      1.0E-06
     mixing beta               =       0.7000
     number of iterations used =            8  local-TF  mixing
     Exchange-correlation      = SLA PW GGX GGC ( 1  4  2  2 0 0)

     celldm(1)=   6.119777  celldm(2)=   0.000000  celldm(3)=   0.000000
     celldm(4)=   0.000000  celldm(5)=   0.000000  celldm(6)=   0.000000

     crystal axes: (cart. coord. in units of alat)
               a(1) = (   1.000000   0.000000   0.000000 )
               a(2) = (   0.008238   3.460953   0.000000 )
               a(3) = (  -0.684892  -1.466799   4.357332 )

     reciprocal axes: (cart. coord. in units 2 pi/alat)
               b(1) = (  1.000000 -0.002380  0.156380 )
               b(2) = (  0.000000  0.288938  0.097264 )
               b(3) = (  0.000000  0.000000  0.229498 )

     PseudoPot. # 1 for Mo read from file:
     ~/pseudo/Mo.pw91-n-van.UPF
     MD5 check sum: Not computed, couldn't open file
     Pseudo is Ultrasoft + core correction, Zval =  6.0
     Generated by new atomic code, or converted to UPF format
     Using radial grid of  965 points,  3 beta functions with:
                l(1) =   1
                l(2) =   2
                l(3) =   2
     Q(r) pseudized with  8 coefficients,  rinner =    1.000   1.000   1.000
                                                       1.200   1.200

     PseudoPot. # 2 for S  read from file:
     ~/pseudo/S.pw91-van_ak.UPF
     MD5 check sum: Not computed, couldn't open file
     Pseudo is Ultrasoft, Zval =  6.0
     Generated by new atomic code, or converted to UPF format
     Using radial grid of  811 points,  6 beta functions with:
                l(1) =   0
                l(2) =   0
                l(3) =   1
                l(4) =   1
                l(5) =   2
                l(6) =   2
     Q(r) pseudized with  8 coefficients,  rinner =    1.100   1.100   1.100
                                                       1.100   1.100

     atomic species   valence    mass     pseudopotential
        Mo             6.00    95.50000     Mo( 1.00)
        S              6.00    32.06500     S ( 1.00)

     No symmetry found

   Cartesian axes

     site n.     atom                  positions (alat units)
         1           Mo  tau(   1) = (   0.1917300   0.9045841   3.7131682  )
         2           Mo  tau(   2) = (   0.1897866  -0.8319415   3.6964422  )
         3           Mo  tau(   3) = (  -0.3191268   0.0360480   3.6874113  )
         4           Mo  tau(   4) = (  -0.2933618   1.7674684   3.7235307  )
         5           Mo  tau(   5) = (   0.1036449   1.1029999   1.4257779  )
         6           Mo  tau(   6) = (   0.6078469   1.7216776   1.6779290  )
         7           S   tau(   7) = (  -0.3130185  -0.5357611   4.1750693  )
         8           S   tau(   8) = (  -0.3064771   1.1859513   4.2012949  )
         9           S   tau(   9) = (   0.1792650   0.3153926   4.1770769  )
        10           S   tau(  10) = (   0.2013875  -1.3977524   4.1991584  )
        11           S   tau(  11) = (   0.0813618   0.5968268   0.8993754  )
        12           S   tau(  12) = (   0.6036209   1.0495505   1.9481699  )
        13           S   tau(  13) = (  -0.3141930  -0.5437881   3.2097202  )
        14           S   tau(  14) = (  -0.3068279   1.1947112   3.2335433  )
        15           S   tau(  15) = (   0.1798592   0.3345140   3.2142968  )
        16           S   tau(  16) = (   0.2063687   2.0419969   3.2294277  )
        17           S   tau(  17) = (   0.6186952   2.2161981   2.2137712  )
        18           S   tau(  18) = (   0.1080330   1.7750999   1.1559209  )

     number of k points=    12  Marzari-Vanderbilt smearing, width (Ry)=  0.0200
                       cart. coord. in units 2pi/alat
        k(    1) = (   0.0000000   0.0000000   0.0000000), wk =   0.1000000
        k(    2) = (   0.0000000   0.0000000  -0.1147491), wk =   0.1000000
        k(    3) = (   0.0000000  -0.1444689  -0.0486322), wk =   0.1000000
        k(    4) = (   0.0000000  -0.1444689  -0.1633813), wk =   0.1000000
        k(    5) = (   0.2000000  -0.0004761   0.0312760), wk =   0.2000000
        k(    6) = (   0.2000000  -0.0004761  -0.0834731), wk =   0.2000000
        k(    7) = (   0.2000000  -0.1449450  -0.0173562), wk =   0.2000000
        k(    8) = (   0.2000000  -0.1449450  -0.1321053), wk =   0.2000000
        k(    9) = (   0.4000000  -0.0009521   0.0625521), wk =   0.2000000
        k(   10) = (   0.4000000  -0.0009521  -0.0521971), wk =   0.2000000
        k(   11) = (   0.4000000  -0.1454210   0.0139198), wk =   0.2000000
        k(   12) = (   0.4000000  -0.1454210  -0.1008293), wk =   0.2000000

     Initial potential from superposition of free atoms

     starting charge  107.99054, renormalised to  108.00000
     Starting wfcs are  102 randomized atomic wfcs

     Self-consistent Calculation

     iteration #  1     ecut=    45.00 Ry     beta= 0.70
     Davidson diagonalization with overlap
     ethr =  1.00E-02,  avg # of iterations =  2.3

     total energy              =    -421.70573874 Ry
     Harris-Foulkes estimate   =    -423.10265807 Ry
     estimated scf accuracy    <       3.83153363 Ry

[...]

     iteration #  6     ecut=    45.00 Ry     beta= 0.70
     Davidson diagonalization with overlap
     c_bands:  1 eigenvalues not converged
     c_bands:  1 eigenvalues not converged
     ethr =  1.14E-05,  avg # of iterations =  5.6

[...]

     iteration #  8     ecut=    45.00 Ry     beta= 0.70
     Davidson diagonalization with overlap
     c_bands:  2 eigenvalues not converged
     c_bands:  1 eigenvalues not converged
     ethr =  5.18E-06,  avg # of iterations =  6.1

[...]

     total energy              =    -422.45489234 Ry
     Harris-Foulkes estimate   =    -422.45489269 Ry
     estimated scf accuracy    <       0.00000220 Ry

     iteration # 14     ecut=    45.00 Ry     beta= 0.70
     Davidson diagonalization with overlap
     ethr =  1.87E-09,  avg # of iterations =  1.0

     End of self-consistent calculation

          k = 0.0000 0.0000 0.0000 ( 17671 PWs)   bands (ev):

   -11.0357 -10.3788 -10.3021 -10.2820 -10.0897  -9.8070  -9.4687  -9.4588
    -9.3518  -9.0438  -8.6977  -8.6746  -2.6514  -2.5206  -2.0353  -1.9349
    -1.9127  -1.7934  -1.6878  -1.5712  -1.0543  -0.8470  -0.8422  -0.5251
    -0.4967  -0.2924  -0.2190  -0.2017  -0.0351   0.2462   0.2717   0.2904
     0.4323   0.4564   0.5529   0.9601   1.0766   1.0857   1.0878   1.2933
     1.3679   1.4115   1.4993   1.7128   1.8144   1.9058   2.2495   2.2540
     2.2929   2.3251   2.5786   2.6806   3.0878   3.4200   3.8428   3.8828
     4.6677   4.8749   4.9366   5.0963   5.1185   5.1369   5.1424   5.4060
     5.5781

[...]

          k = 0.4000-0.1454-0.1008 ( 17571 PWs)   bands (ev):

    -9.7350  -9.6971  -9.6762  -9.6666  -9.2603  -9.2384  -9.2011  -9.1753
    -8.9800  -8.9612  -8.0672  -8.0398  -2.2639  -2.2486  -2.2319  -2.2181
    -2.1351  -1.9987  -1.9828  -1.9127  -1.3175  -1.3042  -1.0661  -0.9572
    -0.9355  -0.9054  -0.8958  -0.8693  -0.3937  -0.1843  -0.1526  -0.0754
    -0.0595   0.0610   0.2278   0.4563   0.5096   0.5270   0.5579   0.7521
     1.0891   1.1196   1.3291   1.3533   1.3857   1.4102   1.7525   1.8823
     2.1020   2.1391   2.2932   2.4173   2.5852   2.6182   3.2227   4.2353
     4.7186   4.7834   4.8119   4.9235   4.9388   5.1082   5.2154   5.2377
     5.5128

     the Fermi energy is     3.0110 ev

!    total energy              =    -422.45489251 Ry
     Harris-Foulkes estimate   =    -422.45489250 Ry
     estimated scf accuracy    <       0.00000007 Ry

     The total energy is the sum of the following terms:

     one-electron contribution =    -428.88290742 Ry
     hartree contribution      =     262.79792384 Ry
     xc contribution           =    -166.69802463 Ry
     ewald contribution        =     -89.68091713 Ry
     smearing contrib. (-TS)   =       0.00903284 Ry

     convergence has been achieved in  14 iterations

     Forces acting on atoms (cartesian axes, Ry/au):

     atom    1 type  1   force =    -0.00249849   -0.00615408   -0.00424085
     atom    2 type  1   force =    -0.00215802    0.00524241    0.00316200
     atom    3 type  1   force =     0.00143729    0.00100802    0.01290086
     atom    4 type  1   force =    -0.00556203   -0.00154157   -0.01589098
     atom    5 type  1   force =     0.00090263   -0.09319544   -0.08567565
     atom    6 type  1   force =    -0.00087553    0.08868723    0.08714370
     atom    7 type  2   force =     0.00149953   -0.00397331    0.00129263
     atom    8 type  2   force =     0.00149565    0.00016900    0.00296480
     atom    9 type  2   force =     0.00359793    0.00019027    0.00331302
     atom   10 type  2   force =    -0.00480530    0.00300726    0.00217745
     atom   11 type  2   force =    -0.00050538    0.05238298    0.05546491
     atom   12 type  2   force =    -0.00054728   -0.03900874    0.05421591
     atom   13 type  2   force =     0.00270028   -0.00395211   -0.00239975
     atom   14 type  2   force =     0.00200050    0.00117762   -0.00071272
     atom   15 type  2   force =     0.00293601    0.00205522   -0.00569854
     atom   16 type  2   force =    -0.00101536    0.00242022    0.00343697
     atom   17 type  2   force =     0.00107632   -0.04876274   -0.05530270
     atom   18 type  2   force =     0.00032126    0.04024778   -0.05615106

     Total force =     0.229627     Total SCF correction =     0.000467

     General routines

     Parallel routines

   This run was terminated on:  23:53: 4  23Dec2021

   JOB DONE.