     Program PWSCF v.6.4 starts on 14Oct2021 at 10:23: 7

     R & G space division:  proc/nbgrp/npool/nimage =      40
     Waiting for input...
     Reading input from standard input
Warning: card    &IONS ignored
Warning: card      ION_DYNAMICS = 'BFGS' ignored
Warning: card   / ignored
Warning: card    &CELL ignored
Warning: card      CELL_DYNAMICS = 'BFGS', ignored
Warning: card    / ignored

     Current dimensions of program PWSCF are:
     Max number of different atomic species (ntypx) = 10
     Max number of k-points (npk) =  40000
     Max angular momentum in pseudopotentials (lmaxx) =  3

     bravais-lattice index     =            0
     lattice parameter (alat)  =      12.0020  a.u.
     unit-cell volume          =    3927.2134 (a.u.)^3
     number of atoms/cell      =           12
     number of atomic types    =            2
     number of electrons       =        72.00
     number of Kohn-Sham states=           43
     kinetic-energy cutoff     =      45.0000  Ry
     charge density cutoff     =     360.0000  Ry
     convergence threshold     =      1.0E-06
     mixing beta               =       0.7000
     number of iterations used =            8  local-TF  mixing
     Exchange-correlation      = SLA PW GGX GGC ( 1  4  2  2 0 0)

     celldm(1)=  12.002024  celldm(2)=   0.000000  celldm(3)=   0.000000
     celldm(4)=   0.000000  celldm(5)=   0.000000  celldm(6)=   0.000000

     crystal axes: (cart. coord. in units of alat)
               a(1) = (   1.000000   0.000000   0.000000 )
               a(2) = (   0.514699   0.896156   0.000000 )
               a(3) = (   0.078874   0.484781   2.534765 )

     reciprocal axes: (cart. coord. in units 2 pi/alat)
               b(1) = (  1.000000 -0.574341  0.078728 )
               b(2) = (  0.000000  1.115878 -0.213415 )
               b(3) = (  0.000000  0.000000  0.394514 )

     PseudoPot. # 1 for Mo read from file:
     ~/pseudo/Mo.pw91-n-van.UPF
     MD5 check sum: Not computed, couldn't open file
     Pseudo is Ultrasoft + core correction, Zval =  6.0
     Generated by new atomic code, or converted to UPF format
     Using radial grid of  965 points,  3 beta functions with:
                l(1) =   1
                l(2) =   2
                l(3) =   2
     Q(r) pseudized with  8 coefficients,  rinner =    1.000   1.000   1.000
                                                       1.200   1.200

     PseudoPot. # 2 for S  read from file:
     ~/pseudo/S.pw91-van_ak.UPF
     MD5 check sum: Not computed, couldn't open file
     Pseudo is Ultrasoft, Zval =  6.0
     Generated by new atomic code, or converted to UPF format
     Using radial grid of  811 points,  6 beta functions with:
                l(1) =   0
                l(2) =   0
                l(3) =   1
                l(4) =   1
                l(5) =   2
                l(6) =   2
     Q(r) pseudized with  8 coefficients,  rinner =    1.100   1.100   1.100
                                                       1.100   1.100

     atomic species   valence    mass     pseudopotential
        Mo             6.00    95.50000     Mo( 1.00)
        S              6.00    32.06500     S ( 1.00)

     No symmetry found

   Cartesian axes

     site n.     atom                  positions (alat units)
         1           Mo  tau(   1) = (   0.5155390   0.8570481   0.0087469  )
         2           Mo  tau(   2) = (   1.0262490   0.9184771  -0.0014334  )
         3           Mo  tau(   3) = (   0.8260936   0.9625295   2.5546298  )
         4           Mo  tau(   4) = (   0.2673357   0.4292162   0.0038927  )
         5           S   tau(   5) = (   0.3302336   0.6151860   2.2875995  )
         6           S   tau(   6) = (   0.8704255   0.6701325   2.3152938  )
         7           S   tau(   7) = (   1.1053589   1.1044827   2.3089413  )
         8           S   tau(   8) = (   0.5932058   1.0622416   2.2774932  )
         9           S   tau(   9) = (   0.2436289   0.1210281   0.2496923  )
        10           S   tau(  10) = (   0.7618357   0.1626281   0.2458997  )
        11           S   tau(  11) = (   1.0191897   0.6208020   0.2368372  )
        12           S   tau(  12) = (   0.4760268   0.5746456   0.2956694  )

     number of k points=     5  Marzari-Vanderbilt smearing, width (Ry)=  0.0200
                       cart. coord. in units 2pi/alat
        k(    1) = (   0.0000000   0.0000000   0.0000000), wk =   0.2222222
        k(    2) = (   0.0000000   0.3719592  -0.0711383), wk =   0.4444444
        k(    3) = (   0.3333333  -0.1914470   0.0262425), wk =   0.4444444
        k(    4) = (   0.3333333   0.1805122  -0.0448958), wk =   0.4444444
        k(    5) = (   0.3333333  -0.5634063   0.0973808), wk =   0.4444444

     Initial potential from superposition of free atoms

     starting charge   71.99369, renormalised to   72.00000

     negative rho (up, down):  5.504E-04 0.000E+00
     Starting wfcs are   68 randomized atomic wfcs

     Self-consistent Calculation

     iteration #  1     ecut=    45.00 Ry     beta= 0.70
     Davidson diagonalization with overlap
     ethr =  1.00E-02,  avg # of iterations =  2.0

     negative rho (up, down):  2.350E-05 0.000E+00

     total energy              =    -281.26217024 Ry
     Harris-Foulkes estimate   =    -282.14766249 Ry
     estimated scf accuracy    <       2.28621513 Ry

[...]

     total energy              =    -281.70996576 Ry
     Harris-Foulkes estimate   =    -281.70996411 Ry
     estimated scf accuracy    <       0.00000667 Ry

     iteration # 13     ecut=    45.00 Ry     beta= 0.70
     Davidson diagonalization with overlap
     ethr =  9.26E-09,  avg # of iterations =  2.8

[...]

     End of self-consistent calculation

          k = 0.0000 0.0000 0.0000 ( 20009 PWs)   bands (ev):

   -14.7989 -13.5696 -13.2803 -13.0526 -12.9805 -12.7915 -12.6193 -12.5638
    -6.5290  -6.3282  -6.2506  -6.1640  -5.4889  -5.4512  -5.3436  -4.8428
    -4.7166  -4.6091  -3.9115  -3.7629  -3.6611  -3.5153  -3.3233  -3.1291
    -2.6841  -2.5255  -2.2770  -2.1422  -2.0470  -1.9003  -1.8567  -1.7005
    -1.5579  -1.2861  -0.9094  -0.7220   0.6926   1.0529   1.3011   1.5544
     1.6014   1.6629   1.7743

[...]

          k = 0.3333-0.5634 0.0974 ( 20034 PWs)   bands (ev):

   -13.9782 -13.8905 -13.6741 -13.2012 -13.1523 -12.9290 -12.7364 -12.3775
    -5.9810  -5.6675  -5.5638  -5.5041  -5.3197  -5.0141  -4.8356  -4.6527
    -4.5101  -4.4212  -4.3543  -4.2765  -4.0932  -3.9943  -3.8488  -3.3818
    -3.2243  -3.0047  -2.7596  -2.5354  -2.2911  -1.9939  -1.8527  -1.7757
    -1.5867  -1.4913  -1.3335  -0.6008   0.1222   0.5541   0.9725   1.2238
     1.3685   1.5055   1.6662

     the Fermi energy is    -0.4548 ev

!    total energy              =    -281.70996814 Ry
     Harris-Foulkes estimate   =    -281.70996701 Ry
     estimated scf accuracy    <       0.00000032 Ry

     The total energy is the sum of the following terms:

     one-electron contribution =   -1194.83939369 Ry
     hartree contribution      =     619.79445974 Ry
     xc contribution           =    -111.33990340 Ry
     ewald contribution        =     404.67020058 Ry
     smearing contrib. (-TS)   =       0.00466863 Ry

     convergence has been achieved in  13 iterations

     negative rho (up, down):  7.680E-04 0.000E+00

     Forces acting on atoms (cartesian axes, Ry/au):

     atom    1 type  1   force =    -0.00384652    0.09069788    0.01665777
     atom    2 type  1   force =     0.01762651   -0.03268710    0.01914793
     atom    3 type  1   force =     0.06576957   -0.06288234    0.00527208
     atom    4 type  1   force =    -0.03673649    0.02985787    0.01530125
     atom    5 type  2   force =    -0.00997424    0.01177357   -0.00302851
     atom    6 type  2   force =    -0.04972337   -0.03458548   -0.03889972
     atom    7 type  2   force =    -0.01933435   -0.03186923   -0.03647744
     atom    8 type  2   force =    -0.02528589    0.00777392    0.01900254
     atom    9 type  2   force =     0.01514000    0.02636324    0.00784058
     atom   10 type  2   force =    -0.00021648   -0.00379926    0.02401032
     atom   11 type  2   force =     0.00488710   -0.01402424    0.03925970
     atom   12 type  2   force =     0.04169416    0.01338116   -0.06808650

     Total force =     0.200372     Total SCF correction =     0.001310

     General routines

     Parallel routines

   This run was terminated on:  10:23:29  14Oct2021

   JOB DONE.