     Program PWSCF v.6.4 starts on  3Aug2021 at 15:58: 7

     R & G space division:  proc/nbgrp/npool/nimage =      20
     Waiting for input...
     Reading input from standard input
Warning: card    &IONS ignored
Warning: card      ION_DYNAMICS = 'BFGS' ignored
Warning: card   / ignored
Warning: card    &CELL ignored
Warning: card      CELL_DYNAMICS = 'BFGS', ignored
Warning: card    / ignored

     Current dimensions of program PWSCF are:
     Max number of different atomic species (ntypx) = 10
     Max number of k-points (npk) =  40000
     Max angular momentum in pseudopotentials (lmaxx) =  3

     bravais-lattice index     =            0
     lattice parameter (alat)  =      12.0675  a.u.
     unit-cell volume          =    3332.3906 (a.u.)^3
     number of atoms/cell      =           24
     number of atomic types    =            2
     number of electrons       =       144.00
     number of Kohn-Sham states=           86
     kinetic-energy cutoff     =      45.0000  Ry
     charge density cutoff     =     360.0000  Ry
     convergence threshold     =      1.0E-06
     mixing beta               =       0.7000
     number of iterations used =            8  local-TF  mixing
     Exchange-correlation      = SLA PW GGX GGC ( 1  4  2  2 0 0)

     celldm(1)=  12.067481  celldm(2)=   0.000000  celldm(3)=   0.000000
     celldm(4)=   0.000000  celldm(5)=   0.000000  celldm(6)=   0.000000

     crystal axes: (cart. coord. in units of alat)
               a(1) = (   1.000000   0.000000   0.000000 )
               a(2) = (  -0.250000   0.433013   0.000000 )
               a(3) = (   0.000000   0.000000   4.379307 )

     reciprocal axes: (cart. coord. in units 2 pi/alat)
               b(1) = (  1.000000  0.577350  0.000000 )
               b(2) = (  0.000000  2.309401  0.000000 )
               b(3) = (  0.000000  0.000000  0.228347 )

     PseudoPot. # 1 for Mo read from file:
     ~/pseudo/Mo.pw91-n-van.UPF
     MD5 check sum: Not computed, couldn't open file
     Pseudo is Ultrasoft + core correction, Zval =  6.0
     Generated by new atomic code, or converted to UPF format
     Using radial grid of  965 points,  3 beta functions with:
                l(1) =   1
                l(2) =   2
                l(3) =   2
     Q(r) pseudized with  8 coefficients,  rinner =    1.000   1.000   1.000
                                                       1.200   1.200

     PseudoPot. # 2 for S  read from file:
     ~/pseudo/S.pw91-van_ak.UPF
     MD5 check sum: Not computed, couldn't open file
     Pseudo is Ultrasoft, Zval =  6.0
     Generated by new atomic code, or converted to UPF format
     Using radial grid of  811 points,  6 beta functions with:
                l(1) =   0
                l(2) =   0
                l(3) =   1
                l(4) =   1
                l(5) =   2
                l(6) =   2
     Q(r) pseudized with  8 coefficients,  rinner =    1.100   1.100   1.100
                                                       1.100   1.100

     atomic species   valence    mass     pseudopotential
        Mo             6.00    95.50000     Mo( 1.00)
        S              6.00    32.06500     S ( 1.00)

     No symmetry found

   Cartesian axes

     site n.     atom                  positions (alat units)
         1           Mo  tau(   1) = (   0.0070472   0.0025539   1.6118310  )
         2           Mo  tau(   2) = (   0.0178447  -0.0245731   3.8395505  )
         3           Mo  tau(   3) = (   0.4877582   0.0142600   1.6672938  )
         4           Mo  tau(   4) = (   0.4764456   0.0116432   3.8489384  )
         5           Mo  tau(   5) = (   0.0001016   0.0000885   0.5787324  )
         6           Mo  tau(   6) = (   0.0303193   0.0067309   2.7330255  )
         7           Mo  tau(   7) = (   0.4953249   0.0181775   0.5223411  )
         8           Mo  tau(   8) = (   0.5029016   0.0084474   2.7070482  )
         9           S   tau(   9) = (   0.2516665   0.1507098   1.8568821  )
        10           S   tau(  10) = (   0.2345878   0.1302140   4.1004758  )
        11           S   tau(  11) = (   0.7296363   0.1412311   1.8639094  )
        12           S   tau(  12) = (   0.7496136   0.1207039   4.0977021  )
        13           S   tau(  13) = (  -0.0015579   0.2829843   0.2713940  )
        14           S   tau(  14) = (   0.0178340   0.2760962   2.4693425  )
        15           S   tau(  15) = (   0.4955407   0.3028315   0.3297318  )
        16           S   tau(  16) = (   0.4728899   0.2802082   2.4786051  )
        17           S   tau(  17) = (   0.0048625   0.2975204   0.8223225  )
        18           S   tau(  18) = (   0.0123032   0.3087187   3.0030107  )
        19           S   tau(  19) = (   0.4901872   0.3152480   0.8060347  )
        20           S   tau(  20) = (   0.5110281   0.2627614   2.9960299  )
        21           S   tau(  21) = (   0.2372612   0.1258542   1.3751392  )
        22           S   tau(  22) = (   0.2479072   0.1663252   3.5644278  )
        23           S   tau(  23) = (   0.7742818   0.1451630   1.4167435  )
        24           S   tau(  24) = (   0.7546611   0.1422498   3.5557326  )

     number of k points=    10  Marzari-Vanderbilt smearing, width (Ry)=  0.0200
                       cart. coord. in units 2pi/alat
        k(    1) = (   0.0000000   0.0000000   0.0000000), wk =   0.1111111
        k(    2) = (   0.0000000   0.3849002   0.0000000), wk =   0.2222222
        k(    3) = (   0.0000000   0.7698004   0.0000000), wk =   0.2222222
        k(    4) = (   0.0000000  -1.1547006   0.0000000), wk =   0.1111111
        k(    5) = (   0.3333333   0.1924501   0.0000000), wk =   0.2222222
        k(    6) = (   0.3333333   0.5773503   0.0000000), wk =   0.2222222
        k(    7) = (   0.3333333  -0.9622505   0.0000000), wk =   0.2222222
        k(    8) = (   0.3333333  -0.5773503   0.0000000), wk =   0.2222222
        k(    9) = (   0.3333333  -0.1924501   0.0000000), wk =   0.2222222
        k(   10) = (   0.6666667  -0.3849002   0.0000000), wk =   0.2222222

     Initial potential from superposition of free atoms

     starting charge  143.98738, renormalised to  144.00000
     Starting wfcs are  136 randomized atomic wfcs

     Self-consistent Calculation

     iteration #  1     ecut=    45.00 Ry     beta= 0.70
     Davidson diagonalization with overlap
     ethr =  1.00E-02,  avg # of iterations =  2.0

     total energy              =    -562.21244122 Ry
     Harris-Foulkes estimate   =    -563.93845623 Ry
     estimated scf accuracy    <       4.52961173 Ry

[...]

     iteration #  8     ecut=    45.00 Ry     beta= 0.70
     Davidson diagonalization with overlap
     c_bands:  1 eigenvalues not converged
     ethr =  4.60E-06,  avg # of iterations =  8.3

[...]

     iteration # 10     ecut=    45.00 Ry     beta= 0.70
     Davidson diagonalization with overlap
     c_bands:  1 eigenvalues not converged
     ethr =  5.28E-07,  avg # of iterations =  6.6

[...]

     total energy              =    -563.08923389 Ry
     Harris-Foulkes estimate   =    -563.08923411 Ry
     estimated scf accuracy    <       0.00000137 Ry

     iteration # 18     ecut=    45.00 Ry     beta= 0.70
     Davidson diagonalization with overlap
     ethr =  9.48E-10,  avg # of iterations =  2.3

     End of self-consistent calculation

          k = 0.0000 0.0000 0.0000 ( 17003 PWs)   bands (ev):

    -8.4869  -7.7621  -7.4133  -7.2280  -7.0579  -6.6614  -6.5721  -6.4246
    -6.3126  -6.1855  -5.7779  -5.6705  -5.6171  -5.5487  -5.1171  -5.0595
    -0.0046   0.0787   0.5819   0.8011   0.8779   1.0631   1.1194   1.1762
     1.3352   1.5174   1.5970   1.7723   1.8607   1.9261   2.3089   2.4727
     2.4938   2.6567   2.8431   3.0625   3.0891   3.2609   3.5934   3.6276
     3.6579   3.8596   3.9915   4.0516   4.0940   4.2156   4.2803   4.2921
     4.3407   4.5389   4.6224   4.6935   4.7531   4.7648   4.8577   4.9538
     5.2024   5.6059   5.6531   5.7166   5.7993   5.8103   5.8283   5.8710
     6.0816   6.1531   6.2512   6.3761   6.4859   6.5536   6.7834   6.8511
     6.9752   7.8420   8.1774   8.4071   8.5003   8.5381   8.5665   8.6111
     8.6566   8.7005   8.7143   8.8392   8.8905   8.8909

[...]

          k = 0.6667-0.3849 0.0000 ( 16956 PWs)   bands (ev):

    -7.2730  -6.9321  -6.7582  -6.3451  -6.2787  -6.0760  -6.0661  -6.0191
    -5.7298  -5.7086  -5.6406  -5.5939  -5.4818  -5.4037  -5.1217  -5.0599
     0.2005   0.4762   0.6873   0.9172   1.2306   1.2788   1.2927   1.5169
     1.5541   1.6031   1.7509   1.9465   1.9916   2.0708   2.1129   2.1976
     2.3332   2.4679   2.5812   2.7078   2.7595   2.8275   2.8477   2.9053
     3.0151   3.1009   3.2613   3.4472   3.5664   3.6446   3.7259   3.9953
     4.0076   4.0591   4.1739   4.2684   4.3599   4.4061   4.4433   4.4859
     4.5613   4.6698   4.7297   4.7814   4.8958   5.1919   5.2219   5.3078
     5.3510   5.5023   5.5784   5.7649   5.9349   5.9535   6.2845   6.3176
     7.6811   7.8928   7.9438   7.9978   8.0467   8.1236   8.1478   8.2476
     8.3217   8.3531   8.5356   8.6414   8.6518   8.7843

     the Fermi energy is     6.7798 ev

!    total energy              =    -563.08923358 Ry
     Harris-Foulkes estimate   =    -563.08923403 Ry
     estimated scf accuracy    <       0.00000047 Ry

     The total energy is the sum of the following terms:

     one-electron contribution =     -56.39947917 Ry
     hartree contribution      =     110.66964855 Ry
     xc contribution           =    -222.91147453 Ry
     ewald contribution        =    -394.46036958 Ry
     smearing contrib. (-TS)   =       0.01244115 Ry

     convergence has been achieved in  18 iterations

     Forces acting on atoms (cartesian axes, Ry/au):

     atom    1 type  1   force =     0.02804894   -0.03137430    0.24371127
     atom    2 type  1   force =    -0.09723540    0.05313093   -0.06144348
     atom    3 type  1   force =     0.06686725   -0.10184937   -0.39108479
     atom    4 type  1   force =     0.08836145   -0.05803464   -0.09091756
     atom    5 type  1   force =     0.03652772    0.05532639   -0.09671704
     atom    6 type  1   force =    -0.09445088   -0.03747114    0.03016880
     atom    7 type  1   force =    -0.09569373   -0.08627721    0.24418953
     atom    8 type  1   force =    -0.01446671   -0.06365604    0.20549812
     atom    9 type  2   force =    -0.15221970    0.00781735    0.22918019
     atom   10 type  2   force =     0.00066546    0.04363848   -0.00512246
     atom   11 type  2   force =     0.14729681    0.07593939    0.15328948
     atom   12 type  2   force =     0.01432152    0.00219851   -0.05061837
     atom   13 type  2   force =    -0.00439401    0.00869974    0.09679447
     atom   14 type  2   force =    -0.03919353    0.01222532    0.00978241
     atom   15 type  2   force =     0.07567834    0.05884543   -0.17049435
     atom   16 type  2   force =     0.11285325    0.05515908   -0.07563290
     atom   17 type  2   force =     0.01490359   -0.00009884   -0.05707769
     atom   18 type  2   force =     0.01769270   -0.02827519   -0.08433843
     atom   19 type  2   force =    -0.02655520   -0.03638694   -0.01860156
     atom   20 type  2   force =     0.01631990    0.06230891   -0.08628697
     atom   21 type  2   force =     0.08290201    0.07227778   -0.01811383
     atom   22 type  2   force =    -0.01130737   -0.01731233    0.09798818
     atom   23 type  2   force =    -0.17316059   -0.02366807   -0.21383294
     atom   24 type  2   force =     0.00623817   -0.02316326    0.10967990

     Total force =     0.866939     Total SCF correction =     0.002083

     General routines

     Parallel routines

   This run was terminated on:  15:59: 4   3Aug2021

   JOB DONE.