     Program PWSCF v.6.4 starts on 24Dec2021 at 21: 5:31

     R & G space division:  proc/nbgrp/npool/nimage =      40
     Waiting for input...
     Reading input from standard input
Warning: card    &IONS ignored
Warning: card      ION_DYNAMICS = 'BFGS' ignored
Warning: card   / ignored
Warning: card    &CELL ignored
Warning: card      CELL_DYNAMICS = 'BFGS', ignored
Warning: card    / ignored

     Current dimensions of program PWSCF are:
     Max number of different atomic species (ntypx) = 10
     Max number of k-points (npk) =  40000
     Max angular momentum in pseudopotentials (lmaxx) =  3

     bravais-lattice index     =            0
     lattice parameter (alat)  =      17.6650  a.u.
     unit-cell volume          =    6209.8802 (a.u.)^3
     number of atoms/cell      =           42
     number of atomic types    =            2
     number of electrons       =       252.00
     number of Kohn-Sham states=          151
     kinetic-energy cutoff     =      45.0000  Ry
     charge density cutoff     =     360.0000  Ry
     convergence threshold     =      1.0E-06
     mixing beta               =       0.7000
     number of iterations used =            8  local-TF  mixing
     Exchange-correlation      = SLA PW GGX GGC ( 1  4  2  2 0 0)

     celldm(1)=  17.665005  celldm(2)=   0.000000  celldm(3)=   0.000000
     celldm(4)=   0.000000  celldm(5)=   0.000000  celldm(6)=   0.000000

     crystal axes: (cart. coord. in units of alat)
               a(1) = (   1.000000   0.000000   0.000000 )
               a(2) = (  -0.037935   1.054671   0.000000 )
               a(3) = (   0.013863  -0.015596   1.068132 )

     reciprocal axes: (cart. coord. in units 2 pi/alat)
               b(1) = (  1.000000  0.035969 -0.012453 )
               b(2) = (  0.000000  0.948163  0.013844 )
               b(3) = (  0.000000  0.000000  0.936214 )

     PseudoPot. # 1 for Mo read from file:
     ~/pseudo/Mo.pw91-n-van.UPF
     MD5 check sum: Not computed, couldn't open file
     Pseudo is Ultrasoft + core correction, Zval =  6.0
     Generated by new atomic code, or converted to UPF format
     Using radial grid of  965 points,  3 beta functions with:
                l(1) =   1
                l(2) =   2
                l(3) =   2
     Q(r) pseudized with  8 coefficients,  rinner =    1.000   1.000   1.000
                                                       1.200   1.200

     PseudoPot. # 2 for S  read from file:
     ~/pseudo/S.pw91-van_ak.UPF
     MD5 check sum: Not computed, couldn't open file
     Pseudo is Ultrasoft, Zval =  6.0
     Generated by new atomic code, or converted to UPF format
     Using radial grid of  811 points,  6 beta functions with:
                l(1) =   0
                l(2) =   0
                l(3) =   1
                l(4) =   1
                l(5) =   2
                l(6) =   2
     Q(r) pseudized with  8 coefficients,  rinner =    1.100   1.100   1.100
                                                       1.100   1.100

     atomic species   valence    mass     pseudopotential
        Mo             6.00    95.50000     Mo( 1.00)
        S              6.00    32.06500     S ( 1.00)

     No symmetry found

   Cartesian axes

     site n.     atom                  positions (alat units)
         1           Mo  tau(   1) = (   0.1391670   0.3782010   0.6840729  )
         2           Mo  tau(   2) = (   0.3589493   0.1624461   0.6948294  )
         3           Mo  tau(   3) = (   0.1357018   0.1678783   0.9069095  )
         4           Mo  tau(   4) = (   0.3532876   0.3792072   0.9244217  )
         5           Mo  tau(   5) = (   0.6265592   0.3941883   0.1540978  )
         6           Mo  tau(   6) = (   0.8279572   0.1679251   0.1441771  )
         7           Mo  tau(   7) = (   0.6481752   0.1406786   0.3951919  )
         8           Mo  tau(   8) = (   0.8483130   0.3717890   0.3902606  )
         9           Mo  tau(   9) = (   0.3873290   0.6298785   0.1313016  )
        10           Mo  tau(  10) = (   0.1123548   0.6035530   0.4294531  )
        11           Mo  tau(  11) = (   0.4025391   0.9241682   0.4112901  )
        12           Mo  tau(  12) = (   0.6114789   0.9359464   0.6252896  )
        13           Mo  tau(  13) = (   0.8817131   0.6209024   0.6295593  )
        14           Mo  tau(  14) = (   0.5773616   0.5920576   0.9547946  )
        15           S   tau(  15) = (   0.1086391   0.1153939   0.6648166  )
        16           S   tau(  16) = (   0.3958738   0.4145719   0.6682743  )
        17           S   tau(  17) = (   0.3563363   0.3786743   0.1286823  )
        18           S   tau(  18) = (   0.0222515   1.0173547   1.0613370  )
        19           S   tau(  19) = (   0.3787664   0.1204861   0.4268460  )
        20           S   tau(  20) = (   0.1220458   0.3621073   0.4171359  )
        21           S   tau(  21) = (   0.3647766   0.6652515   0.3996080  )
        22           S   tau(  22) = (   0.5822664   0.1360295   0.1429197  )
        23           S   tau(  23) = (   0.8862378   0.4131124   0.1356470  )
        24           S   tau(  24) = (   0.8700578   0.3716245   0.6583906  )
        25           S   tau(  25) = (   0.6267394   0.1325854   0.6619263  )
        26           S   tau(  26) = (   0.8643860   0.1782634   0.9436887  )
        27           S   tau(  27) = (   0.6191657   0.3529596   0.9532529  )
        28           S   tau(  28) = (   0.1198089   0.6665679   0.1730413  )
        29           S   tau(  29) = (   0.0952069   0.4153377   0.9411003  )
        30           S   tau(  30) = (   0.3384398   0.8967050   0.1624542  )
        31           S   tau(  31) = (   0.3558057   0.9404032   0.6666309  )
        32           S   tau(  32) = (   0.1282924   0.6477773   0.6791250  )
        33           S   tau(  33) = (   0.3377503   0.6479175   0.9506134  )
        34           S   tau(  34) = (   0.3800907   0.1147921   0.9458674  )
        35           S   tau(  35) = (   0.6319789   0.6718639   0.7096212  )
        36           S   tau(  36) = (   0.5920864   0.3992179   0.4092371  )
        37           S   tau(  37) = (   0.8568365   0.8796244   0.6950124  )
        38           S   tau(  38) = (   0.7987956   0.9714659   0.0259967  )
        39           S   tau(  39) = (   0.6408788   0.6598142   0.1206703  )
        40           S   tau(  40) = (   0.8612962   0.6422308   0.3872952  )
        41           S   tau(  41) = (   0.6453846   0.9250318   0.3797671  )
        42           S   tau(  42) = (   0.9096507   0.1153530   0.3781264  )

     number of k points=     8  Marzari-Vanderbilt smearing, width (Ry)=  0.0200
                       cart. coord. in units 2pi/alat
        k(    1) = (   0.0000000   0.0000000   0.0000000), wk =   0.2500000
        k(    2) = (   0.0000000   0.0000000  -0.4681070), wk =   0.2500000
        k(    3) = (   0.0000000  -0.4740815  -0.0069220), wk =   0.2500000
        k(    4) = (   0.0000000  -0.4740815  -0.4750290), wk =   0.2500000
        k(    5) = (  -0.5000000  -0.0179844   0.0062266), wk =   0.2500000
        k(    6) = (  -0.5000000  -0.0179844  -0.4618804), wk =   0.2500000
        k(    7) = (  -0.5000000  -0.4920658  -0.0006954), wk =   0.2500000
        k(    8) = (  -0.5000000  -0.4920658  -0.4688024), wk =   0.2500000

     Initial potential from superposition of free atoms

     starting charge  251.97792, renormalised to  252.00000
     Starting wfcs are  238 randomized atomic wfcs

     Self-consistent Calculation

     iteration #  1     ecut=    45.00 Ry     beta= 0.70
     Davidson diagonalization with overlap
     ethr =  1.00E-02,  avg # of iterations =  2.0

     total energy              =    -983.52546086 Ry
     Harris-Foulkes estimate   =    -986.89197107 Ry
     estimated scf accuracy    <       9.00543923 Ry

[...]

     total energy              =    -985.24747148 Ry
     Harris-Foulkes estimate   =    -985.24747164 Ry
     estimated scf accuracy    <       0.00000105 Ry

     iteration # 14     ecut=    45.00 Ry     beta= 0.70
     Davidson diagonalization with overlap
     ethr =  4.15E-10,  avg # of iterations =  2.2

     End of self-consistent calculation

          k = 0.0000 0.0000 0.0000 ( 31633 PWs)   bands (ev):

    -8.6103  -8.0886  -7.5600  -7.4878  -7.3938  -7.2859  -7.1405  -7.0665
    -6.9886  -6.9534  -6.9076  -6.8826  -6.7768  -6.7260  -6.7085  -6.6619
    -6.6336  -6.5906  -6.5808  -6.5421  -6.4310  -6.2212  -6.0431  -5.7775
    -5.5846  -5.5593  -5.3212  -4.4202  -0.0332   0.1190   0.1473   0.2355
     0.5516   0.5872   0.6315   0.7984   0.8313   0.8686   0.9914   1.0632
     1.0820   1.1982   1.2219   1.2862   1.3383   1.3905   1.4541   1.5227
     1.5753   1.6115   1.6878   1.7673   1.8045   1.8094   1.8595   1.9176
     1.9684   2.0079   2.0402   2.1076   2.1595   2.2080   2.2459   2.2562
     2.2752   2.3083   2.3734   2.4140   2.4351   2.4692   2.5535   2.5636
     2.6269   2.6837   2.7113   2.7405   2.7497   2.8140   2.8229   2.8712
     2.8799   2.9836   3.0083   3.0235   3.1366   3.1686   3.2435   3.2677
     3.3631   3.4492   3.5254   3.5586   3.7127   3.8128   3.8170   3.9170
     3.9669   4.0120   4.1022   4.1252   4.2094   4.2664   4.3225   4.4156
     4.4769   4.5454   4.6411   4.7201   4.8756   4.8967   4.9460   5.0394
     5.1418   5.2022   5.3087   5.3941   5.4546   5.5232   5.5353   5.5815
     5.7259   5.7678   5.8586   5.9607   6.1139   6.2684   6.3208   6.3850
     6.4658   6.5784   6.6989   6.7321   6.9110   6.9663   7.0711   7.1321
     7.2337   7.2683   7.3598   7.3773   7.5358   7.5405   7.5828   7.6195
     7.6407   7.8082   7.8353   7.9391   8.0193   8.0847   8.0909

[...]

          k = 0.0000-0.4741-0.4750 ( 31674 PWs)   bands (ev):

[...]

          k =-0.5000-0.0180 0.0062 ( 31644 PWs)   bands (ev):

[...]

          k =-0.5000-0.4921-0.4688 ( 31668 PWs)   bands (ev):

    -8.5961  -7.8306  -7.6516  -7.6147  -7.5238  -7.3049  -7.1772  -7.1189
    -7.0039  -6.9735  -6.9357  -6.8634  -6.8012  -6.7843  -6.7332  -6.6737
    -6.6347  -6.5765  -6.4849  -6.4585  -6.3260  -6.2093  -6.0319  -5.7627
    -5.5719  -5.5393  -5.3150  -4.4165   0.3614   0.3883   0.4501   0.5659
     0.6499   0.6593   0.7086   0.7593   0.7775   0.8912   0.9307   1.0154
     1.0738   1.1020   1.1799   1.1896   1.2386   1.2707   1.2852   1.3253
     1.3538   1.4409   1.4727   1.5295   1.5687   1.6041   1.6912   1.7357
     1.7751   1.8737   1.9576   2.0405   2.0929   2.1177   2.1688   2.1894
     2.2255   2.3088   2.3401   2.4044   2.4569   2.4833   2.5446   2.5642
     2.6300   2.6561   2.7053   2.7369   2.7561   2.8024   2.8558   2.9178
     2.9362   2.9996   3.0439   3.0996   3.1914   3.2767   3.3957   3.4097
     3.5020   3.5588   3.6256   3.7180   3.7642   3.8437   3.9115   3.9684
     4.0392   4.1240   4.1655   4.1928   4.2822   4.3361   4.3667   4.4622
     4.5297   4.6433   4.7485   4.8243   4.9268   4.9798   5.0806   5.1226
     5.1545   5.1794   5.3217   5.3710   5.3947   5.5225   5.5639   5.6902
     5.7317   5.8529   5.9263   5.9782   6.0447   6.2075   6.2489   6.3264
     6.4476   6.5857   6.6596   6.7098   6.7942   6.8523   6.9473   6.9703
     7.0490   7.1828   7.2506   7.3575   7.3803   7.4097   7.5660   7.6277
     7.7095   7.7635   7.8774   7.9062   7.9339   8.0598   8.1376

     the Fermi energy is     6.2171 ev

!    total energy              =    -985.24747142 Ry
     Harris-Foulkes estimate   =    -985.24747161 Ry
     estimated scf accuracy    <       0.00000027 Ry

     The total energy is the sum of the following terms:

     one-electron contribution =    -117.80255876 Ry
     hartree contribution      =     197.50878937 Ry
     xc contribution           =    -389.02057748 Ry
     ewald contribution        =    -675.93772394 Ry
     smearing contrib. (-TS)   =       0.00459939 Ry

     convergence has been achieved in  14 iterations

     Forces acting on atoms (cartesian axes, Ry/au):

     atom    1 type  1   force =    -0.01353104    0.05218326    0.00509503
     atom    2 type  1   force =    -0.00122863   -0.01368466    0.01979404
     atom    3 type  1   force =    -0.08789623   -0.02131604    0.02656473
     atom    4 type  1   force =    -0.01506125    0.01991388    0.00351549
     atom    5 type  1   force =    -0.00533344    0.00900191    0.01538644
     atom    6 type  1   force =     0.03917149   -0.03841011   -0.04261799
     atom    7 type  1   force =    -0.01444419   -0.02507414   -0.02112956
     atom    8 type  1   force =     0.00021259    0.03865448   -0.01833921
     atom    9 type  1   force =    -0.02363220   -0.01982529   -0.02368649
     atom   10 type  1   force =    -0.02242176   -0.01943893   -0.04817204
     atom   11 type  1   force =    -0.01428882    0.01634909   -0.04008441
     atom   12 type  1   force =     0.03579038    0.02842763    0.01535556
     atom   13 type  1   force =     0.02809618    0.01073688    0.01347927
     atom   14 type  1   force =     0.02634922    0.00855354   -0.01892718
     atom   15 type  2   force =     0.00451316    0.00894449    0.00518391
     atom   16 type  2   force =    -0.01044371   -0.02164486    0.00782728
     atom   17 type  2   force =    -0.00497248    0.00806273    0.01821832
     atom   18 type  2   force =     0.03267198   -0.00369781    0.02244530
     atom   19 type  2   force =    -0.00275741   -0.01461685   -0.00564880
     atom   20 type  2   force =     0.00957865   -0.00691887   -0.00438079
     atom   21 type  2   force =    -0.00390821   -0.00153945    0.00979073
     atom   22 type  2   force =    -0.00123795   -0.00270443    0.00605206
     atom   23 type  2   force =    -0.00324542   -0.00878361    0.00178573
     atom   24 type  2   force =    -0.01496724   -0.01011022    0.01334845
     atom   25 type  2   force =     0.00945416   -0.01648415   -0.00024286
     atom   26 type  2   force =     0.00029048   -0.00204849   -0.00771061
     atom   27 type  2   force =     0.00819719    0.00664882   -0.00897697
     atom   28 type  2   force =     0.01374242   -0.00043086    0.03366617
     atom   29 type  2   force =     0.01977865   -0.02211387   -0.01840527
     atom   30 type  2   force =     0.00741262    0.00570368    0.02129705
     atom   31 type  2   force =     0.00621856   -0.01524227    0.00302618
     atom   32 type  2   force =     0.00490132    0.01192171    0.00629579
     atom   33 type  2   force =    -0.00082842   -0.00368987   -0.00368851
     atom   34 type  2   force =    -0.00441417    0.00323655   -0.00337551
     atom   35 type  2   force =    -0.02471850   -0.00196934    0.03746994
     atom   36 type  2   force =     0.01408514   -0.01146810    0.00682983
     atom   37 type  2   force =    -0.01319839   -0.00891177   -0.01121597
     atom   38 type  2   force =     0.01346933    0.03975309    0.00210334
     atom   39 type  2   force =     0.01173282    0.00795719    0.00825406
     atom   40 type  2   force =     0.00533452    0.00306797   -0.01979093
     atom   41 type  2   force =     0.01010070   -0.00124505   -0.01247008
     atom   42 type  2   force =    -0.01857210    0.01225215    0.00607849

     Total force =     0.216504     Total SCF correction =     0.001099

     General routines

     Parallel routines

   This run was terminated on:  21: 8:38  24Dec2021

   JOB DONE.