     Program PWSCF v.6.4 starts on 23Dec2021 at 23: 3: 0

     R & G space division:  proc/nbgrp/npool/nimage =      40
     Waiting for input...
     Reading input from standard input
Warning: card    &IONS ignored
Warning: card      ION_DYNAMICS = 'BFGS' ignored
Warning: card   / ignored
Warning: card    &CELL ignored
Warning: card      CELL_DYNAMICS = 'BFGS', ignored
Warning: card    / ignored

     Current dimensions of program PWSCF are:
     Max number of different atomic species (ntypx) = 10
     Max number of k-points (npk) =  40000
     Max angular momentum in pseudopotentials (lmaxx) =  3

     bravais-lattice index     =            0
     lattice parameter (alat)  =      11.8352  a.u.
     unit-cell volume          =   14348.0828 (a.u.)^3
     number of atoms/cell      =           24
     number of atomic types    =            2
     number of electrons       =       144.00
     number of Kohn-Sham states=           86
     kinetic-energy cutoff     =      45.0000  Ry
     charge density cutoff     =     360.0000  Ry
     convergence threshold     =      1.0E-06
     mixing beta               =       0.7000
     number of iterations used =            8  local-TF  mixing
     Exchange-correlation      = SLA PW GGX GGC ( 1  4  2  2 0 0)

     celldm(1)=  11.835217  celldm(2)=   0.000000  celldm(3)=   0.000000
     celldm(4)=   0.000000  celldm(5)=   0.000000  celldm(6)=   0.000000

     crystal axes: (cart. coord. in units of alat)
               a(1) = (   1.000000   0.000000   0.000000 )
               a(2) = (  -0.293212   2.512737   0.000000 )
               a(3) = (  -0.407881  -1.163463   3.444437 )

     reciprocal axes: (cart. coord. in units 2 pi/alat)
               b(1) = (  1.000000  0.116690  0.157833 )
               b(2) = (  0.000000  0.397972  0.134427 )
               b(3) = (  0.000000  0.000000  0.290323 )

     PseudoPot. # 1 for Mo read from file:
     ~/pseudo/Mo.pw91-n-van.UPF
     MD5 check sum: Not computed, couldn't open file
     Pseudo is Ultrasoft + core correction, Zval =  6.0
     Generated by new atomic code, or converted to UPF format
     Using radial grid of  965 points,  3 beta functions with:
                l(1) =   1
                l(2) =   2
                l(3) =   2
     Q(r) pseudized with  8 coefficients,  rinner =    1.000   1.000   1.000
                                                       1.200   1.200

     PseudoPot. # 2 for S  read from file:
     ~/pseudo/S.pw91-van_ak.UPF
     MD5 check sum: Not computed, couldn't open file
     Pseudo is Ultrasoft, Zval =  6.0
     Generated by new atomic code, or converted to UPF format
     Using radial grid of  811 points,  6 beta functions with:
                l(1) =   0
                l(2) =   0
                l(3) =   1
                l(4) =   1
                l(5) =   2
                l(6) =   2
     Q(r) pseudized with  8 coefficients,  rinner =    1.100   1.100   1.100
                                                       1.100   1.100

     atomic species   valence    mass     pseudopotential
        Mo             6.00    95.50000     Mo( 1.00)
        S              6.00    32.06500     S ( 1.00)

     No symmetry found

   Cartesian axes

     site n.     atom                  positions (alat units)
         1           Mo  tau(   1) = (   0.3025376   1.4635125   2.5596705  )
         2           Mo  tau(   2) = (   0.0754911   1.4890958   2.1176305  )
         3           Mo  tau(   3) = (  -0.4286073   1.4279743   2.9773643  )
         4           Mo  tau(   4) = (   0.0742201   1.4320522   2.9725575  )
         5           Mo  tau(   5) = (  -0.1607482   1.5352554   1.6866800  )
         6           Mo  tau(   6) = (  -0.1534144   1.4535414   2.5518068  )
         7           Mo  tau(   7) = (  -0.4252824   1.4913556   2.1116821  )
         8           Mo  tau(   8) = (   0.3109575   1.5354552   1.6867866  )
         9           S   tau(   9) = (  -0.3838214  -1.0922370   3.2749188  )
        10           S   tau(  10) = (   0.3236898   1.2416011   1.9315579  )
        11           S   tau(  11) = (  -0.1726288   1.1767369   2.8276932  )
        12           S   tau(  12) = (  -0.1745115   1.2420700   1.9321148  )
        13           S   tau(  13) = (   0.3532907  -0.7918346   2.7413158  )
        14           S   tau(  14) = (  -0.1281299  -0.7991288   2.4388434  )
        15           S   tau(  15) = (   0.5750861   1.5441176   1.4292680  )
        16           S   tau(  16) = (   0.3230657   1.7667493   1.9928521  )
        17           S   tau(  17) = (   0.0753845   1.8138259   1.5517202  )
        18           S   tau(  18) = (   0.3238993   1.1748226   2.8270766  )
        19           S   tau(  19) = (   0.0746828   1.2833518   1.4977864  )
        20           S   tau(  20) = (  -0.1729542   1.7659693   1.9924095  )
        21           S   tau(  21) = (  -0.1824606  -0.7211282   2.9150963  )
        22           S   tau(  22) = (   0.0779685   1.1981672   2.3788509  )
        23           S   tau(  23) = (   0.1177290  -1.0620002   3.2699161  )
        24           S   tau(  24) = (  -0.4272019   1.2015050   2.3805404  )

     number of k points=     2  Marzari-Vanderbilt smearing, width (Ry)=  0.0200
                       cart. coord. in units 2pi/alat
        k(    1) = (   0.0000000   0.0000000   0.0000000), wk =   0.6666667
        k(    2) = (   0.3333333   0.0388968   0.0526110), wk =   1.3333333

     Initial potential from superposition of free atoms

     starting charge  143.98738, renormalised to  144.00000

     negative rho (up, down):  2.191E-03 0.000E+00
     Starting wfcs are  136 randomized atomic wfcs

     Self-consistent Calculation

     iteration #  1     ecut=    45.00 Ry     beta= 0.70
     Davidson diagonalization with overlap
     ethr =  1.00E-02,  avg # of iterations =  2.0

     negative rho (up, down):  9.353E-04 0.000E+00

     total energy              =    -561.81538031 Ry
     Harris-Foulkes estimate   =    -563.99921066 Ry
     estimated scf accuracy    <       6.17602479 Ry

[...]

     total energy              =    -562.96875708 Ry
     Harris-Foulkes estimate   =    -562.96876168 Ry
     estimated scf accuracy    <       0.00000178 Ry

     iteration # 16     ecut=    45.00 Ry     beta= 0.70
     Davidson diagonalization with overlap
     ethr =  1.24E-09,  avg # of iterations =  2.0

[...]

     End of self-consistent calculation

          k = 0.0000 0.0000 0.0000 ( 73179 PWs)   bands (ev):

   -16.8662 -16.4496 -16.0199 -15.8342 -15.6650 -15.4912 -15.4812 -15.4028
   -15.3578 -15.3281 -15.0211 -14.8862 -14.6789 -14.4526 -14.4178 -14.2129
    -8.6646  -8.4174  -8.3945  -8.3582  -8.1721  -8.1068  -7.9536  -7.6044
    -7.5513  -7.4244  -7.4137  -7.3029  -7.0542  -6.9467  -6.9144  -6.8661
    -6.8056  -6.7122  -6.5041  -6.4796  -6.3198  -6.3001  -6.2757  -6.1548
    -6.1487  -6.0483  -6.0293  -5.7942  -5.6545  -5.6276  -5.5360  -5.4559
    -5.3508  -5.3295  -5.1469  -5.0698  -4.9796  -4.9102  -4.8195  -4.7985
    -4.6874  -4.6277  -4.5664  -4.4762  -4.0680  -3.9772  -3.9362  -3.8449
    -3.8200  -3.6459  -3.3969  -3.3266  -3.1592  -3.1206  -3.0838  -2.6473
    -2.6214  -2.5644  -2.4625  -2.3261  -2.0890  -1.9427  -1.7566  -1.4986
    -1.3943  -1.1715  -0.9668  -0.8741  -0.8259  -0.6702

          k = 0.3333 0.0389 0.0526 ( 73094 PWs)   bands (ev):

   -16.6027 -16.2194 -15.9875 -15.8590 -15.7015 -15.6669 -15.6024 -15.5176
   -15.4395 -15.3830 -15.0597 -14.7760 -14.6809 -14.5103 -14.4418 -14.3708
    -8.2164  -8.1619  -8.0772  -8.0099  -7.8711  -7.7897  -7.6158  -7.5294
    -7.4265  -7.3411  -7.3033  -7.2049  -7.0459  -6.9844  -6.8578  -6.7670
    -6.6876  -6.6193  -6.6017  -6.5470  -6.4575  -6.3599  -6.3238  -6.2414
    -6.1442  -6.0946  -6.0229  -5.9528  -5.8754  -5.7439  -5.6682  -5.6123
    -5.5515  -5.4314  -5.3755  -5.2682  -5.1658  -5.0119  -4.9125  -4.8438
    -4.6732  -4.5747  -4.5456  -4.3506  -4.2769  -4.2444  -4.1393  -3.9814
    -3.9159  -3.7810  -3.5948  -3.4721  -3.3769  -3.2217  -3.0188  -2.8086
    -2.7665  -2.6172  -2.5414  -2.1958  -2.0562  -1.9362  -1.6930  -1.4762
    -1.3738  -1.3231  -1.3069  -1.1859  -1.0503  -0.8929

     the Fermi energy is    -2.7685 ev

!    total energy              =    -562.96875620 Ry
     Harris-Foulkes estimate   =    -562.96875729 Ry
     estimated scf accuracy    <       0.00000081 Ry

     The total energy is the sum of the following terms:

     one-electron contribution =   -2725.20052153 Ry
     hartree contribution      =    1395.09219693 Ry
     xc contribution           =    -221.57130643 Ry
     ewald contribution        =     988.71158350 Ry
     smearing contrib. (-TS)   =      -0.00070867 Ry

     convergence has been achieved in  16 iterations

     negative rho (up, down):  3.083E-03 0.000E+00

     Forces acting on atoms (cartesian axes, Ry/au):

     atom    1 type  1   force =     0.00506399   -0.05700747   -0.01965511
     atom    2 type  1   force =    -0.00284176   -0.03535115   -0.01629838
     atom    3 type  1   force =    -0.00874598    0.08505496    0.08079404
     atom    4 type  1   force =    -0.00315402   -0.03689555    0.05427424
     atom    5 type  1   force =    -0.00109737    0.00485205   -0.04209997
     atom    6 type  1   force =    -0.00737637   -0.04496619   -0.03062501
     atom    7 type  1   force =     0.00220930   -0.00878345    0.00446687
     atom    8 type  1   force =     0.00104515    0.00493883   -0.04107404
     atom    9 type  2   force =    -0.00054191   -0.00953187   -0.03865654
     atom   10 type  2   force =    -0.00606924    0.03087551    0.02205394
     atom   11 type  2   force =     0.00451612    0.01013554   -0.00694758
     atom   12 type  2   force =     0.00758741    0.02963395    0.02278047
     atom   13 type  2   force =    -0.00110648    0.01713935   -0.02448207
     atom   14 type  2   force =    -0.00304601    0.00466103   -0.01910781
     atom   15 type  2   force =    -0.00000577    0.00263354   -0.01162276
     atom   16 type  2   force =     0.00091665   -0.02015393    0.01970765
     atom   17 type  2   force =    -0.00053915   -0.04381187    0.01718161
     atom   18 type  2   force =    -0.01176931    0.01812879   -0.01034574
     atom   19 type  2   force =     0.00045943    0.04010547    0.03808117
     atom   20 type  2   force =    -0.00046184   -0.01841569    0.02099094
     atom   21 type  2   force =     0.01301346   -0.06855695   -0.01486572
     atom   22 type  2   force =     0.00442322    0.04991596    0.01338768
     atom   23 type  2   force =     0.00621005   -0.00373417   -0.03618268
     atom   24 type  2   force =     0.00131045    0.04913331    0.01824480

     Total force =     0.235376     Total SCF correction =     0.001697

     General routines

     Parallel routines

   This run was terminated on:  23: 5:22  23Dec2021

   JOB DONE.