     Program PWSCF v.6.4 starts on  8Sep2021 at 11:59:15

     R & G space division:  proc/nbgrp/npool/nimage =      40
     Waiting for input...
     Reading input from standard input
Warning: card    &IONS ignored
Warning: card      ION_DYNAMICS = 'BFGS' ignored
Warning: card   / ignored
Warning: card    &CELL ignored
Warning: card      CELL_DYNAMICS = 'BFGS', ignored
Warning: card    / ignored

     Current dimensions of program PWSCF are:
     Max number of different atomic species (ntypx) = 10
     Max number of k-points (npk) =  40000
     Max angular momentum in pseudopotentials (lmaxx) =  3

     bravais-lattice index     =            0
     lattice parameter (alat)  =      12.4710  a.u.
     unit-cell volume          =    3409.5917 (a.u.)^3
     number of atoms/cell      =           24
     number of atomic types    =            2
     number of electrons       =       144.00
     number of Kohn-Sham states=           86
     kinetic-energy cutoff     =      45.0000  Ry
     charge density cutoff     =     360.0000  Ry
     convergence threshold     =      1.0E-06
     mixing beta               =       0.7000
     number of iterations used =            8  local-TF  mixing
     Exchange-correlation      = SLA PW GGX GGC ( 1  4  2  2 0 0)

     celldm(1)=  12.471049  celldm(2)=   0.000000  celldm(3)=   0.000000
     celldm(4)=   0.000000  celldm(5)=   0.000000  celldm(6)=   0.000000

     crystal axes: (cart. coord. in units of alat)
               a(1) = (   0.998939  -0.035657   0.029129 )
               a(2) = (  -0.468646   0.882556  -0.026193 )
               a(3) = (   0.083037  -0.094021   2.036204 )

     reciprocal axes: (cart. coord. in units 2 pi/alat)
               b(1) = (  1.020879  0.541604 -0.016623 )
               b(2) = (  0.039745  1.155714  0.051744 )
               b(3) = ( -0.014093  0.007119  0.492013 )

     PseudoPot. # 1 for Mo read from file:
     ~/pseudo/Mo.pw91-n-van.UPF
     MD5 check sum: Not computed, couldn't open file
     Pseudo is Ultrasoft + core correction, Zval =  6.0
     Generated by new atomic code, or converted to UPF format
     Using radial grid of  965 points,  3 beta functions with:
                l(1) =   1
                l(2) =   2
                l(3) =   2
     Q(r) pseudized with  8 coefficients,  rinner =    1.000   1.000   1.000
                                                       1.200   1.200

     PseudoPot. # 2 for S  read from file:
     ~/pseudo/S.pw91-van_ak.UPF
     MD5 check sum: Not computed, couldn't open file
     Pseudo is Ultrasoft, Zval =  6.0
     Generated by new atomic code, or converted to UPF format
     Using radial grid of  811 points,  6 beta functions with:
                l(1) =   0
                l(2) =   0
                l(3) =   1
                l(4) =   1
                l(5) =   2
                l(6) =   2
     Q(r) pseudized with  8 coefficients,  rinner =    1.100   1.100   1.100
                                                       1.100   1.100

     atomic species   valence    mass     pseudopotential
        Mo             6.00    95.50000     Mo( 1.00)
        S              6.00    32.06500     S ( 1.00)

     No symmetry found

   Cartesian axes

     site n.     atom                  positions (alat units)
         1           Mo  tau(   1) = (   0.1176073   0.2735005   0.5221324  )
         2           Mo  tau(   2) = (  -0.1405127   0.7411812   0.3824752  )
         3           Mo  tau(   3) = (   0.5858122   0.2641423   0.5585298  )
         4           Mo  tau(   4) = (   0.3631189   0.5900132   0.6988067  )
         5           Mo  tau(   5) = (   0.2563519   0.0714510   1.4998546  )
         6           Mo  tau(   6) = (   0.0265404   0.5165343   1.4761429  )
         7           Mo  tau(   7) = (   0.7570860   0.0507110   1.5077242  )
         8           Mo  tau(   8) = (   0.5226091   0.4904772   1.4951021  )
         9           S   tau(   9) = (   0.3344570   0.0394206   0.7143729  )
        10           S   tau(  10) = (   0.0858191   0.4686197   0.8474613  )
        11           S   tau(  11) = (   0.8454662   0.0574082   0.7500628  )
        12           S   tau(  12) = (   0.6169116   0.4475076   0.8727895  )
        13           S   tau(  13) = (   0.0004483   0.2286465   1.7153561  )
        14           S   tau(  14) = (  -0.2328080   0.6675842   1.7023804  )
        15           S   tau(  15) = (   0.5072275   0.2095995   1.7292746  )
        16           S   tau(  16) = (   0.2645449   0.6508289   1.7216687  )
        17           S   tau(  17) = (   0.3515371   0.1516604   0.2388761  )
        18           S   tau(  18) = (   0.1692550   0.6035649   0.3566394  )
        19           S   tau(  19) = (   0.8624888   0.2198864   0.2908562  )
        20           S   tau(  20) = (   0.5488300   0.5723880   0.3648000  )
        21           S   tau(  21) = (   0.0231881   0.2178602   1.2489530  )
        22           S   tau(  22) = (  -0.2063035   0.6609636   1.2398951  )
        23           S   tau(  23) = (   0.4966575   0.1848145   1.2707974  )
        24           S   tau(  24) = (   0.2874603   0.6451022   1.2580274  )

     number of k points=    10  Marzari-Vanderbilt smearing, width (Ry)=  0.0200
                       cart. coord. in units 2pi/alat
        k(    1) = (   0.0000000   0.0000000   0.0000000), wk =   0.1111111
        k(    2) = (   0.0070466  -0.0035593  -0.2460067), wk =   0.1111111
        k(    3) = (   0.0132482   0.3852378   0.0172479), wk =   0.2222222
        k(    4) = (   0.0202948   0.3816786  -0.2287588), wk =   0.2222222
        k(    5) = (   0.3402931   0.1805346  -0.0055411), wk =   0.2222222
        k(    6) = (   0.3473396   0.1769753  -0.2515478), wk =   0.2222222
        k(    7) = (   0.3535413   0.5657724   0.0117068), wk =   0.2222222
        k(    8) = (   0.3605879   0.5622131  -0.2342999), wk =   0.2222222
        k(    9) = (   0.3270448  -0.2047033  -0.0227890), wk =   0.2222222
        k(   10) = (   0.3340914  -0.2082626  -0.2687958), wk =   0.2222222

     Initial potential from superposition of free atoms

     starting charge  143.98738, renormalised to  144.00000
     Starting wfcs are  136 randomized atomic wfcs

     Self-consistent Calculation

     iteration #  1     ecut=    45.00 Ry     beta= 0.70
     Davidson diagonalization with overlap
     ethr =  1.00E-02,  avg # of iterations =  2.0

     total energy              =    -562.20647949 Ry
     Harris-Foulkes estimate   =    -564.06630984 Ry
     estimated scf accuracy    <       4.77618850 Ry

[...]

     total energy              =    -563.14583927 Ry
     Harris-Foulkes estimate   =    -563.14583972 Ry
     estimated scf accuracy    <       0.00000271 Ry

     iteration # 16     ecut=    45.00 Ry     beta= 0.70
     Davidson diagonalization with overlap
     ethr =  1.88E-09,  avg # of iterations =  1.3

     End of self-consistent calculation

          k = 0.0000 0.0000 0.0000 ( 17347 PWs)   bands (ev):

    -7.9739  -7.7232  -6.8452  -6.5954  -6.5065  -6.4304  -6.3635  -6.1917
    -6.0164  -6.0052  -5.9607  -5.9555  -5.7773  -5.7298  -5.5888  -5.1383
     0.3460   0.3901   0.4694   0.5031   0.5287   1.0024   1.0682   1.3710
     1.4207   1.4934   1.5388   1.5779   1.7527   1.8640   1.9650   2.0188
     2.1660   2.2552   2.4730   2.6332   2.7041   2.7498   2.8207   2.9682
     3.1085   3.1403   3.2364   3.2887   3.3488   3.4962   3.6828   3.7843
     3.9430   4.1199   4.2088   4.2918   4.3352   4.4278   4.4945   4.6438
     4.7240   4.7414   4.7685   4.8280   5.0399   5.1514   5.2587   5.3084
     5.4219   5.4765   5.5569   5.6351   5.8382   6.2912   6.5308   6.8707
     7.4090   7.4505   7.6779   7.6960   7.7344   7.7476   7.9913   8.1896
     8.1991   8.2244   8.2450   8.2788   8.3940   8.4300

[...]

          k = 0.3341-0.2083-0.2688 ( 17378 PWs)   bands (ev):

    -7.6476  -7.4828  -6.9073  -6.7225  -6.4996  -6.4685  -6.4058  -6.3529
    -6.1846  -6.0952  -5.9909  -5.9511  -5.9336  -5.7693  -5.6404  -5.1122
     0.6963   0.7665   0.8257   0.8750   0.9210   1.1956   1.2970   1.3358
     1.4315   1.4767   1.5668   1.7995   1.9764   2.0344   2.0864   2.1625
     2.2400   2.3957   2.4534   2.5222   2.6265   2.7032   2.8231   2.9375
     3.0458   3.0785   3.1259   3.3095   3.4440   3.5181   3.5850   3.6523
     3.6897   3.7462   3.7930   3.8490   4.0510   4.1486   4.2782   4.3262
     4.4637   4.5199   4.6460   4.7777   4.8731   5.0392   5.1119   5.2258
     5.3607   5.3853   5.4456   5.8275   5.9487   6.2067   6.5448   6.6781
     6.9743   7.3482   7.5770   7.6830   7.7755   7.7898   7.8743   7.8923
     8.1295   8.2120   8.2452   8.2861   8.3457   8.3842

     the Fermi energy is     6.8438 ev

!    total energy              =    -563.14583913 Ry
     Harris-Foulkes estimate   =    -563.14583944 Ry
     estimated scf accuracy    <       0.00000040 Ry

     The total energy is the sum of the following terms:

     one-electron contribution =     -62.70395191 Ry
     hartree contribution      =     112.60472728 Ry
     xc contribution           =    -222.55280724 Ry
     ewald contribution        =    -390.49678664 Ry
     smearing contrib. (-TS)   =       0.00297938 Ry

     convergence has been achieved in  16 iterations

     Forces acting on atoms (cartesian axes, Ry/au):

     atom    1 type  1   force =    -0.01615747    0.01011485    0.01457168
     atom    2 type  1   force =     0.00285604    0.00794729    0.01562235
     atom    3 type  1   force =     0.02054202   -0.03983930   -0.03022596
     atom    4 type  1   force =     0.00070274    0.02709831   -0.00353746
     atom    5 type  1   force =    -0.04200073   -0.02732622    0.01074715
     atom    6 type  1   force =    -0.01693637   -0.03493690    0.03000750
     atom    7 type  1   force =    -0.01235240    0.01172973   -0.00268473
     atom    8 type  1   force =    -0.00666439    0.00484350   -0.00875622
     atom    9 type  2   force =     0.00921597    0.00589015   -0.00135411
     atom   10 type  2   force =    -0.01154381   -0.01229854   -0.01601567
     atom   11 type  2   force =    -0.00285578    0.01631539   -0.01616076
     atom   12 type  2   force =     0.01240915   -0.01059371   -0.00010598
     atom   13 type  2   force =     0.00795678    0.00991942    0.01420281
     atom   14 type  2   force =     0.01181683   -0.00582434    0.01933404
     atom   15 type  2   force =     0.00020757   -0.00247486    0.02931274
     atom   16 type  2   force =     0.02078961   -0.00205741    0.00376244
     atom   17 type  2   force =     0.00396953    0.01483949    0.00341589
     atom   18 type  2   force =    -0.00212287   -0.01381151    0.00064568
     atom   19 type  2   force =    -0.02527257   -0.00363352    0.01685832
     atom   20 type  2   force =     0.00387693   -0.00686154   -0.01129351
     atom   21 type  2   force =    -0.00940177    0.00338605    0.00477809
     atom   22 type  2   force =    -0.02629074    0.00744553   -0.00699225
     atom   23 type  2   force =     0.06471000    0.04128285   -0.03584909
     atom   24 type  2   force =     0.01254573   -0.00115469   -0.03028294

     Total force =     0.156423     Total SCF correction =     0.001213

     General routines

     Parallel routines

   This run was terminated on:  12: 0:34   8Sep2021

   JOB DONE.