     Program PWSCF v.6.4 starts on 10Nov2021 at 18: 8:41

     R & G space division:  proc/nbgrp/npool/nimage =      40
     Waiting for input...
     Reading input from standard input
Warning: card    &IONS ignored
Warning: card      ION_DYNAMICS = 'BFGS' ignored
Warning: card   / ignored
Warning: card    &CELL ignored
Warning: card      CELL_DYNAMICS = 'BFGS', ignored
Warning: card    / ignored

     Current dimensions of program PWSCF are:
     Max number of different atomic species (ntypx) = 10
     Max number of k-points (npk) =  40000
     Max angular momentum in pseudopotentials (lmaxx) =  3

     bravais-lattice index     =            0
     lattice parameter (alat)  =       6.1639  a.u.
     unit-cell volume          =    1175.3518 (a.u.)^3
     number of atoms/cell      =            6
     number of atomic types    =            2
     number of electrons       =        36.00
     number of Kohn-Sham states=           22
     kinetic-energy cutoff     =      45.0000  Ry
     charge density cutoff     =     360.0000  Ry
     convergence threshold     =      1.0E-06
     mixing beta               =       0.7000
     number of iterations used =            8  local-TF  mixing
     Exchange-correlation      = SLA PW GGX GGC ( 1  4  2  2 0 0)

     celldm(1)=   6.163863  celldm(2)=   0.000000  celldm(3)=   0.000000
     celldm(4)=   0.000000  celldm(5)=   0.000000  celldm(6)=   0.000000

     crystal axes: (cart. coord. in units of alat)
               a(1) = (   1.000000   0.000000   0.000000 )
               a(2) = (  -0.511095   0.854082   0.000000 )
               a(3) = (   0.134363  -0.258919   5.876373 )

     reciprocal axes: (cart. coord. in units 2 pi/alat)
               b(1) = (  1.000000  0.598414  0.003502 )
               b(2) = (  0.000000  1.170847  0.051589 )
               b(3) = (  0.000000  0.000000  0.170173 )

     PseudoPot. # 1 for Mo read from file:
     ~/pseudo/Mo.pw91-n-van.UPF
     MD5 check sum: Not computed, couldn't open file
     Pseudo is Ultrasoft + core correction, Zval =  6.0
     Generated by new atomic code, or converted to UPF format
     Using radial grid of  965 points,  3 beta functions with:
                l(1) =   1
                l(2) =   2
                l(3) =   2
     Q(r) pseudized with  8 coefficients,  rinner =    1.000   1.000   1.000
                                                       1.200   1.200

     PseudoPot. # 2 for S  read from file:
     ~/pseudo/S.pw91-van_ak.UPF
     MD5 check sum: Not computed, couldn't open file
     Pseudo is Ultrasoft, Zval =  6.0
     Generated by new atomic code, or converted to UPF format
     Using radial grid of  811 points,  6 beta functions with:
                l(1) =   0
                l(2) =   0
                l(3) =   1
                l(4) =   1
                l(5) =   2
                l(6) =   2
     Q(r) pseudized with  8 coefficients,  rinner =    1.100   1.100   1.100
                                                       1.100   1.100

     atomic species   valence    mass     pseudopotential
        Mo             6.00    95.50000     Mo( 1.00)
        S              6.00    32.06500     S ( 1.00)

     No symmetry found

   Cartesian axes

     site n.     atom                  positions (alat units)
         1           Mo  tau(   1) = (   0.4695814   0.1552823   4.7284251  )
         2           Mo  tau(   2) = (   0.1534974   0.4393828   1.1480060  )
         3           S   tau(   3) = (  -0.0260468   0.4312011   4.2482391  )
         4           S   tau(   4) = (   0.6568675   0.1551553   0.6678447  )
         5           S   tau(   5) = (  -0.0360744   0.4423011   5.2089004  )
         6           S   tau(   6) = (   0.6519575   0.1610060   1.6281983  )

     number of k points=    20  Marzari-Vanderbilt smearing, width (Ry)=  0.0200
                       cart. coord. in units 2pi/alat
        k(    1) = (   0.0000000   0.0000000   0.0000000), wk =   0.0555556
        k(    2) = (   0.0000000   0.1951412   0.0085981), wk =   0.1111111
        k(    3) = (   0.0000000   0.3902825   0.0171963), wk =   0.1111111
        k(    4) = (   0.0000000  -0.5854237  -0.0257944), wk =   0.0555556
        k(    5) = (   0.1666667   0.0997357   0.0005836), wk =   0.1111111
        k(    6) = (   0.1666667   0.2948769   0.0091818), wk =   0.1111111
        k(    7) = (   0.1666667   0.4900182   0.0177799), wk =   0.1111111
        k(    8) = (   0.1666667  -0.4856880  -0.0252107), wk =   0.1111111
        k(    9) = (   0.1666667  -0.2905468  -0.0166126), wk =   0.1111111
        k(   10) = (   0.1666667  -0.0954055  -0.0080145), wk =   0.1111111
        k(   11) = (   0.3333333   0.1994714   0.0011673), wk =   0.1111111
        k(   12) = (   0.3333333   0.3946126   0.0097654), wk =   0.1111111
        k(   13) = (   0.3333333   0.5897539   0.0183635), wk =   0.1111111
        k(   14) = (   0.3333333  -0.3859523  -0.0246271), wk =   0.1111111
        k(   15) = (   0.3333333  -0.1908111  -0.0160290), wk =   0.1111111
        k(   16) = (   0.3333333   0.0043302  -0.0074308), wk =   0.1111111
        k(   17) = (  -0.5000000  -0.2992071  -0.0017509), wk =   0.0555556
        k(   18) = (  -0.5000000  -0.1040659   0.0068472), wk =   0.1111111
        k(   19) = (  -0.5000000   0.0910753   0.0154453), wk =   0.1111111
        k(   20) = (  -0.5000000  -0.8846308  -0.0275453), wk =   0.0555556

     Initial potential from superposition of free atoms

     starting charge   35.99685, renormalised to   36.00000

     negative rho (up, down):  7.160E-06 0.000E+00
     Starting wfcs are   34 randomized atomic wfcs

     Self-consistent Calculation

     iteration #  1     ecut=    45.00 Ry     beta= 0.70
     Davidson diagonalization with overlap
     ethr =  1.00E-02,  avg # of iterations =  2.0

     negative rho (up, down):  2.529E-08 0.000E+00

     total energy              =    -140.69459008 Ry
     Harris-Foulkes estimate   =    -141.14575070 Ry
     estimated scf accuracy    <       1.15381089 Ry

[...]

     iteration #  6     ecut=    45.00 Ry     beta= 0.70
     Davidson diagonalization with overlap
     c_bands:  2 eigenvalues not converged
     ethr =  1.79E-06,  avg # of iterations =  5.8

[...]

     total energy              =    -140.92158150 Ry
     Harris-Foulkes estimate   =    -140.92158577 Ry
     estimated scf accuracy    <       0.00002004 Ry

     iteration # 12     ecut=    45.00 Ry     beta= 0.70
     Davidson diagonalization with overlap
     ethr =  5.57E-08,  avg # of iterations =  3.0

[...]

     End of self-consistent calculation

          k = 0.0000 0.0000 0.0000 (  6077 PWs)   bands (ev):

   -11.2078 -11.1991  -9.9882  -9.9731  -2.7158  -2.6402   0.0114   0.0130
     0.1824   0.1845   1.0119   1.1136   1.1251   1.2860   1.3059   1.3114
     2.7307   2.9020   5.3798   5.3927   5.4012   5.4104

[...]

          k = 0.3333 0.0043-0.0074 (  6000 PWs)   bands (ev):

[...]

          k =-0.5000-0.2992-0.0018 (  5952 PWs)   bands (ev):

[...]

          k =-0.5000-0.8846-0.0275 (  5968 PWs)   bands (ev):

    -9.5696  -9.5637  -9.2809  -9.2742  -2.8451  -2.8420  -1.8376  -1.8208
    -1.2383  -1.2118  -0.2505  -0.2474   0.8716   0.9607   1.8364   1.8430
     2.0270   2.0747   4.6763   4.6781   5.1750   5.1824

     the Fermi energy is     2.8638 ev

!    total energy              =    -140.92158567 Ry
     Harris-Foulkes estimate   =    -140.92158572 Ry
     estimated scf accuracy    <       0.00000019 Ry

     The total energy is the sum of the following terms:

     one-electron contribution =    -264.86207829 Ry
     hartree contribution      =     148.25305110 Ry
     xc contribution           =     -55.66040888 Ry
     ewald contribution        =      31.34462430 Ry
     smearing contrib. (-TS)   =       0.00322611 Ry

     convergence has been achieved in  12 iterations

     negative rho (up, down):  2.250E-05 0.000E+00

     Forces acting on atoms (cartesian axes, Ry/au):

     atom    1 type  1   force =     0.00415991   -0.00435720    0.00041721
     atom    2 type  1   force =    -0.00330473    0.00506143    0.00004136
     atom    3 type  2   force =    -0.00848663    0.00857300   -0.00292794
     atom    4 type  2   force =    -0.00088333    0.00098391   -0.00301847
     atom    5 type  2   force =     0.00342548   -0.00437041    0.00256853
     atom    6 type  2   force =     0.00508930   -0.00589072    0.00291931

     Total force =     0.018561     Total SCF correction =     0.001073

     General routines

     Parallel routines

   This run was terminated on:  18: 8:55  10Nov2021

   JOB DONE.