     Program PWSCF v.6.4 starts on 19Nov2021 at 18: 2:37

     R & G space division:  proc/nbgrp/npool/nimage =      40
     Waiting for input...
     Reading input from standard input
Warning: card    &IONS ignored
Warning: card      ION_DYNAMICS = 'BFGS' ignored
Warning: card   / ignored
Warning: card    &CELL ignored
Warning: card      CELL_DYNAMICS = 'BFGS', ignored
Warning: card    / ignored

     Current dimensions of program PWSCF are:
     Max number of different atomic species (ntypx) = 10
     Max number of k-points (npk) =  40000
     Max angular momentum in pseudopotentials (lmaxx) =  3

     bravais-lattice index     =            0
     lattice parameter (alat)  =      11.9442  a.u.
     unit-cell volume          =    7265.8338 (a.u.)^3
     number of atoms/cell      =           36
     number of atomic types    =            2
     number of electrons       =       216.00
     number of Kohn-Sham states=          130
     kinetic-energy cutoff     =      45.0000  Ry
     charge density cutoff     =     360.0000  Ry
     convergence threshold     =      1.0E-06
     mixing beta               =       0.7000
     number of iterations used =            8  local-TF  mixing
     Exchange-correlation      = SLA PW GGX GGC ( 1  4  2  2 0 0)

     celldm(1)=  11.944164  celldm(2)=   0.000000  celldm(3)=   0.000000
     celldm(4)=   0.000000  celldm(5)=   0.000000  celldm(6)=   0.000000

     crystal axes: (cart. coord. in units of alat)
               a(1) = (   1.000000   0.000000   0.000000 )
               a(2) = (   0.002374   1.772939   0.000000 )
               a(3) = (  -0.450355  -0.614703   2.405052 )

     reciprocal axes: (cart. coord. in units 2 pi/alat)
               b(1) = (  1.000000 -0.001339  0.186911 )
               b(2) = (  0.000000  0.564035  0.144161 )
               b(3) = (  0.000000  0.000000  0.415791 )

     PseudoPot. # 1 for Mo read from file:
     ~/pseudo/Mo.pw91-n-van.UPF
     MD5 check sum: Not computed, couldn't open file
     Pseudo is Ultrasoft + core correction, Zval =  6.0
     Generated by new atomic code, or converted to UPF format
     Using radial grid of  965 points,  3 beta functions with:
                l(1) =   1
                l(2) =   2
                l(3) =   2
     Q(r) pseudized with  8 coefficients,  rinner =    1.000   1.000   1.000
                                                       1.200   1.200

     PseudoPot. # 2 for S  read from file:
     ~/pseudo/S.pw91-van_ak.UPF
     MD5 check sum: Not computed, couldn't open file
     Pseudo is Ultrasoft, Zval =  6.0
     Generated by new atomic code, or converted to UPF format
     Using radial grid of  811 points,  6 beta functions with:
                l(1) =   0
                l(2) =   0
                l(3) =   1
                l(4) =   1
                l(5) =   2
                l(6) =   2
     Q(r) pseudized with  8 coefficients,  rinner =    1.100   1.100   1.100
                                                       1.100   1.100

     atomic species   valence    mass     pseudopotential
        Mo             6.00    95.50000     Mo( 1.00)
        S              6.00    32.06500     S ( 1.00)

     No symmetry found

   Cartesian axes

     site n.     atom                  positions (alat units)
         1           Mo  tau(   1) = (   0.0445429   0.6213056   1.6118249  )
         2           Mo  tau(   2) = (  -0.2040564   1.0646799   1.6087479  )
         3           Mo  tau(   3) = (   0.5428721   0.6225318   1.6130468  )
         4           Mo  tau(   4) = (   0.2959627   1.0641695   1.6086973  )
         5           Mo  tau(   5) = (   0.5421504  -0.2643898   1.6128286  )
         6           Mo  tau(   6) = (   0.0398392  -0.2641243   1.6144389  )
         7           Mo  tau(   7) = (   0.2889919   0.1807740   1.6180698  )
         8           Mo  tau(   8) = (  -0.2076306   0.1780630   1.6180887  )
         9           Mo  tau(   9) = (   0.3979869   0.0920834   0.2414173  )
        10           Mo  tau(  10) = (   0.8702393   0.0189493   0.2317464  )
        11           Mo  tau(  11) = (   0.7244895   0.0798901   0.5867311  )
        12           Mo  tau(  12) = (   0.2544297   0.0004536   0.5910461  )
        13           S   tau(  13) = (  -0.2040445   0.7720335   1.8622264  )
        14           S   tau(  14) = (   0.0415100   0.3321151   1.8693364  )
        15           S   tau(  15) = (   0.2950862   0.7729443   1.8645791  )
        16           S   tau(  16) = (   0.5432490   0.3308614   1.8681628  )
        17           S   tau(  17) = (   0.0103987   0.1876594   0.8004160  )
        18           S   tau(  18) = (   0.4329041   0.3290993   0.5314598  )
        19           S   tau(  19) = (  -0.2080153   0.7691719   1.3591037  )
        20           S   tau(  20) = (   0.0388212   0.3272532   1.3622634  )
        21           S   tau(  21) = (   0.2924631   0.7700412   1.3578175  )
        22           S   tau(  22) = (   0.5400273   0.3271520   1.3675370  )
        23           S   tau(  23) = (  -0.0589904   1.5495641   0.5141685  )
        24           S   tau(  24) = (   0.5142580  -0.1076695   0.8311941  )
        25           S   tau(  25) = (   0.5469850   1.2136980   1.8605791  )
        26           S   tau(  26) = (   0.0473224   1.2128128   1.8621019  )
        27           S   tau(  27) = (   0.5449537   1.2161512   1.3571705  )
        28           S   tau(  28) = (   0.0448247   1.2162086   1.3589453  )
        29           S   tau(  29) = (   0.2882288  -0.1126471   1.3652662  )
        30           S   tau(  30) = (  -0.2096496  -0.1143297   1.3623210  )
        31           S   tau(  31) = (   0.6859061   0.3391026   0.3157368  )
        32           S   tau(  32) = (   0.1141650   0.2253361   0.0399585  )
        33           S   tau(  33) = (   0.2916617  -0.1141461   1.8653774  )
        34           S   tau(  34) = (  -0.2096048  -0.1162200   1.8687211  )
        35           S   tau(  35) = (   0.1624410   1.0745632   2.3951440  )
        36           S   tau(  36) = (   0.1832861   1.5587004   0.2882839  )

     number of k points=     4  Marzari-Vanderbilt smearing, width (Ry)=  0.0200
                       cart. coord. in units 2pi/alat
        k(    1) = (   0.0000000   0.0000000   0.0000000), wk =   0.3333333
        k(    2) = (   0.0000000  -0.2820177  -0.0720804), wk =   0.3333333
        k(    3) = (   0.3333333  -0.0004463   0.0623038), wk =   0.6666667
        k(    4) = (   0.3333333  -0.2824639  -0.0097766), wk =   0.6666667

     Initial potential from superposition of free atoms

     starting charge  215.98107, renormalised to  216.00000

     negative rho (up, down):  1.903E-06 0.000E+00
     Starting wfcs are  204 randomized atomic wfcs

     Self-consistent Calculation

     iteration #  1     ecut=    45.00 Ry     beta= 0.70
     Davidson diagonalization with overlap
     ethr =  1.00E-02,  avg # of iterations =  2.0

     total energy              =    -843.67748759 Ry
     Harris-Foulkes estimate   =    -846.01834320 Ry
     estimated scf accuracy    <       6.03539317 Ry

[...]

     iteration #  5     ecut=    45.00 Ry     beta= 0.70
     Davidson diagonalization with overlap
     c_bands:  1 eigenvalues not converged
     ethr =  4.30E-05,  avg # of iterations = 10.0

[...]

     negative rho (up, down):  3.289E-06 0.000E+00

[...]

     total energy              =    -844.82547346 Ry
     Harris-Foulkes estimate   =    -844.82547406 Ry
     estimated scf accuracy    <       0.00000247 Ry

     iteration # 19     ecut=    45.00 Ry     beta= 0.70
     Davidson diagonalization with overlap
     ethr =  1.14E-09,  avg # of iterations =  3.0

[...]

     End of self-consistent calculation

          k = 0.0000 0.0000 0.0000 ( 37051 PWs)   bands (ev):

   -13.2293 -12.8639 -11.4630 -10.7024 -10.6962 -10.3017  -9.9465  -9.9416
    -9.7211  -9.6740  -9.6669  -9.6438  -9.6361  -9.6014  -9.5116  -9.4190
    -9.4028  -9.3906  -9.3867  -9.3734  -9.1965  -9.0971  -9.0290  -8.9274
    -3.6062  -3.1876  -3.1274  -3.0912  -3.0859  -2.9469  -2.8400  -2.7688
    -2.5621  -2.4948  -2.4874  -2.4310  -2.3112  -2.3021  -2.2757  -2.2717
    -2.1978  -2.1947  -2.1477  -1.7088  -1.4688  -1.4526  -1.4346  -1.3497
    -1.2472  -1.2411  -1.0141  -1.0065  -0.9790  -0.9531  -0.7622  -0.7447
    -0.6983  -0.6864  -0.6574  -0.6195  -0.5927  -0.5689  -0.3550  -0.3256
    -0.2839  -0.2318  -0.2149  -0.1301  -0.0994  -0.0611   0.1069   0.1729
     0.2450   0.3003   0.3290   0.3379   0.4191   0.5745   0.6279   0.6918
     0.8229   0.8774   0.8977   0.9888   0.9959   1.0426   1.0669   1.1652
     1.2132   1.2558   1.2699   1.6052   1.6190   1.7309   1.7362   1.8089
     1.8401   1.9289   1.9586   2.0121   2.0217   2.1003   2.2141   2.3253
     2.4431   2.4833   3.1537   3.1789   3.4230   3.5967   3.6571   3.9912
     4.0874   4.5274   4.5559   4.6272   4.6367   4.6517   4.6589   4.6731
     4.8315   4.8963   4.9085   5.0879   5.1253   5.1906   5.1963   5.2654
     5.2751   5.2868

[...]

          k = 0.3333-0.2825-0.0098 ( 37020 PWs)   bands (ev):

   -13.1336 -12.9505 -10.9827 -10.9741 -10.2980 -10.2906 -10.0662 -10.0560
    -9.8807  -9.8689  -9.7196  -9.7101  -9.5816  -9.5724  -9.5445  -9.5379
    -9.4939  -9.3619  -9.3569  -9.3168  -9.2539  -9.1885  -9.0537  -8.9468
    -3.4968  -3.3069  -2.8079  -2.6826  -2.5443  -2.5354  -2.4918  -2.4856
    -2.4526  -2.4415  -2.4384  -2.4343  -2.4167  -2.4081  -2.3990  -2.2348
    -1.9645  -1.9508  -1.6670  -1.4086  -1.4038  -1.3313  -1.2620  -1.2428
    -1.1923  -1.1855  -1.1744  -1.1670  -0.9629  -0.9112  -0.8357  -0.8217
    -0.7044  -0.6633  -0.6029  -0.5956  -0.5738  -0.5456  -0.4340  -0.3905
    -0.3290  -0.2628  -0.2501  -0.2335  -0.2198  -0.2119  -0.1431  -0.0777
     0.0005   0.1711   0.3035   0.3281   0.3382   0.3605   0.3751   0.5298
     0.5458   0.6082   0.6781   0.7411   0.7700   0.9488   0.9677   0.9916
     1.0714   1.0960   1.1109   1.1442   1.4988   1.5209   1.6314   1.6411
     1.7995   1.9515   1.9721   1.9750   2.0898   2.1074   2.2595   2.2688
     2.3763   2.7240   2.8841   3.0863   3.5548   3.7577   3.8835   4.1558
     4.2909   4.5128   4.5311   4.5416   4.5482   4.5671   4.6287   4.6413
     4.6802   4.7152   4.8388   4.8476   4.9351   4.9411   4.9722   4.9819
     5.0038   5.0885

     the Fermi energy is     3.3100 ev

!    total energy              =    -844.82547387 Ry
     Harris-Foulkes estimate   =    -844.82547386 Ry
     estimated scf accuracy    <       0.00000018 Ry

     The total energy is the sum of the following terms:

     one-electron contribution =   -1173.83960201 Ry
     hartree contribution      =     680.40317265 Ry
     xc contribution           =    -334.41787912 Ry
     ewald contribution        =     -16.97330064 Ry
     smearing contrib. (-TS)   =       0.00213525 Ry

     convergence has been achieved in  19 iterations

     negative rho (up, down):  2.751E-05 0.000E+00

     Forces acting on atoms (cartesian axes, Ry/au):

     atom    1 type  1   force =    -0.00564697    0.00691058    0.00161811
     atom    2 type  1   force =    -0.00284408    0.00372353    0.00435013
     atom    3 type  1   force =     0.00095197    0.00482503    0.00065540
     atom    4 type  1   force =    -0.00198533    0.00672929    0.00519107
     atom    5 type  1   force =    -0.00636263    0.00653558    0.00081268
     atom    6 type  1   force =     0.00443648    0.00114785    0.00060586
     atom    7 type  1   force =     0.00649710    0.00141240   -0.00607434
     atom    8 type  1   force =    -0.00474971    0.00639491   -0.00595569
     atom    9 type  1   force =    -0.02730493    0.08040299   -0.10728176
     atom   10 type  1   force =     0.03766146   -0.09899460   -0.12021713
     atom   11 type  1   force =     0.02570108    0.08343727    0.11420882
     atom   12 type  1   force =    -0.03887327   -0.10724514    0.11196932
     atom   13 type  2   force =    -0.00290823    0.00050042   -0.00284443
     atom   14 type  2   force =    -0.00099685   -0.00426552   -0.00568240
     atom   15 type  2   force =    -0.00298056   -0.00147070   -0.00854672
     atom   16 type  2   force =    -0.00423060   -0.00312783   -0.00454852
     atom   17 type  2   force =    -0.02586416    0.04459931    0.01426368
     atom   18 type  2   force =    -0.09191948    0.06357957    0.07982986
     atom   19 type  2   force =     0.00435321   -0.00073866    0.00502717
     atom   20 type  2   force =     0.00486133   -0.00349821    0.00969991
     atom   21 type  2   force =     0.00461484   -0.00254373    0.00697501
     atom   22 type  2   force =     0.00317731   -0.00400505   -0.00279361
     atom   23 type  2   force =    -0.09357819   -0.06162274    0.09117543
     atom   24 type  2   force =    -0.03940318   -0.03478399   -0.00704084
     atom   25 type  2   force =    -0.00292170   -0.00401815   -0.00171164
     atom   26 type  2   force =    -0.00401589   -0.00219376   -0.00596317
     atom   27 type  2   force =     0.00155837   -0.00177913    0.00707650
     atom   28 type  2   force =     0.00169637   -0.00030619    0.00362942
     atom   29 type  2   force =     0.00513768   -0.00064778    0.00149493
     atom   30 type  2   force =     0.00209402    0.00201422    0.00627519
     atom   31 type  2   force =     0.09532567    0.07291211   -0.07156856
     atom   32 type  2   force =     0.02480970    0.04565001   -0.01118754
     atom   33 type  2   force =    -0.00134898   -0.00661868   -0.00036344
     atom   34 type  2   force =     0.00078873   -0.00322644   -0.00757561
     atom   35 type  2   force =     0.03826333   -0.03261862    0.00322084
     atom   36 type  2   force =     0.09600609   -0.05707013   -0.09872395

     Total force =     0.429490     Total SCF correction =     0.000597

     General routines

     Parallel routines

   This run was terminated on:  18: 5: 3  19Nov2021

   JOB DONE.