     Program PWSCF v.6.4 starts on 18Nov2021 at 21: 3: 0

     R & G space division:  proc/nbgrp/npool/nimage =      40
     Waiting for input...
     Reading input from standard input
Warning: card    &IONS ignored
Warning: card      ION_DYNAMICS = 'BFGS' ignored
Warning: card   / ignored
Warning: card    &CELL ignored
Warning: card      CELL_DYNAMICS = 'BFGS', ignored
Warning: card    / ignored

     Current dimensions of program PWSCF are:
     Max number of different atomic species (ntypx) = 10
     Max number of k-points (npk) =  40000
     Max angular momentum in pseudopotentials (lmaxx) =  3

     bravais-lattice index     =            0
     lattice parameter (alat)  =      11.7127  a.u.
     unit-cell volume          =    4089.2237 (a.u.)^3
     number of atoms/cell      =           18
     number of atomic types    =            2
     number of electrons       =       108.00
     number of Kohn-Sham states=           65
     kinetic-energy cutoff     =      45.0000  Ry
     charge density cutoff     =     360.0000  Ry
     convergence threshold     =      1.0E-06
     mixing beta               =       0.7000
     number of iterations used =            8  local-TF  mixing
     Exchange-correlation      = SLA PW GGX GGC ( 1  4  2  2 0 0)

     celldm(1)=  11.712694  celldm(2)=   0.000000  celldm(3)=   0.000000
     celldm(4)=   0.000000  celldm(5)=   0.000000  celldm(6)=   0.000000

     crystal axes: (cart. coord. in units of alat)
               a(1) = (   1.000000   0.000000   0.000000 )
               a(2) = (   0.504427   0.907398   0.000000 )
               a(3) = (   0.074807   0.387463   2.804612 )

     reciprocal axes: (cart. coord. in units 2 pi/alat)
               b(1) = (  1.000000 -0.555905  0.050127 )
               b(2) = (  0.000000  1.102053 -0.152251 )
               b(3) = (  0.000000  0.000000  0.356556 )

     PseudoPot. # 1 for Mo read from file:
     ~/pseudo/Mo.pw91-n-van.UPF
     MD5 check sum: Not computed, couldn't open file
     Pseudo is Ultrasoft + core correction, Zval =  6.0
     Generated by new atomic code, or converted to UPF format
     Using radial grid of  965 points,  3 beta functions with:
                l(1) =   1
                l(2) =   2
                l(3) =   2
     Q(r) pseudized with  8 coefficients,  rinner =    1.000   1.000   1.000
                                                       1.200   1.200

     PseudoPot. # 2 for S  read from file:
     ~/pseudo/S.pw91-van_ak.UPF
     MD5 check sum: Not computed, couldn't open file
     Pseudo is Ultrasoft, Zval =  6.0
     Generated by new atomic code, or converted to UPF format
     Using radial grid of  811 points,  6 beta functions with:
                l(1) =   0
                l(2) =   0
                l(3) =   1
                l(4) =   1
                l(5) =   2
                l(6) =   2
     Q(r) pseudized with  8 coefficients,  rinner =    1.100   1.100   1.100
                                                       1.100   1.100

     atomic species   valence    mass     pseudopotential
        Mo             6.00    95.50000     Mo( 1.00)
        S              6.00    32.06500     S ( 1.00)

     No symmetry found

   Cartesian axes

     site n.     atom                  positions (alat units)
         1           Mo  tau(   1) = (   1.1033503   1.0730579   1.7435243  )
         2           Mo  tau(   2) = (   0.3550274   0.6213870   1.7404676  )
         3           Mo  tau(   3) = (   0.6064397   1.0747035   1.7427469  )
         4           Mo  tau(   4) = (   0.8537745   0.6225456   1.7429729  )
         5           Mo  tau(   5) = (   1.0341737   0.3152926   0.7668960  )
         6           Mo  tau(   6) = (   0.5264516   0.3210952   0.7608722  )
         7           S   tau(   7) = (   1.3550426   0.9200339   2.0006015  )
         8           S   tau(   8) = (   0.6048695   0.4648336   2.0010146  )
         9           S   tau(   9) = (   0.8538107   0.9198686   2.0035158  )
        10           S   tau(  10) = (   1.1061524   0.4675157   1.9999026  )
        11           S   tau(  11) = (   0.7752620   0.2570163   1.0168076  )
        12           S   tau(  12) = (   0.7891133   0.9542372   0.7038895  )
        13           S   tau(  13) = (   1.3542698   0.9234115   1.4838717  )
        14           S   tau(  14) = (   0.6051509   0.4629841   1.4831639  )
        15           S   tau(  15) = (   0.8538463   0.9213198   1.4799079  )
        16           S   tau(  16) = (   1.1017567   0.4669074   1.4809896  )
        17           S   tau(  17) = (   0.7854890   0.3882884   0.5036306  )
        18           S   tau(  18) = (   0.2755774   0.5908739   0.8097319  )

     number of k points=     5  Marzari-Vanderbilt smearing, width (Ry)=  0.0200
                       cart. coord. in units 2pi/alat
        k(    1) = (   0.0000000   0.0000000   0.0000000), wk =   0.2222222
        k(    2) = (   0.0000000   0.3673509  -0.0507503), wk =   0.4444444
        k(    3) = (   0.3333333  -0.1853016   0.0167089), wk =   0.4444444
        k(    4) = (   0.3333333   0.1820493  -0.0340414), wk =   0.4444444
        k(    5) = (   0.3333333  -0.5526525   0.0674592), wk =   0.4444444

     Initial potential from superposition of free atoms

     starting charge  107.99054, renormalised to  108.00000

     negative rho (up, down):  3.718E-05 0.000E+00
     Starting wfcs are  102 randomized atomic wfcs

     Self-consistent Calculation

     iteration #  1     ecut=    45.00 Ry     beta= 0.70
     Davidson diagonalization with overlap
     ethr =  1.00E-02,  avg # of iterations =  2.4

     negative rho (up, down):  1.095E-07 0.000E+00

     total energy              =    -421.89815486 Ry
     Harris-Foulkes estimate   =    -423.14789779 Ry
     estimated scf accuracy    <       3.17818421 Ry

[...]

     iteration # 19     ecut=    45.00 Ry     beta= 0.70
     Davidson diagonalization with overlap
     c_bands:  1 eigenvalues not converged
     c_bands:  1 eigenvalues not converged
     ethr =  1.19E-07,  avg # of iterations = 13.2

[...]

     total energy              =    -422.51804256 Ry
     Harris-Foulkes estimate   =    -422.51804496 Ry
     estimated scf accuracy    <       0.00001084 Ry

     iteration # 25     ecut=    45.00 Ry     beta= 0.70
     Davidson diagonalization with overlap
     ethr =  1.00E-08,  avg # of iterations =  2.0

[...]

     End of self-consistent calculation

          k = 0.0000 0.0000 0.0000 ( 20787 PWs)   bands (ev):

   -12.3998 -11.3271 -11.1897 -10.6316 -10.6041 -10.4849 -10.4636 -10.4427
   -10.4013 -10.3602 -10.2765 -10.2447  -4.1063  -4.0360  -4.0161  -3.9182
    -3.2828  -3.1814  -3.1769  -3.0815  -2.4092  -2.3872  -2.3200  -2.0253
    -1.9544  -1.6796  -1.6607  -1.5624  -1.5371  -1.5227  -1.5052  -1.4625
    -0.9738  -0.9678  -0.9441  -0.6206  -0.4679  -0.3868  -0.3362  -0.2323
    -0.1672   0.1421   0.2234   0.4510   0.5748   0.7111   0.7718   0.8291
     1.0603   1.0950   1.2097   1.4584   1.5880   1.6469   2.0952   2.8072
     3.4747   3.7753   3.7972   3.8334   3.8720   4.1201   4.2759   4.3172
     4.3953

[...]

          k = 0.3333-0.5527 0.0675 ( 20862 PWs)   bands (ev):

   -11.4149 -11.3606 -11.2958 -10.9675 -10.7727 -10.7502 -10.6868 -10.5692
   -10.5442 -10.4655 -10.2507 -10.1518  -3.6265  -3.2286  -3.1246  -3.1051
    -2.8745  -2.7278  -2.3354  -2.2349  -2.2024  -2.1278  -2.0731  -2.0487
    -2.0043  -1.9712  -1.9267  -1.8508  -1.8395  -1.8077  -1.5555  -1.5357
    -1.4708  -1.4246  -1.3526  -1.2724  -1.1909  -1.0823  -0.6318  -0.4903
    -0.2462  -0.1966  -0.1654  -0.1094  -0.0605   0.5290   0.5710   0.6354
     0.8065   0.9198   0.9386   1.5337   1.6842   1.8610   2.6620   3.3506
     3.3945   3.4531   3.4954   3.5331   3.6181   3.8814   4.0069   4.0383
     4.1116

     the Fermi energy is     1.9652 ev

!    total energy              =    -422.51804320 Ry
     Harris-Foulkes estimate   =    -422.51804359 Ry
     estimated scf accuracy    <       0.00000054 Ry

     The total energy is the sum of the following terms:

     one-electron contribution =   -1001.94940628 Ry
     hartree contribution      =     544.21137266 Ry
     xc contribution           =    -166.86157847 Ry
     ewald contribution        =     202.07639417 Ry
     smearing contrib. (-TS)   =       0.00517471 Ry

     convergence has been achieved in  25 iterations

     negative rho (up, down):  1.219E-04 0.000E+00

     Forces acting on atoms (cartesian axes, Ry/au):

     atom    1 type  1   force =     0.00816116   -0.00022999   -0.00739007
     atom    2 type  1   force =    -0.00177266   -0.00697144    0.00168789
     atom    3 type  1   force =    -0.00567467    0.00100739   -0.00645923
     atom    4 type  1   force =     0.00222963   -0.01169377   -0.00925911
     atom    5 type  1   force =     0.01048868    0.00185852   -0.02970612
     atom    6 type  1   force =    -0.01259225    0.00868414   -0.02817922
     atom    7 type  2   force =     0.00110981    0.00047821   -0.00603997
     atom    8 type  2   force =    -0.00440055    0.00642851   -0.00819881
     atom    9 type  2   force =     0.00046651    0.00147331   -0.00880595
     atom   10 type  2   force =    -0.00396052    0.00255848   -0.00675812
     atom   11 type  2   force =     0.00319203   -0.00969860    0.06443205
     atom   12 type  2   force =    -0.00541880   -0.01118977   -0.00104298
     atom   13 type  2   force =     0.00244271   -0.00775154    0.01209728
     atom   14 type  2   force =    -0.00463192    0.01096100    0.01448757
     atom   15 type  2   force =     0.00093961   -0.00141850    0.01789644
     atom   16 type  2   force =     0.00537860    0.00407122    0.01698645
     atom   17 type  2   force =    -0.00239468   -0.00284490   -0.02915446
     atom   18 type  2   force =     0.00643730    0.01427774    0.01340635

     Total force =     0.098677     Total SCF correction =     0.001782

     General routines

     Parallel routines

   This run was terminated on:  21: 4: 8  18Nov2021

   JOB DONE.