     Program PWSCF v.6.4 starts on 28Nov2021 at 10: 5: 5

     R & G space division:  proc/nbgrp/npool/nimage =      40
     Waiting for input...
     Reading input from standard input
Warning: card    &IONS ignored
Warning: card      ION_DYNAMICS = 'BFGS' ignored
Warning: card   / ignored
Warning: card    &CELL ignored
Warning: card      CELL_DYNAMICS = 'BFGS', ignored
Warning: card    / ignored

     Current dimensions of program PWSCF are:
     Max number of different atomic species (ntypx) = 10
     Max number of k-points (npk) =  40000
     Max angular momentum in pseudopotentials (lmaxx) =  3

     bravais-lattice index     =            0
     lattice parameter (alat)  =      12.2199  a.u.
     unit-cell volume          =    3392.9783 (a.u.)^3
     number of atoms/cell      =           24
     number of atomic types    =            2
     number of electrons       =       144.00
     number of Kohn-Sham states=           86
     kinetic-energy cutoff     =      45.0000  Ry
     charge density cutoff     =     360.0000  Ry
     convergence threshold     =      1.0E-06
     mixing beta               =       0.7000
     number of iterations used =            8  local-TF  mixing
     Exchange-correlation      = SLA PW GGX GGC ( 1  4  2  2 0 0)

     celldm(1)=  12.219854  celldm(2)=   0.000000  celldm(3)=   0.000000
     celldm(4)=   0.000000  celldm(5)=   0.000000  celldm(6)=   0.000000

     crystal axes: (cart. coord. in units of alat)
               a(1) = (   0.999999  -0.001030  -0.000056 )
               a(2) = (  -0.499962   0.866048   0.000015 )
               a(3) = (  -0.165165  -0.187480   2.148334 )

     reciprocal axes: (cart. coord. in units 2 pi/alat)
               b(1) = (  1.000603  0.577637  0.127336 )
               b(2) = (  0.001196  1.155358  0.100918 )
               b(3) = (  0.000026  0.000007  0.465480 )

     PseudoPot. # 1 for Mo read from file:
     ~/pseudo/Mo.pw91-n-van.UPF
     MD5 check sum: Not computed, couldn't open file
     Pseudo is Ultrasoft + core correction, Zval =  6.0
     Generated by new atomic code, or converted to UPF format
     Using radial grid of  965 points,  3 beta functions with:
                l(1) =   1
                l(2) =   2
                l(3) =   2
     Q(r) pseudized with  8 coefficients,  rinner =    1.000   1.000   1.000
                                                       1.200   1.200

     PseudoPot. # 2 for S  read from file:
     ~/pseudo/S.pw91-van_ak.UPF
     MD5 check sum: Not computed, couldn't open file
     Pseudo is Ultrasoft, Zval =  6.0
     Generated by new atomic code, or converted to UPF format
     Using radial grid of  811 points,  6 beta functions with:
                l(1) =   0
                l(2) =   0
                l(3) =   1
                l(4) =   1
                l(5) =   2
                l(6) =   2
     Q(r) pseudized with  8 coefficients,  rinner =    1.100   1.100   1.100
                                                       1.100   1.100

     atomic species   valence    mass     pseudopotential
        Mo             6.00    95.50000     Mo( 1.00)
        S              6.00    32.06500     S ( 1.00)

     No symmetry found

   Cartesian axes

     site n.     atom                  positions (alat units)
         1           Mo  tau(   1) = (   0.2796786   0.2742879   1.5539780  )
         2           Mo  tau(   2) = (   0.3684756   0.4998389   1.1629254  )
         3           Mo  tau(   3) = (   0.6989824   0.0200992   0.5772485  )
         4           Mo  tau(   4) = (  -0.4803430   0.6911038   1.5541536  )
         5           Mo  tau(   5) = (   0.4528058   0.4515539   0.5683674  )
         6           Mo  tau(   6) = (   0.0291504   0.6974658   1.5725611  )
         7           Mo  tau(   7) = (  -0.0500510   0.4545267   0.5770139  )
         8           Mo  tau(   8) = (   0.1998563   0.0207401   0.5799598  )
         9           S   tau(   9) = (   0.2002727   0.3073817   0.3333480  )
        10           S   tau(  10) = (   0.2072205   0.3176968   0.8222456  )
        11           S   tau(  11) = (   0.7017129   0.3077682   0.3301216  )
        12           S   tau(  12) = (   0.6974219   0.3104438   0.8200147  )
        13           S   tau(  13) = (   0.7782424  -0.0177342   1.7974944  )
        14           S   tau(  14) = (   0.7817336  -0.0409244   1.3014138  )
        15           S   tau(  15) = (   0.4511350   0.7425065   0.3336427  )
        16           S   tau(  16) = (   0.4458712   0.7310815   0.8222029  )
        17           S   tau(  17) = (   0.4578985   0.4483781   1.8408313  )
        18           S   tau(  18) = (   0.6089403   0.3611547   1.3956808  )
        19           S   tau(  19) = (  -0.0521243   0.7436132   0.3363226  )
        20           S   tau(  20) = (  -0.0505259   0.7423430   0.8219723  )
        21           S   tau(  21) = (   0.0236288   0.4067029   1.7978885  )
        22           S   tau(  22) = (   0.0434027   0.4138325   1.3021960  )
        23           S   tau(  23) = (   0.2669979  -0.0180395   1.7959148  )
        24           S   tau(  24) = (   0.2832357  -0.0273975   1.3227788  )

     number of k points=    10  Marzari-Vanderbilt smearing, width (Ry)=  0.0200
                       cart. coord. in units 2pi/alat
        k(    1) = (   0.0000000   0.0000000   0.0000000), wk =   0.1111111
        k(    2) = (  -0.0000130  -0.0000034  -0.2327398), wk =   0.1111111
        k(    3) = (   0.0003986   0.3851194   0.0336392), wk =   0.2222222
        k(    4) = (   0.0003856   0.3851161  -0.1991006), wk =   0.2222222
        k(    5) = (   0.3335342   0.1925455   0.0424452), wk =   0.2222222
        k(    6) = (   0.3335212   0.1925421  -0.1902945), wk =   0.2222222
        k(    7) = (   0.3339328   0.5776649   0.0760844), wk =   0.2222222
        k(    8) = (   0.3339198   0.5776616  -0.1566554), wk =   0.2222222
        k(    9) = (   0.3331356  -0.1925739   0.0088061), wk =   0.2222222
        k(   10) = (   0.3331226  -0.1925773  -0.2239337), wk =   0.2222222

     Initial potential from superposition of free atoms

     starting charge  143.98738, renormalised to  144.00000
     Starting wfcs are  136 randomized atomic wfcs

     Self-consistent Calculation

     iteration #  1     ecut=    45.00 Ry     beta= 0.70
     Davidson diagonalization with overlap
     ethr =  1.00E-02,  avg # of iterations =  2.0

     total energy              =    -562.15031972 Ry
     Harris-Foulkes estimate   =    -564.21765001 Ry
     estimated scf accuracy    <       6.39084457 Ry

[...]

     total energy              =    -563.23703991 Ry
     Harris-Foulkes estimate   =    -563.23704117 Ry
     estimated scf accuracy    <       0.00000724 Ry

     iteration # 14     ecut=    45.00 Ry     beta= 0.70
     Davidson diagonalization with overlap
     ethr =  5.03E-09,  avg # of iterations =  3.0

     End of self-consistent calculation

          k = 0.0000 0.0000 0.0000 ( 17263 PWs)   bands (ev):

    -8.3465  -7.4356  -7.1357  -6.7590  -6.6432  -6.5612  -6.3034  -6.2856
    -6.2801  -6.2548  -5.9641  -5.7915  -5.7749  -5.4643  -4.9385  -4.7242
    -0.1632   0.0338   0.0811   0.1440   0.7821   0.8504   0.9181   1.0288
     1.0672   1.1465   1.3203   1.4840   1.6810   1.7034   1.9743   2.0309
     2.2248   2.5346   2.5622   2.6217   2.6752   2.8598   3.0665   3.1143
     3.1340   3.2375   3.3509   3.5379   3.7082   3.7368   3.8086   3.8819
     4.0074   4.1620   4.2004   4.2252   4.3502   4.6283   4.6587   4.7026
     4.7195   4.8189   4.8980   4.9504   5.0075   5.0454   5.0834   5.1583
     5.6326   5.6697   6.0436   6.1798   6.2711   6.6401   6.8312   6.8745
     7.2225   7.6687   7.6704   7.7227   7.7942   7.9763   8.1860   8.1910
     8.2981   8.3615   8.4275   8.5302   8.5546   8.6338

          k =-0.0000-0.0000-0.2327 ( 17244 PWs)   bands (ev):

[...]

          k = 0.3331-0.1926-0.2239 ( 17261 PWs)   bands (ev):

    -8.0036  -7.2138  -7.1085  -6.8983  -6.7742  -6.6014  -6.5224  -6.4266
    -6.2794  -6.2460  -5.9732  -5.9159  -5.8031  -5.5513  -4.9431  -4.8489
     0.1939   0.5361   0.5438   0.5616   0.9369   0.9596   1.1674   1.3020
     1.3101   1.5011   1.5109   1.7755   1.9021   1.9525   1.9755   2.1212
     2.3750   2.4753   2.4809   2.5110   2.7096   2.8384   2.9190   2.9227
     3.0289   3.1930   3.2981   3.4155   3.4251   3.5290   3.6260   3.6620
     3.6998   3.7579   3.8881   4.0299   4.1255   4.1326   4.3256   4.4478
     4.5580   4.5971   4.6746   4.6790   4.8211   5.1693   5.2142   5.2411
     5.5236   5.6345   5.7151   5.8508   5.9406   6.5498   6.8880   6.8934
     7.1680   7.3901   7.4277   7.7009   7.7672   7.8643   7.9377   8.1007
     8.1290   8.1852   8.2234   8.2489   8.5099   8.6080

     the Fermi energy is     7.0878 ev

!    total energy              =    -563.23704004 Ry
     Harris-Foulkes estimate   =    -563.23704071 Ry
     estimated scf accuracy    <       0.00000079 Ry

     The total energy is the sum of the following terms:

     one-electron contribution =    -123.73611592 Ry
     hartree contribution      =     143.24391639 Ry
     xc contribution           =    -222.59843195 Ry
     ewald contribution        =    -360.14465531 Ry
     smearing contrib. (-TS)   =      -0.00175325 Ry

     convergence has been achieved in  14 iterations

     Forces acting on atoms (cartesian axes, Ry/au):

     atom    1 type  1   force =    -0.00337541   -0.00338402    0.00350105
     atom    2 type  1   force =    -0.01807305    0.01114262    0.01892543
     atom    3 type  1   force =     0.00051905   -0.00142789    0.00452728
     atom    4 type  1   force =     0.00178416    0.00436562    0.00345471
     atom    5 type  1   force =     0.00152591   -0.00071621    0.00472324
     atom    6 type  1   force =     0.00570936   -0.00313917   -0.00500241
     atom    7 type  1   force =     0.00109489   -0.00012795    0.00458416
     atom    8 type  1   force =     0.00004783   -0.00031748    0.00222542
     atom    9 type  2   force =    -0.00573624   -0.00149099   -0.00294452
     atom   10 type  2   force =     0.00142035   -0.00193193    0.00109665
     atom   11 type  2   force =     0.00648898   -0.00378664   -0.00212042
     atom   12 type  2   force =     0.00022317   -0.00024071    0.00126875
     atom   13 type  2   force =    -0.00623706   -0.00543201   -0.00752096
     atom   14 type  2   force =     0.00164606   -0.00441899   -0.00186829
     atom   15 type  2   force =    -0.00081295    0.00578953   -0.00317817
     atom   16 type  2   force =     0.00296428    0.00007468    0.00111000
     atom   17 type  2   force =     0.00238868   -0.00162731   -0.00258621
     atom   18 type  2   force =    -0.01196121    0.00696378    0.00358814
     atom   19 type  2   force =     0.00067652   -0.00070256   -0.00751281
     atom   20 type  2   force =     0.00343424   -0.00183628   -0.00260772
     atom   21 type  2   force =     0.00211180    0.00769850   -0.00692552
     atom   22 type  2   force =     0.00483789    0.00036741   -0.00158535
     atom   23 type  2   force =     0.01114330   -0.00634281   -0.00291251
     atom   24 type  2   force =    -0.00182057    0.00052082   -0.00223995

     Total force =     0.044243     Total SCF correction =     0.002422

     General routines

     Parallel routines

   This run was terminated on:  10: 6:15  28Nov2021

   JOB DONE.