     Program PWSCF v.6.4 starts on 12Aug2021 at 14:28:46

     R & G space division:  proc/nbgrp/npool/nimage =      40
     Waiting for input...
     Reading input from standard input
Warning: card    &IONS ignored
Warning: card      ION_DYNAMICS = 'BFGS' ignored
Warning: card   / ignored
Warning: card    &CELL ignored
Warning: card      CELL_DYNAMICS = 'BFGS', ignored
Warning: card    / ignored

     Current dimensions of program PWSCF are:
     Max number of different atomic species (ntypx) = 10
     Max number of k-points (npk) =  40000
     Max angular momentum in pseudopotentials (lmaxx) =  3

     bravais-lattice index     =            0
     lattice parameter (alat)  =      12.3414  a.u.
     unit-cell volume          =    4836.6158 (a.u.)^3
     number of atoms/cell      =           36
     number of atomic types    =            2
     number of electrons       =       216.00
     number of Kohn-Sham states=          130
     kinetic-energy cutoff     =      45.0000  Ry
     charge density cutoff     =     360.0000  Ry
     convergence threshold     =      1.0E-06
     mixing beta               =       0.7000
     number of iterations used =            8  local-TF  mixing
     Exchange-correlation      = SLA PW GGX GGC ( 1  4  2  2 0 0)

     celldm(1)=  12.341425  celldm(2)=   0.000000  celldm(3)=   0.000000
     celldm(4)=   0.000000  celldm(5)=   0.000000  celldm(6)=   0.000000

     crystal axes: (cart. coord. in units of alat)
               a(1) = (   0.999969  -0.005685   0.005481 )
               a(2) = (  -0.499617   0.864704  -0.015999 )
               a(3) = (  -0.083439  -0.121505   2.986945 )

     reciprocal axes: (cart. coord. in units 2 pi/alat)
               b(1) = (  1.003049  0.580506  0.051634 )
               b(2) = (  0.006341  1.161006  0.047405 )
               b(3) = ( -0.001807  0.005153  0.334949 )

     PseudoPot. # 1 for Mo read from file:
     ~/pseudo/Mo.pw91-n-van.UPF
     MD5 check sum: Not computed, couldn't open file
     Pseudo is Ultrasoft + core correction, Zval =  6.0
     Generated by new atomic code, or converted to UPF format
     Using radial grid of  965 points,  3 beta functions with:
                l(1) =   1
                l(2) =   2
                l(3) =   2
     Q(r) pseudized with  8 coefficients,  rinner =    1.000   1.000   1.000
                                                       1.200   1.200

     PseudoPot. # 2 for S  read from file:
     ~/pseudo/S.pw91-van_ak.UPF
     MD5 check sum: Not computed, couldn't open file
     Pseudo is Ultrasoft, Zval =  6.0
     Generated by new atomic code, or converted to UPF format
     Using radial grid of  811 points,  6 beta functions with:
                l(1) =   0
                l(2) =   0
                l(3) =   1
                l(4) =   1
                l(5) =   2
                l(6) =   2
     Q(r) pseudized with  8 coefficients,  rinner =    1.100   1.100   1.100
                                                       1.100   1.100

     atomic species   valence    mass     pseudopotential
        Mo             6.00    95.50000     Mo( 1.00)
        S              6.00    32.06500     S ( 1.00)

     No symmetry found

   Cartesian axes

     site n.     atom                  positions (alat units)
         1           Mo  tau(   1) = (   0.2438656   0.1311441   0.9816049  )
         2           Mo  tau(   2) = (  -0.0116131   0.5557444   0.9783209  )
         3           Mo  tau(   3) = (   0.7345516   0.1295817   0.9908513  )
         4           Mo  tau(   4) = (   0.4865992   0.5644543   1.0006632  )
         5           Mo  tau(   5) = (  -0.0513214   0.1938749   1.9866107  )
         6           Mo  tau(   6) = (  -0.3011658   0.6183005   1.9661616  )
         7           Mo  tau(   7) = (   0.4460113   0.1902112   1.9939985  )
         8           Mo  tau(   8) = (   0.1996208   0.6191982   1.9709660  )
         9           Mo  tau(   9) = (  -0.1041607  -0.1360522   2.9845570  )
        10           Mo  tau(  10) = (  -0.3515763   0.2971239   2.9962143  )
        11           Mo  tau(  11) = (   0.3933721  -0.1373222   3.0060295  )
        12           Mo  tau(  12) = (   0.1500810   0.2950628   2.9791128  )
        13           S   tau(  13) = (  -0.0114075   0.2672746   0.2353488  )
        14           S   tau(  14) = (  -0.2847951   0.7118665   0.2461500  )
        15           S   tau(  15) = (   0.4655993   0.2786614   0.2581240  )
        16           S   tau(  16) = (   0.2338765   0.6996332   0.2309332  )
        17           S   tau(  17) = (  -0.0116508  -0.0031379   0.7489630  )
        18           S   tau(  18) = (  -0.2784337   0.4307580   0.7491844  )
        19           S   tau(  19) = (   0.4961142  -0.0155424   0.7358312  )
        20           S   tau(  20) = (   0.2537979   0.4326452   0.7473255  )
        21           S   tau(  21) = (  -0.0142811   0.0010883   1.2367189  )
        22           S   tau(  22) = (  -0.2593719   0.4119397   1.2349037  )
        23           S   tau(  23) = (   0.4844429  -0.0240165   1.2227931  )
        24           S   tau(  24) = (   0.2314453   0.4019196   1.2322008  )
        25           S   tau(  25) = (   0.1856724   0.0342539   1.7410908  )
        26           S   tau(  26) = (  -0.0536498   0.4604765   1.7247000  )
        27           S   tau(  27) = (   0.6922787   0.0372401   1.7533020  )
        28           S   tau(  28) = (   0.4416306   0.4498443   1.7326780  )
        29           S   tau(  29) = (   0.1993199   0.0535925   2.2340412  )
        30           S   tau(  30) = (  -0.0474975   0.4950053   2.2151439  )
        31           S   tau(  31) = (   0.7031504   0.0793143   2.2489516  )
        32           S   tau(  32) = (   0.4507743   0.5006889   2.2227191  )
        33           S   tau(  33) = (  -0.0989921   0.1564692   2.7355018  )
        34           S   tau(  34) = (  -0.3438672   0.5765030   2.7481984  )
        35           S   tau(  35) = (   0.4131555   0.1425245   2.7601537  )
        36           S   tau(  36) = (   0.1408001   0.5872006   2.7317165  )

     number of k points=     5  Marzari-Vanderbilt smearing, width (Ry)=  0.0200
                       cart. coord. in units 2pi/alat
        k(    1) = (   0.0000000   0.0000000   0.0000000), wk =   0.2222222
        k(    2) = (   0.0021137   0.3870020   0.0158018), wk =   0.4444444
        k(    3) = (   0.3343496   0.1935021   0.0172113), wk =   0.4444444
        k(    4) = (   0.3364633   0.5805040   0.0330131), wk =   0.4444444
        k(    5) = (   0.3322358  -0.1934999   0.0014095), wk =   0.4444444

     Initial potential from superposition of free atoms

     starting charge  215.98107, renormalised to  216.00000
     Starting wfcs are  204 randomized atomic wfcs

     Self-consistent Calculation

     iteration #  1     ecut=    45.00 Ry     beta= 0.70
     Davidson diagonalization with overlap
     ethr =  1.00E-02,  avg # of iterations =  2.0

     total energy              =    -843.97360839 Ry
     Harris-Foulkes estimate   =    -846.82114720 Ry
     estimated scf accuracy    <       7.36861799 Ry

[...]

     total energy              =    -845.41627033 Ry
     Harris-Foulkes estimate   =    -845.41627081 Ry
     estimated scf accuracy    <       0.00000161 Ry

     iteration # 16     ecut=    45.00 Ry     beta= 0.70
     Davidson diagonalization with overlap
     ethr =  7.44E-10,  avg # of iterations =  3.0

     End of self-consistent calculation

          k = 0.0000 0.0000 0.0000 ( 24629 PWs)   bands (ev):

    -7.1593  -7.0623  -6.9740  -6.0428  -5.9964  -5.8409  -5.5183  -5.5019
    -5.4966  -5.4707  -5.4629  -5.4327  -5.4128  -5.3464  -5.3248  -5.1999
    -5.1813  -5.1636  -5.1496  -5.1404  -5.1139  -5.1121  -5.0707  -5.0152
     1.0859   1.2288   1.2382   1.2632   1.2788   1.2911   1.3117   1.3313
     1.3973   1.4268   1.5585   1.6265   2.0688   2.1217   2.1501   2.1787
     2.2078   2.2221   2.2324   2.2671   2.3003   2.7650   2.7909   2.8212
     2.8325   2.8568   2.9404   2.9566   3.0453   3.0899   3.6346   3.6610
     3.7000   3.7211   3.7276   3.7546   3.7777   3.7931   3.9518   4.1720
     4.2103   4.2391   4.2806   4.3091   4.3641   4.5741   4.6831   4.7160
     4.7712   4.7980   4.9035   4.9605   4.9995   5.0239   5.0651   5.1780
     5.1877   5.2140   5.2909   5.3048   5.3231   5.4578   5.6985   5.7245
     5.7760   5.7858   5.8158   5.8217   5.8629   5.8797   5.9309   6.0539
     6.0857   6.1166   6.1333   6.1507   6.1863   6.2190   6.2316   6.2899
     6.3457   6.4628   7.1182   7.1641   8.6317   8.6398   8.6418   8.6563
     8.6613   8.6681   8.6728   8.6828   8.6934   9.0451   9.0854   9.1091
     9.1175   9.1206   9.1388   9.1474   9.1633   9.1879   9.2097   9.2222
     9.2440   9.2570

[...]

          k = 0.3322-0.1935 0.0014 ( 24643 PWs)   bands (ev):

    -6.8215  -6.7289  -6.6377  -6.0749  -5.9831  -5.8647  -5.8338  -5.7677
    -5.6535  -5.5456  -5.5345  -5.5044  -5.4629  -5.4339  -5.3926  -5.3559
    -5.3361  -5.2583  -5.1834  -5.1463  -5.1332  -5.0780  -5.0632  -5.0171
     1.4792   1.6294   1.6485   1.6821   1.7069   1.7456   1.7830   1.8331
     1.8515   1.9137   1.9287   1.9948   2.0826   2.1176   2.1301   2.1417
     2.1905   2.2233   2.6497   2.6767   2.8016   2.9042   2.9274   2.9556
     2.9880   3.0282   3.0844   3.1005   3.1888   3.2453   3.4457   3.5256
     3.5533   3.5977   3.6521   3.7024   3.7247   3.8072   3.8420   3.8893
     3.9290   3.9843   4.0272   4.1854   4.2384   4.3835   4.4209   4.4375
     4.5182   4.5578   4.6228   4.6683   4.7123   4.7193   4.8002   4.8406
     4.8941   4.9411   4.9592   5.0327   5.0918   5.1068   5.1432   5.2024
     5.2643   5.3521   5.4637   5.5090   5.5243   5.5634   5.6289   5.8223
     5.8794   5.9241   6.1434   6.2408   6.2654   6.2945   6.3009   6.3254
     6.3569   6.4198   6.5929   6.6178   8.5417   8.5808   8.6150   8.6456
     8.6616   8.6845   8.7032   8.7319   8.7528   8.7701   8.7925   8.8550
     8.9280   8.9657   8.9906   9.0122   9.0636   9.1195   9.1365   9.1675
     9.1800   9.2174

     the Fermi energy is     7.0652 ev

!    total energy              =    -845.41627049 Ry
     Harris-Foulkes estimate   =    -845.41627064 Ry
     estimated scf accuracy    <       0.00000018 Ry

     The total energy is the sum of the following terms:

     one-electron contribution =      10.74427489 Ry
     hartree contribution      =     121.60319747 Ry
     xc contribution           =    -333.33664228 Ry
     ewald contribution        =    -644.44170634 Ry
     smearing contrib. (-TS)   =       0.01460577 Ry

     convergence has been achieved in  16 iterations

     Forces acting on atoms (cartesian axes, Ry/au):

     atom    1 type  1   force =    -0.01146883   -0.00475127    0.00298521
     atom    2 type  1   force =    -0.00160385    0.00947868    0.00061308
     atom    3 type  1   force =     0.00463375   -0.00323959   -0.00258017
     atom    4 type  1   force =     0.00221073    0.00977020   -0.00456957
     atom    5 type  1   force =    -0.00230154   -0.00392613   -0.00558027
     atom    6 type  1   force =    -0.00428337    0.01391365    0.00831122
     atom    7 type  1   force =    -0.00300743   -0.00492559   -0.00863334
     atom    8 type  1   force =    -0.00285870    0.02135537    0.01772056
     atom    9 type  1   force =     0.00241140    0.00037579   -0.00033793
     atom   10 type  1   force =     0.00705152   -0.00466238   -0.00592326
     atom   11 type  1   force =     0.01088143   -0.00339532   -0.00273135
     atom   12 type  1   force =    -0.00363867   -0.00165870    0.00372400
     atom   13 type  2   force =    -0.01092848    0.02073122    0.00040196
     atom   14 type  2   force =     0.01990759   -0.00275721   -0.03027592
     atom   15 type  2   force =     0.02479242   -0.00590586   -0.03341138
     atom   16 type  2   force =    -0.00887730    0.01532232   -0.00289219
     atom   17 type  2   force =    -0.00002474   -0.02076092    0.02105430
     atom   18 type  2   force =     0.02754387   -0.02213511    0.00121494
     atom   19 type  2   force =    -0.01079316   -0.01297568    0.04061717
     atom   20 type  2   force =    -0.02197829   -0.03293503    0.00715734
     atom   21 type  2   force =     0.00420246   -0.00236596   -0.02417336
     atom   22 type  2   force =    -0.01069579    0.02443772   -0.03043651
     atom   23 type  2   force =     0.00316170    0.01935404    0.00709682
     atom   24 type  2   force =     0.00913740    0.03579539   -0.02140596
     atom   25 type  2   force =     0.02735737    0.01688126    0.02912422
     atom   26 type  2   force =     0.01077557    0.02482709    0.03577910
     atom   27 type  2   force =     0.00832025    0.01388830    0.01195380
     atom   28 type  2   force =     0.01170974    0.03751086    0.02511094
     atom   29 type  2   force =    -0.00933459   -0.01644504   -0.02999299
     atom   30 type  2   force =    -0.00773743   -0.01542093   -0.01364029
     atom   31 type  2   force =    -0.01638363   -0.05399670   -0.04774520
     atom   32 type  2   force =    -0.01225258   -0.03490102   -0.02063315
     atom   33 type  2   force =    -0.00737341   -0.01194173    0.03958444
     atom   34 type  2   force =    -0.01246889    0.00361259    0.00084231
     atom   35 type  2   force =    -0.02285103    0.00409826   -0.00249000
     atom   36 type  2   force =     0.00676452   -0.01225257    0.03416142

     Total force =     0.188062     Total SCF correction =     0.001170

     General routines

     Parallel routines

   This run was terminated on:  14:30: 9  12Aug2021

   JOB DONE.