     Program PWSCF v.6.4 starts on  3Dec2021 at 19: 2:20

     R & G space division:  proc/nbgrp/npool/nimage =      40
     Waiting for input...
     Reading input from standard input
Warning: card    &IONS ignored
Warning: card      ION_DYNAMICS = 'BFGS' ignored
Warning: card   / ignored
Warning: card    &CELL ignored
Warning: card      CELL_DYNAMICS = 'BFGS', ignored
Warning: card    / ignored

     Current dimensions of program PWSCF are:
     Max number of different atomic species (ntypx) = 10
     Max number of k-points (npk) =  40000
     Max angular momentum in pseudopotentials (lmaxx) =  3

     bravais-lattice index     =            0
     lattice parameter (alat)  =      12.1300  a.u.
     unit-cell volume          =    8716.9876 (a.u.)^3
     number of atoms/cell      =           36
     number of atomic types    =            2
     number of electrons       =       216.00
     number of Kohn-Sham states=          130
     kinetic-energy cutoff     =      45.0000  Ry
     charge density cutoff     =     360.0000  Ry
     convergence threshold     =      1.0E-06
     mixing beta               =       0.7000
     number of iterations used =            8  local-TF  mixing
     Exchange-correlation      = SLA PW GGX GGC ( 1  4  2  2 0 0)

     celldm(1)=  12.130028  celldm(2)=   0.000000  celldm(3)=   0.000000
     celldm(4)=   0.000000  celldm(5)=   0.000000  celldm(6)=   0.000000

     crystal axes: (cart. coord. in units of alat)
               a(1) = (   1.000000   0.000000   0.000000 )
               a(2) = (  -0.499743   1.742036   0.000000 )
               a(3) = (  -0.409283  -0.503956   2.803651 )

     reciprocal axes: (cart. coord. in units 2 pi/alat)
               b(1) = (  1.000000  0.286873  0.197548 )
               b(2) = (  0.000000  0.574041  0.103184 )
               b(3) = (  0.000000  0.000000  0.356678 )

     PseudoPot. # 1 for Mo read from file:
     ~/pseudo/Mo.pw91-n-van.UPF
     MD5 check sum: Not computed, couldn't open file
     Pseudo is Ultrasoft + core correction, Zval =  6.0
     Generated by new atomic code, or converted to UPF format
     Using radial grid of  965 points,  3 beta functions with:
                l(1) =   1
                l(2) =   2
                l(3) =   2
     Q(r) pseudized with  8 coefficients,  rinner =    1.000   1.000   1.000
                                                       1.200   1.200

     PseudoPot. # 2 for S  read from file:
     ~/pseudo/S.pw91-van_ak.UPF
     MD5 check sum: Not computed, couldn't open file
     Pseudo is Ultrasoft, Zval =  6.0
     Generated by new atomic code, or converted to UPF format
     Using radial grid of  811 points,  6 beta functions with:
                l(1) =   0
                l(2) =   0
                l(3) =   1
                l(4) =   1
                l(5) =   2
                l(6) =   2
     Q(r) pseudized with  8 coefficients,  rinner =    1.100   1.100   1.100
                                                       1.100   1.100

     atomic species   valence    mass     pseudopotential
        Mo             6.00    95.50000     Mo( 1.00)
        S              6.00    32.06500     S ( 1.00)

     No symmetry found

   Cartesian axes

     site n.     atom                  positions (alat units)
         1           Mo  tau(   1) = (  -0.1626231   0.4997770   2.0245751  )
         2           Mo  tau(   2) = (   0.0866816   0.9325051   2.0214925  )
         3           Mo  tau(   3) = (   0.3394913   0.4991149   2.0237573  )
         4           Mo  tau(   4) = (  -0.4126880   0.9325004   2.0215425  )
         5           Mo  tau(   5) = (  -0.1632603   1.3689028   2.0206709  )
         6           Mo  tau(   6) = (  -0.6633406   1.3686565   2.0208848  )
         7           Mo  tau(   7) = (   0.0873518   0.0628911   2.0234947  )
         8           Mo  tau(   8) = (  -0.4128277   0.0630579   2.0236709  )
         9           Mo  tau(   9) = (  -0.1011885   1.1660484   0.2318291  )
        10           Mo  tau(  10) = (   0.4977299   1.0351896   0.2573909  )
        11           Mo  tau(  11) = (   0.5441884   1.4375978   0.1752513  )
        12           Mo  tau(  12) = (   0.1180901   1.5180259   0.1442646  )
        13           S   tau(  13) = (  -0.4108453   0.6471717   2.2689163  )
        14           S   tau(  14) = (  -0.1623785   0.2079280   2.2700188  )
        15           S   tau(  15) = (   0.0898148   0.6440636   2.2659549  )
        16           S   tau(  16) = (   0.3373879   0.2081287   2.2690917  )
        17           S   tau(  17) = (  -0.5770838   0.8924334   2.7345218  )
        18           S   tau(  18) = (  -0.0862759   0.8221191   2.6981081  )
        19           S   tau(  19) = (  -0.4115568   0.6431568   1.7755299  )
        20           S   tau(  20) = (  -0.1627013   0.2111307   1.7784118  )
        21           S   tau(  21) = (   0.0883117   0.6420620   1.7766579  )
        22           S   tau(  22) = (   0.3376172   0.2101555   1.7775083  )
        23           S   tau(  23) = (  -0.1676701   1.5138543   0.4037311  )
        24           S   tau(  24) = (   0.8719128   0.0317658   0.1881970  )
        25           S   tau(  25) = (  -0.1635234   1.0795969   2.2669374  )
        26           S   tau(  26) = (  -0.6632764   1.0785292   2.2656605  )
        27           S   tau(  27) = (  -0.1631230   1.0775116   1.7741318  )
        28           S   tau(  28) = (   0.3366593   1.0767392   1.7745025  )
        29           S   tau(  29) = (   0.0863985  -0.2262463   1.7748346  )
        30           S   tau(  30) = (   0.5867661  -0.2260644   1.7749487  )
        31           S   tau(  31) = (   0.2790049   1.2885559   0.4024426  )
        32           S   tau(  32) = (  -0.1979467   0.5104736   2.8110020  )
        33           S   tau(  33) = (   0.0863055  -0.2284719   2.2701262  )
        34           S   tau(  34) = (   0.5863166  -0.2283454   2.2699413  )
        35           S   tau(  35) = (   0.7165223   0.9204719   0.0101145  )
        36           S   tau(  36) = (  -0.2620611   0.9987956   0.5215559  )

     number of k points=     4  Marzari-Vanderbilt smearing, width (Ry)=  0.0200
                       cart. coord. in units 2pi/alat
        k(    1) = (   0.0000000   0.0000000   0.0000000), wk =   0.3333333
        k(    2) = (   0.0000000  -0.2870205  -0.0515919), wk =   0.3333333
        k(    3) = (   0.3333333   0.0956244   0.0658492), wk =   0.6666667
        k(    4) = (   0.3333333  -0.1913962   0.0142573), wk =   0.6666667

     Initial potential from superposition of free atoms

     starting charge  215.98107, renormalised to  216.00000

     negative rho (up, down):  1.906E-04 0.000E+00
     Starting wfcs are  204 randomized atomic wfcs

     Self-consistent Calculation

     iteration #  1     ecut=    45.00 Ry     beta= 0.70
     Davidson diagonalization with overlap
     ethr =  1.00E-02,  avg # of iterations =  2.0

     negative rho (up, down):  1.545E-06 0.000E+00

     total energy              =    -843.63987604 Ry
     Harris-Foulkes estimate   =    -846.24803472 Ry
     estimated scf accuracy    <       6.71954752 Ry

[...]

     iteration #  6     ecut=    45.00 Ry     beta= 0.70
     Davidson diagonalization with overlap
     c_bands:  1 eigenvalues not converged
     ethr =  1.54E-05,  avg # of iterations =  7.5

[...]

     total energy              =    -844.92494909 Ry
     Harris-Foulkes estimate   =    -844.92494826 Ry
     estimated scf accuracy    <       0.00000135 Ry

     iteration # 22     ecut=    45.00 Ry     beta= 0.70
     Davidson diagonalization with overlap
     ethr =  6.27E-10,  avg # of iterations =  3.0

[...]

     End of self-consistent calculation

          k = 0.0000 0.0000 0.0000 ( 44397 PWs)   bands (ev):

   -13.1743 -12.8636 -12.1240 -12.1092 -11.8398 -11.6902 -11.4041 -11.3280
   -11.3083 -11.1904 -11.1751 -11.1502 -11.1391 -11.1060 -10.9022 -10.8930
   -10.8900 -10.8492 -10.8327 -10.8265 -10.7646 -10.5212 -10.4780  -9.9395
    -4.5350  -4.4432  -4.2949  -4.2429  -4.2214  -4.1853  -4.1087  -3.9823
    -3.8621  -3.7273  -3.6776  -3.6648  -3.6309  -3.6149  -3.5920  -3.5710
    -3.5447  -3.3480  -3.1280  -2.9254  -2.8213  -2.7858  -2.7814  -2.7414
    -2.7208  -2.6634  -2.6371  -2.4789  -2.4051  -2.3478  -2.2445  -2.0981
    -2.0369  -2.0239  -2.0179  -1.9974  -1.9448  -1.9387  -1.8308  -1.6151
    -1.5049  -1.4864  -1.4387  -1.4130  -1.3266  -1.2754  -1.2597  -1.1227
    -0.9170  -0.7994  -0.7951  -0.7818  -0.7574  -0.7353  -0.7136  -0.6463
    -0.6273  -0.6258  -0.6165  -0.6069  -0.5512  -0.4940  -0.3743  -0.3267
    -0.3210  -0.2651  -0.2233  -0.1737   0.0540   0.1930   0.2159   0.3536
     0.3629   0.4099   0.4370   0.6048   0.6181   0.6283   0.6356   0.7133
     1.0486   1.1418   1.3517   1.6019   1.8380   2.2378   2.3625   2.4893
     2.6605   2.9225   3.1254   3.1400   3.1625   3.1761   3.1846   3.1877
     3.2128   3.2351   3.3365   3.3579   3.3962   3.6411   3.6598   3.6616
     3.6654   3.6771

[...]

          k = 0.3333-0.1914 0.0143 ( 44427 PWs)   bands (ev):

   -13.0994 -12.5091 -12.2605 -11.8888 -11.7841 -11.5677 -11.5381 -11.4916
   -11.4579 -11.3832 -11.2881 -11.2014 -11.1714 -11.0530 -11.0282 -10.9360
   -10.9095 -10.8736 -10.8061 -10.7660 -10.7214 -10.5617 -10.5039 -10.0119
    -4.2068  -4.1201  -4.0966  -4.0603  -4.0372  -3.9265  -3.8667  -3.8444
    -3.7565  -3.6842  -3.6370  -3.5965  -3.5436  -3.4927  -3.4325  -3.3890
    -3.1260  -3.0945  -3.0420  -2.7897  -2.7295  -2.7051  -2.6987  -2.6595
    -2.6139  -2.5728  -2.5507  -2.4967  -2.4525  -2.3821  -2.3161  -2.2014
    -2.1734  -2.1193  -2.0600  -2.0240  -1.9916  -1.9675  -1.8973  -1.8668
    -1.7976  -1.7748  -1.6966  -1.6395  -1.5821  -1.4146  -1.3460  -1.2286
    -1.1771  -1.0975  -1.0746  -1.0556  -0.9823  -0.8955  -0.8573  -0.8384
    -0.8105  -0.7593  -0.7219  -0.6283  -0.5716  -0.5234  -0.4347  -0.2855
    -0.2619  -0.2268  -0.1415  -0.0145   0.0561   0.1255   0.2279   0.2728
     0.3040   0.3565   0.3831   0.4507   0.5138   0.5883   0.6414   0.8334
     1.0206   1.0562   1.4000   1.5639   1.9500   2.0529   2.3000   2.5120
     2.6834   2.7521   2.8871   2.9894   3.0929   3.1156   3.1343   3.1609
     3.1810   3.2169   3.3279   3.3653   3.4247   3.4345   3.4466   3.4798
     3.5216   3.5691

     the Fermi energy is     1.7261 ev

!    total energy              =    -844.92494856 Ry
     Harris-Foulkes estimate   =    -844.92494929 Ry
     estimated scf accuracy    <       0.00000089 Ry

     The total energy is the sum of the following terms:

     one-electron contribution =   -2403.04594672 Ry
     hartree contribution      =    1284.02717716 Ry
     xc contribution           =    -333.83565387 Ry
     ewald contribution        =     607.92685499 Ry
     smearing contrib. (-TS)   =       0.00261988 Ry

     convergence has been achieved in  22 iterations

     negative rho (up, down):  3.886E-04 0.000E+00

     Forces acting on atoms (cartesian axes, Ry/au):

     atom    1 type  1   force =     0.00356761   -0.00604880   -0.00806504
     atom    2 type  1   force =     0.00101083    0.00442779   -0.00412091
     atom    3 type  1   force =    -0.00145987   -0.00345294   -0.00788421
     atom    4 type  1   force =    -0.00025405    0.00651421   -0.00463301
     atom    5 type  1   force =    -0.00008638    0.00323000    0.00222974
     atom    6 type  1   force =     0.00053051    0.00336611    0.00068697
     atom    7 type  1   force =    -0.00054013   -0.00035219   -0.00246337
     atom    8 type  1   force =     0.00055584   -0.00220135   -0.00287781
     atom    9 type  1   force =     0.05747650   -0.05203906    0.00351213
     atom   10 type  1   force =     0.01012869   -0.01521477    0.00267114
     atom   11 type  1   force =     0.01118625    0.03252788   -0.01785766
     atom   12 type  1   force =     0.01523070    0.04281631    0.00976070
     atom   13 type  2   force =    -0.00263880   -0.00730393    0.00294307
     atom   14 type  2   force =    -0.00060006    0.00145907   -0.00095941
     atom   15 type  2   force =     0.00017526   -0.00322437    0.00541300
     atom   16 type  2   force =     0.00060049    0.00069232    0.00079549
     atom   17 type  2   force =     0.00066923    0.00809170    0.00304035
     atom   18 type  2   force =    -0.01301943   -0.01915280   -0.00006855
     atom   19 type  2   force =    -0.00001436   -0.00026192    0.00249726
     atom   20 type  2   force =     0.00019345   -0.00513846    0.00051690
     atom   21 type  2   force =    -0.00040344    0.00055882    0.00066116
     atom   22 type  2   force =    -0.00016609   -0.00412084    0.00155300
     atom   23 type  2   force =     0.01135987   -0.00180646   -0.00959627
     atom   24 type  2   force =     0.00168400    0.00547006    0.00634560
     atom   25 type  2   force =     0.00140000    0.00203516   -0.00345644
     atom   26 type  2   force =    -0.00121808    0.00347956   -0.00142044
     atom   27 type  2   force =     0.00025227    0.00243591    0.00406564
     atom   28 type  2   force =     0.00046932    0.00365537    0.00321770
     atom   29 type  2   force =     0.00001817   -0.00055873    0.00511736
     atom   30 type  2   force =    -0.00001007   -0.00072131    0.00479418
     atom   31 type  2   force =    -0.07054567    0.02779281    0.04043906
     atom   32 type  2   force =    -0.04740399   -0.01122796   -0.00775654
     atom   33 type  2   force =     0.00042711   -0.00007080   -0.00988964
     atom   34 type  2   force =     0.00078077   -0.00027719   -0.00906987
     atom   35 type  2   force =     0.00565156   -0.01524139   -0.04190904
     atom   36 type  2   force =     0.01499200   -0.00013783    0.03176775

     Total force =     0.157565     Total SCF correction =     0.002002

     General routines

     Parallel routines

   This run was terminated on:  19: 5: 6   3Dec2021

   JOB DONE.