     Program PWSCF v.6.4 starts on 24Dec2021 at  0:24:26

     R & G space division:  proc/nbgrp/npool/nimage =      40
     Waiting for input...
     Reading input from standard input
Warning: card    &IONS ignored
Warning: card      ION_DYNAMICS = 'BFGS' ignored
Warning: card   / ignored
Warning: card    &CELL ignored
Warning: card      CELL_DYNAMICS = 'BFGS', ignored
Warning: card    / ignored

     Current dimensions of program PWSCF are:
     Max number of different atomic species (ntypx) = 10
     Max number of k-points (npk) =  40000
     Max angular momentum in pseudopotentials (lmaxx) =  3

     bravais-lattice index     =            0
     lattice parameter (alat)  =      15.7774  a.u.
     unit-cell volume          =    6747.5324 (a.u.)^3
     number of atoms/cell      =           27
     number of atomic types    =            2
     number of electrons       =       162.00
     number of Kohn-Sham states=           97
     kinetic-energy cutoff     =      45.0000  Ry
     charge density cutoff     =     360.0000  Ry
     convergence threshold     =      1.0E-06
     mixing beta               =       0.7000
     number of iterations used =            8  local-TF  mixing
     Exchange-correlation      = SLA PW GGX GGC ( 1  4  2  2 0 0)

     celldm(1)=  15.777410  celldm(2)=   0.000000  celldm(3)=   0.000000
     celldm(4)=   0.000000  celldm(5)=   0.000000  celldm(6)=   0.000000

     crystal axes: (cart. coord. in units of alat)
               a(1) = (   1.000000   0.000000   0.000000 )
               a(2) = (   0.145823   0.994507   0.000000 )
               a(3) = (   0.269694   0.269892   1.727548 )

     reciprocal axes: (cart. coord. in units 2 pi/alat)
               b(1) = (  1.000000 -0.146628 -0.133207 )
               b(2) = (  0.000000  1.005523 -0.157091 )
               b(3) = (  0.000000  0.000000  0.578855 )

     PseudoPot. # 1 for Mo read from file:
     ~/pseudo/Mo.pw91-n-van.UPF
     MD5 check sum: Not computed, couldn't open file
     Pseudo is Ultrasoft + core correction, Zval =  6.0
     Generated by new atomic code, or converted to UPF format
     Using radial grid of  965 points,  3 beta functions with:
                l(1) =   1
                l(2) =   2
                l(3) =   2
     Q(r) pseudized with  8 coefficients,  rinner =    1.000   1.000   1.000
                                                       1.200   1.200

     PseudoPot. # 2 for S  read from file:
     ~/pseudo/S.pw91-van_ak.UPF
     MD5 check sum: Not computed, couldn't open file
     Pseudo is Ultrasoft, Zval =  6.0
     Generated by new atomic code, or converted to UPF format
     Using radial grid of  811 points,  6 beta functions with:
                l(1) =   0
                l(2) =   0
                l(3) =   1
                l(4) =   1
                l(5) =   2
                l(6) =   2
     Q(r) pseudized with  8 coefficients,  rinner =    1.100   1.100   1.100
                                                       1.100   1.100

     atomic species   valence    mass     pseudopotential
        Mo             6.00    95.50000     Mo( 1.00)
        S              6.00    32.06500     S ( 1.00)

     No symmetry found

   Cartesian axes

     site n.     atom                  positions (alat units)
         1           Mo  tau(   1) = (   0.8927296   0.3396516   1.2720265  )
         2           Mo  tau(   2) = (   0.2478533   0.2139394   1.2629441  )
         3           Mo  tau(   3) = (   1.1107437   0.9655507   1.2735887  )
         4           Mo  tau(   4) = (   0.5358412   0.4691144   1.2669219  )
         5           Mo  tau(   5) = (   1.1782967   0.5970672   1.2732861  )
         6           Mo  tau(   6) = (   0.8187513   0.7213082   1.2722198  )
         7           Mo  tau(   7) = (   0.3940751   0.4592956   0.3727257  )
         8           Mo  tau(   8) = (   0.7456652   1.0870027   1.2686304  )
         9           Mo  tau(   9) = (   0.4666439   0.8408453   1.2670490  )
        10           S   tau(  10) = (   0.8885047   0.9224959   1.4637797  )
        11           S   tau(  11) = (   0.9603704   0.5553311   1.0799303  )
        12           S   tau(  12) = (   0.6786804   0.2945677   1.0798512  )
        13           S   tau(  13) = (   0.5605173   0.3672934   0.5664235  )
        14           S   tau(  14) = (   0.9592836   0.5499311   1.4629729  )
        15           S   tau(  15) = (   1.2567799   0.7995988   1.4681293  )
        16           S   tau(  16) = (   0.3200388   0.4250536   1.0771536  )
        17           S   tau(  17) = (   0.6698477   0.2924376   1.4673754  )
        18           S   tau(  18) = (   0.1507943   0.5218715   0.4717897  )
        19           S   tau(  19) = (   0.3181243   0.4167818   1.4652890  )
        20           S   tau(  20) = (   1.2434953   0.8006082   1.0713007  )
        21           S   tau(  21) = (   0.4977034   0.6832832   0.2636835  )
        22           S   tau(  22) = (   1.0296750   0.1691765   1.0710634  )
        23           S   tau(  23) = (   0.3688767   0.2680136   0.1863216  )
        24           S   tau(  24) = (   0.5400773   1.0438999   1.0749618  )
        25           S   tau(  25) = (   1.1875232   1.1671111   1.4722366  )
        26           S   tau(  26) = (   0.6029760   0.6811804   1.4645409  )
        27           S   tau(  27) = (   0.6140239   0.6766778   1.0739308  )

     number of k points=     4  Marzari-Vanderbilt smearing, width (Ry)=  0.0200
                       cart. coord. in units 2pi/alat
        k(    1) = (   0.0000000   0.0000000   0.0000000), wk =   0.5000000
        k(    2) = (   0.0000000  -0.5027617   0.0785457), wk =   0.5000000
        k(    3) = (  -0.5000000   0.0733141   0.0666033), wk =   0.5000000
        k(    4) = (  -0.5000000  -0.4294476   0.1451489), wk =   0.5000000

     Initial potential from superposition of free atoms

     starting charge  161.98581, renormalised to  162.00000

     negative rho (up, down):  8.256E-07 0.000E+00
     Starting wfcs are  153 randomized atomic wfcs

     Self-consistent Calculation

     iteration #  1     ecut=    45.00 Ry     beta= 0.70
     Davidson diagonalization with overlap
     ethr =  1.00E-02,  avg # of iterations =  2.0

     negative rho (up, down):  1.526E-04 0.000E+00

     total energy              =    -632.18710170 Ry
     Harris-Foulkes estimate   =    -634.66453120 Ry
     estimated scf accuracy    <       7.44955746 Ry

[...]

     total energy              =    -633.45819820 Ry
     Harris-Foulkes estimate   =    -633.45819888 Ry
     estimated scf accuracy    <       0.00000470 Ry

     iteration # 14     ecut=    45.00 Ry     beta= 0.70
     Davidson diagonalization with overlap
     ethr =  2.90E-09,  avg # of iterations =  2.0

[...]

     End of self-consistent calculation

          k = 0.0000 0.0000 0.0000 ( 34367 PWs)   bands (ev):

   -13.2519 -12.2975 -12.1508 -12.1507 -12.0175 -11.9271 -11.7531 -11.7152
   -11.6470 -11.6166 -11.5758 -11.4607 -11.4254 -11.3505 -10.4242 -10.1054
   -10.0837 -10.0582  -4.8870  -4.7763  -4.3841  -4.3127  -4.2723  -4.2204
    -4.1746  -4.1324  -3.8749  -3.8203  -3.6963  -3.4435  -3.3577  -3.2896
    -3.1653  -3.1158  -3.0609  -2.9848  -2.8966  -2.7944  -2.7535  -2.7013
    -2.5252  -2.4499  -2.3678  -2.3019  -2.1579  -2.0621  -1.9662  -1.9187
    -1.7030  -1.6494  -1.6326  -1.6026  -1.5655  -1.4687  -1.4044  -1.3795
    -1.3530  -1.3371  -1.2181  -1.0698  -1.0230  -0.9860  -0.9066  -0.8504
    -0.7970  -0.4132  -0.3479  -0.3265  -0.3145  -0.2917  -0.2758  -0.2299
    -0.1632  -0.1329   0.0105   0.0703   0.1610   0.4814   0.6790   0.6929
     0.7102   0.7242   1.2992   1.6917   1.7741   2.1978   2.4347   2.5094
     2.6621   2.6925   2.8158   2.8313   2.8518   2.8792   2.9378   3.0367
     3.1206

          k = 0.0000-0.5028 0.0785 ( 34420 PWs)   bands (ev):

[...]

          k =-0.5000 0.0733 0.0666 ( 34390 PWs)   bands (ev):

[...]

          k =-0.5000-0.4294 0.1451 ( 34402 PWs)   bands (ev):

   -12.7784 -12.6650 -12.4971 -12.4063 -12.0418 -11.9402 -11.8470 -11.7930
   -11.5515 -11.4658 -11.3910 -11.3801 -11.3057 -11.1973 -10.4178 -10.1115
   -10.0815 -10.0617  -4.9571  -4.8504  -4.4939  -4.3843  -4.2301  -4.1776
    -4.1333  -4.0556  -3.9655  -3.9443  -3.7457  -3.7061  -3.3258  -3.2253
    -3.1459  -3.1041  -3.0362  -2.9620  -2.8633  -2.7111  -2.6572  -2.6226
    -2.4823  -2.4597  -2.3737  -2.2833  -2.0813  -2.0354  -1.9405  -1.8227
    -1.7592  -1.6897  -1.6759  -1.6549  -1.6325  -1.4722  -1.4397  -1.4078
    -1.3815  -1.3213  -1.2756  -1.2305  -1.1637  -1.0733  -0.8947  -0.7028
    -0.5020  -0.4169  -0.3339  -0.3208  -0.2941  -0.2465  -0.2367  -0.1986
    -0.0802  -0.0573  -0.0248   0.2595   0.3729   0.4527   0.6627   0.6681
     0.6855   0.7127   1.2409   1.6581   1.7683   2.0304   2.5235   2.5464
     2.5981   2.6933   2.7787   2.8216   2.8493   2.8600   2.8931   2.9351
     3.0946

     the Fermi energy is     0.8055 ev

!    total energy              =    -633.45819806 Ry
     Harris-Foulkes estimate   =    -633.45819867 Ry
     estimated scf accuracy    <       0.00000084 Ry

     The total energy is the sum of the following terms:

     one-electron contribution =   -1142.39669323 Ry
     hartree contribution      =     630.70735296 Ry
     xc contribution           =    -249.21354239 Ry
     ewald contribution        =     127.44833257 Ry
     smearing contrib. (-TS)   =      -0.00364798 Ry

     convergence has been achieved in  14 iterations

     negative rho (up, down):  7.877E-06 0.000E+00

     Forces acting on atoms (cartesian axes, Ry/au):

     atom    1 type  1   force =    -0.00460894   -0.02164356    0.00903855
     atom    2 type  1   force =     0.01262807    0.00420094    0.00860314
     atom    3 type  1   force =    -0.00928589   -0.00800818    0.02917855
     atom    4 type  1   force =    -0.00973865   -0.02798868    0.03586706
     atom    5 type  1   force =    -0.01691623   -0.02557928   -0.01358217
     atom    6 type  1   force =     0.01430584   -0.00864833    0.02062584
     atom    7 type  1   force =     0.00467910    0.00635405    0.00794548
     atom    8 type  1   force =     0.02165457    0.00660583    0.02282269
     atom    9 type  1   force =    -0.01657645    0.01379155   -0.03251444
     atom   10 type  2   force =     0.00100488    0.01947703   -0.02810849
     atom   11 type  2   force =     0.00973992    0.00064011    0.01698347
     atom   12 type  2   force =     0.00333418   -0.01223835    0.00329783
     atom   13 type  2   force =    -0.02562060    0.01458957   -0.02585537
     atom   14 type  2   force =    -0.00137475    0.00905547   -0.01192902
     atom   15 type  2   force =    -0.00151313    0.02105353   -0.02411148
     atom   16 type  2   force =    -0.01194305    0.01001965    0.01223762
     atom   17 type  2   force =    -0.00816393    0.00730618   -0.03431807
     atom   18 type  2   force =     0.03093595   -0.00995426   -0.01066892
     atom   19 type  2   force =     0.01461844    0.00187288   -0.03873886
     atom   20 type  2   force =     0.00997974   -0.00154161    0.03544049
     atom   21 type  2   force =    -0.01199803   -0.02846771    0.01242242
     atom   22 type  2   force =    -0.00120634    0.01673561    0.02972216
     atom   23 type  2   force =     0.00139216    0.01797729    0.01533690
     atom   24 type  2   force =     0.00072093   -0.00187465    0.01164737
     atom   25 type  2   force =    -0.00061090   -0.00112306   -0.04666859
     atom   26 type  2   force =     0.01270072   -0.01073361   -0.01876815
     atom   27 type  2   force =    -0.01813762    0.00812156    0.01409400

     Total force =     0.159149     Total SCF correction =     0.001057

     General routines

     Parallel routines

   This run was terminated on:   0:25:30  24Dec2021

   JOB DONE.