     Program PWSCF v.6.4 starts on  8Sep2021 at 11:34:16

     R & G space division:  proc/nbgrp/npool/nimage =      40
     Waiting for input...
     Reading input from standard input
Warning: card    &IONS ignored
Warning: card      ION_DYNAMICS = 'BFGS' ignored
Warning: card   / ignored
Warning: card    &CELL ignored
Warning: card      CELL_DYNAMICS = 'BFGS', ignored
Warning: card    / ignored

     Current dimensions of program PWSCF are:
     Max number of different atomic species (ntypx) = 10
     Max number of k-points (npk) =  40000
     Max angular momentum in pseudopotentials (lmaxx) =  3

     bravais-lattice index     =            0
     lattice parameter (alat)  =      12.3217  a.u.
     unit-cell volume          =    6379.4517 (a.u.)^3
     number of atoms/cell      =           36
     number of atomic types    =            2
     number of electrons       =       216.00
     number of Kohn-Sham states=          130
     kinetic-energy cutoff     =      45.0000  Ry
     charge density cutoff     =     360.0000  Ry
     convergence threshold     =      1.0E-06
     mixing beta               =       0.7000
     number of iterations used =            8  local-TF  mixing
     Exchange-correlation      = SLA PW GGX GGC ( 1  4  2  2 0 0)

     celldm(1)=  12.321655  celldm(2)=   0.000000  celldm(3)=   0.000000
     celldm(4)=   0.000000  celldm(5)=   0.000000  celldm(6)=   0.000000

     crystal axes: (cart. coord. in units of alat)
               a(1) = (   0.999943  -0.010303  -0.002672 )
               a(2) = (  -0.493689   0.878343   0.002758 )
               a(3) = (   0.433604  -0.501664   3.903363 )

     reciprocal axes: (cart. coord. in units 2 pi/alat)
               b(1) = (  1.005778  0.565438 -0.039056 )
               b(2) = (  0.012186  1.144899  0.145790 )
               b(3) = (  0.000680 -0.000422  0.256060 )

     PseudoPot. # 1 for Mo read from file:
     ~/pseudo/Mo.pw91-n-van.UPF
     MD5 check sum: Not computed, couldn't open file
     Pseudo is Ultrasoft + core correction, Zval =  6.0
     Generated by new atomic code, or converted to UPF format
     Using radial grid of  965 points,  3 beta functions with:
                l(1) =   1
                l(2) =   2
                l(3) =   2
     Q(r) pseudized with  8 coefficients,  rinner =    1.000   1.000   1.000
                                                       1.200   1.200

     PseudoPot. # 2 for S  read from file:
     ~/pseudo/S.pw91-van_ak.UPF
     MD5 check sum: Not computed, couldn't open file
     Pseudo is Ultrasoft, Zval =  6.0
     Generated by new atomic code, or converted to UPF format
     Using radial grid of  811 points,  6 beta functions with:
                l(1) =   0
                l(2) =   0
                l(3) =   1
                l(4) =   1
                l(5) =   2
                l(6) =   2
     Q(r) pseudized with  8 coefficients,  rinner =    1.100   1.100   1.100
                                                       1.100   1.100

     atomic species   valence    mass     pseudopotential
        Mo             6.00    95.50000     Mo( 1.00)
        S              6.00    32.06500     S ( 1.00)

     No symmetry found

   Cartesian axes

     site n.     atom                  positions (alat units)
         1           Mo  tau(   1) = (   0.3447221   0.0816023   0.0494268  )
         2           Mo  tau(   2) = (   0.0545120   0.4656708   0.0581579  )
         3           Mo  tau(   3) = (   0.7851406   0.0564526   0.0305649  )
         4           Mo  tau(   4) = (   0.6117796   0.4493443   0.0482844  )
         5           Mo  tau(   5) = (   0.2305530   0.1152806   2.8458109  )
         6           Mo  tau(   6) = (  -0.0368006   0.5208998   2.8358899  )
         7           Mo  tau(   7) = (   0.7530056   0.1369093   2.8387977  )
         8           Mo  tau(   8) = (   0.5479352   0.5170811   2.8243935  )
         9           Mo  tau(   9) = (   0.0225633   0.1686143   1.0346368  )
        10           Mo  tau(  10) = (  -0.1924400   0.5362588   1.0324762  )
        11           Mo  tau(  11) = (   0.5341152   0.1183163   1.0075728  )
        12           Mo  tau(  12) = (   0.2464112   0.5320079   1.0296011  )
        13           S   tau(  13) = (   0.0862129   0.2070476   0.3044034  )
        14           S   tau(  14) = (  -0.1733465   0.6467457   0.2878558  )
        15           S   tau(  15) = (   0.5832489   0.1893584   0.3096463  )
        16           S   tau(  16) = (   0.3430128   0.6381397   0.2462456  )
        17           S   tau(  17) = (   0.4958796  -0.0443941   3.0562608  )
        18           S   tau(  18) = (   0.2597599   0.4035104   3.0602131  )
        19           S   tau(  19) = (   0.9968440  -0.0622330   3.0575102  )
        20           S   tau(  20) = (   0.7644783   0.3987491   3.1083104  )
        21           S   tau(  21) = (   0.5287114  -0.1725654   1.2678870  )
        22           S   tau(  22) = (   0.2856115   0.2619076   1.2746238  )
        23           S   tau(  23) = (   1.0221160  -0.1663032   1.2347043  )
        24           S   tau(  24) = (   0.7684423   0.2516171   1.2822102  )
        25           S   tau(  25) = (   0.2804247  -0.1633902   3.6852128  )
        26           S   tau(  26) = (   0.0131786   0.2855231   3.7490288  )
        27           S   tau(  27) = (   0.7632125  -0.1370697   3.7154665  )
        28           S   tau(  28) = (   0.4875566   0.2772768   3.7086743  )
        29           S   tau(  29) = (   0.7566920  -0.1977928   2.6289742  )
        30           S   tau(  30) = (   0.5001275   0.2282885   2.5916439  )
        31           S   tau(  31) = (   1.2518344  -0.1942856   2.5775018  )
        32           S   tau(  32) = (   0.9908447   0.2329708   2.5753102  )
        33           S   tau(  33) = (   0.2633164  -0.0282224   0.8090520  )
        34           S   tau(  34) = (   0.0211498   0.4342907   0.7582019  )
        35           S   tau(  35) = (   0.7868855  -0.0318347   0.7950775  )
        36           S   tau(  36) = (   0.5290866   0.4078716   0.7904535  )

     number of k points=     5  Marzari-Vanderbilt smearing, width (Ry)=  0.0200
                       cart. coord. in units 2pi/alat
        k(    1) = (   0.0000000   0.0000000   0.0000000), wk =   0.2222222
        k(    2) = (   0.0040621   0.3816329   0.0485965), wk =   0.4444444
        k(    3) = (   0.3352595   0.1884795  -0.0130186), wk =   0.4444444
        k(    4) = (   0.3393216   0.5701123   0.0355779), wk =   0.4444444
        k(    5) = (   0.3311973  -0.1931534  -0.0616152), wk =   0.4444444

     Initial potential from superposition of free atoms

     starting charge  215.98107, renormalised to  216.00000

     negative rho (up, down):  4.286E-05 0.000E+00
     Starting wfcs are  204 randomized atomic wfcs

     Self-consistent Calculation

     iteration #  1     ecut=    45.00 Ry     beta= 0.70
     Davidson diagonalization with overlap
     ethr =  1.00E-02,  avg # of iterations =  2.0

     negative rho (up, down):  7.901E-07 0.000E+00

     total energy              =    -843.39189716 Ry
     Harris-Foulkes estimate   =    -846.36777201 Ry
     estimated scf accuracy    <       7.83589432 Ry

[...]

     total energy              =    -844.91100250 Ry
     Harris-Foulkes estimate   =    -844.91100310 Ry
     estimated scf accuracy    <       0.00000111 Ry

     iteration # 17     ecut=    45.00 Ry     beta= 0.70
     Davidson diagonalization with overlap
     ethr =  5.12E-10,  avg # of iterations =  3.2

[...]

     End of self-consistent calculation

          k = 0.0000 0.0000 0.0000 ( 32497 PWs)   bands (ev):

   -10.2020 -10.1251 -10.0861  -9.1936  -9.0942  -9.0434  -8.8633  -8.8104
    -8.7934  -8.7473  -8.7396  -8.6560  -8.5582  -8.4660  -8.4117  -8.3056
    -8.2544  -8.2452  -8.2092  -8.1872  -8.1399  -7.8852  -7.7367  -7.6448
    -2.2112  -2.1902  -2.0963  -2.0681  -2.0501  -2.0031  -1.9958  -1.9700
    -1.9578  -1.7137  -1.4839  -1.3479  -0.8097  -0.7252  -0.6961  -0.6925
    -0.6492  -0.5576  -0.5516  -0.5373  -0.5259  -0.3387  -0.2137  -0.1821
    -0.1335  -0.1074  -0.0812  -0.0613   0.0024   0.1231   0.2824   0.3509
     0.3540   0.4267   0.4720   0.5315   0.5922   0.6428   0.7794   0.8575
     0.9076   0.9588   0.9629   0.9898   1.1546   1.2931   1.4090   1.4239
     1.4803   1.5100   1.5524   1.5631   1.6494   1.6859   1.7040   1.7464
     1.9971   2.1151   2.1525   2.2162   2.3314   2.4193   2.4243   2.4622
     2.4648   2.4966   2.6606   2.7686   2.7919   2.9524   2.9876   3.0324
     3.0646   3.1327   3.2023   3.5134   3.5254   3.5423   3.6157   3.6349
     3.6469   3.6636   3.8231   3.9054   3.9572   3.9598   3.9775   4.0804
     4.1304   4.3255   5.2928   5.3281   5.3478   5.3940   5.4098   5.4638
     5.5488   5.5816   5.8634   6.0278   6.0464   6.1466   6.2154   6.2815
     6.3024   6.3738

[...]

          k = 0.3312-0.1932-0.0616 ( 32537 PWs)   bands (ev):

    -9.8429  -9.7721  -9.7293  -9.1109  -9.0602  -9.0349  -8.9632  -8.9108
    -8.8424  -8.7493  -8.7085  -8.6994  -8.6622  -8.6309  -8.5830  -8.5203
    -8.4267  -8.4042  -8.3988  -8.3454  -8.2756  -7.9611  -7.8210  -7.7168
    -1.6982  -1.6834  -1.5473  -1.5052  -1.4708  -1.3927  -1.3767  -1.3371
    -1.2941  -1.1808  -1.1062  -1.0588  -0.8896  -0.8526  -0.7849  -0.7670
    -0.7617  -0.7058  -0.6926  -0.5821  -0.5087  -0.2869  -0.1871  -0.1482
    -0.0601  -0.0350  -0.0049   0.0382   0.0631   0.1297   0.2514   0.2572
     0.2959   0.3426   0.3635   0.4842   0.5508   0.5856   0.6046   0.6592
     0.7438   0.8151   0.8613   0.9047   0.9733   1.0383   1.0972   1.1060
     1.1891   1.2826   1.3284   1.3876   1.4020   1.4587   1.6181   1.6440
     1.7139   1.8074   1.8590   1.9004   2.0001   2.0734   2.1069   2.3320
     2.3759   2.4756   2.5066   2.5680   2.6274   2.7842   2.8004   2.8617
     2.9733   2.9946   3.0298   3.1083   3.1396   3.2287   3.3100   3.3174
     3.3809   3.5470   3.6498   3.7238   4.1174   4.2485   4.3588   4.4217
     4.4617   4.5427   5.0380   5.1653   5.2058   5.2568   5.3181   5.5087
     5.5129   5.5760   5.7297   5.9448   6.0220   6.0961   6.1403   6.2161
     6.2515   6.2865

     the Fermi energy is     3.9038 ev

!    total energy              =    -844.91100135 Ry
     Harris-Foulkes estimate   =    -844.91100272 Ry
     estimated scf accuracy    <       0.00000098 Ry

     The total energy is the sum of the following terms:

     one-electron contribution =   -1780.65683368 Ry
     hartree contribution      =     992.82115685 Ry
     xc contribution           =    -333.74177393 Ry
     ewald contribution        =     276.65574112 Ry
     smearing contrib. (-TS)   =       0.01070829 Ry

     convergence has been achieved in  17 iterations

     negative rho (up, down):  1.173E-04 0.000E+00

     Forces acting on atoms (cartesian axes, Ry/au):

     atom    1 type  1   force =     0.02699162   -0.01465896   -0.00662057
     atom    2 type  1   force =    -0.01343739    0.01607780   -0.00260179
     atom    3 type  1   force =     0.00342359    0.02769902    0.00946413
     atom    4 type  1   force =    -0.00682018   -0.01870816   -0.00192973
     atom    5 type  1   force =     0.01333120    0.00479604   -0.01482354
     atom    6 type  1   force =     0.05165377    0.01457409   -0.03565671
     atom    7 type  1   force =    -0.00572108    0.00977290    0.01223724
     atom    8 type  1   force =    -0.03098982   -0.01416849    0.00816776
     atom    9 type  1   force =    -0.00172603    0.00140489   -0.01974934
     atom   10 type  1   force =    -0.00316597    0.00638528    0.01425000
     atom   11 type  1   force =     0.00051033   -0.00230457    0.01943690
     atom   12 type  1   force =     0.00908353    0.01243787   -0.00516109
     atom   13 type  2   force =    -0.01521306   -0.00632466   -0.02819408
     atom   14 type  2   force =     0.00428832    0.00161700    0.00740201
     atom   15 type  2   force =     0.00139140    0.01176408    0.00895900
     atom   16 type  2   force =    -0.00275304   -0.00973119    0.02208905
     atom   17 type  2   force =     0.01148373   -0.01087163    0.00281707
     atom   18 type  2   force =    -0.01038133   -0.00058041    0.00333661
     atom   19 type  2   force =    -0.01342413   -0.00046164    0.01609664
     atom   20 type  2   force =    -0.02556942   -0.02887843    0.01172557
     atom   21 type  2   force =    -0.00863477    0.00618609    0.01589378
     atom   22 type  2   force =     0.00168968    0.00486387    0.00287272
     atom   23 type  2   force =     0.00316530   -0.01647616   -0.00468334
     atom   24 type  2   force =     0.00057665    0.01558988   -0.01061167
     atom   25 type  2   force =    -0.01433888   -0.00189559    0.00480661
     atom   26 type  2   force =    -0.00197211   -0.00380327   -0.01319357
     atom   27 type  2   force =    -0.00050394   -0.01352020    0.00135346
     atom   28 type  2   force =     0.01895997    0.00710865   -0.00833052
     atom   29 type  2   force =    -0.01180105    0.00229104   -0.00028792
     atom   30 type  2   force =    -0.00682884    0.01516242   -0.01237674
     atom   31 type  2   force =     0.00525438    0.00018658   -0.00036453
     atom   32 type  2   force =     0.02316087    0.00845160    0.01042447
     atom   33 type  2   force =     0.00010032    0.00028639   -0.01034460
     atom   34 type  2   force =     0.00808317   -0.03341764   -0.00246246
     atom   35 type  2   force =    -0.00288557   -0.00563494   -0.00039865
     atom   36 type  2   force =    -0.00698123    0.01478047    0.00645783

     Total force =     0.139938     Total SCF correction =     0.002578

     General routines

     Parallel routines

   This run was terminated on:  11:36: 7   8Sep2021

   JOB DONE.