     Program PWSCF v.6.4 starts on 24Dec2021 at 23: 1:10

     R & G space division:  proc/nbgrp/npool/nimage =      40
     Waiting for input...
     Reading input from standard input
Warning: card    &IONS ignored
Warning: card      ION_DYNAMICS = 'BFGS' ignored
Warning: card   / ignored
Warning: card    &CELL ignored
Warning: card      CELL_DYNAMICS = 'BFGS', ignored
Warning: card    / ignored

     Current dimensions of program PWSCF are:
     Max number of different atomic species (ntypx) = 10
     Max number of k-points (npk) =  40000
     Max angular momentum in pseudopotentials (lmaxx) =  3

     bravais-lattice index     =            0
     lattice parameter (alat)  =      19.0969  a.u.
     unit-cell volume          =    6671.1507 (a.u.)^3
     number of atoms/cell      =           48
     number of atomic types    =            2
     number of electrons       =       288.00
     number of Kohn-Sham states=          173
     kinetic-energy cutoff     =      45.0000  Ry
     charge density cutoff     =     360.0000  Ry
     convergence threshold     =      1.0E-06
     mixing beta               =       0.7000
     number of iterations used =            8  local-TF  mixing
     Exchange-correlation      = SLA PW GGX GGC ( 1  4  2  2 0 0)

     celldm(1)=  19.096876  celldm(2)=   0.000000  celldm(3)=   0.000000
     celldm(4)=   0.000000  celldm(5)=   0.000000  celldm(6)=   0.000000

     crystal axes: (cart. coord. in units of alat)
               a(1) = (   1.000000   0.000000   0.000000 )
               a(2) = (  -0.059516   0.976871   0.000000 )
               a(3) = (  -0.073807   0.001328   0.980565 )

     reciprocal axes: (cart. coord. in units 2 pi/alat)
               b(1) = (  1.000000  0.060925  0.075187 )
               b(2) = (  0.000000  1.023676 -0.001387 )
               b(3) = (  0.000000  0.000000  1.019820 )

     PseudoPot. # 1 for Mo read from file:
     ~/pseudo/Mo.pw91-n-van.UPF
     MD5 check sum: Not computed, couldn't open file
     Pseudo is Ultrasoft + core correction, Zval =  6.0
     Generated by new atomic code, or converted to UPF format
     Using radial grid of  965 points,  3 beta functions with:
                l(1) =   1
                l(2) =   2
                l(3) =   2
     Q(r) pseudized with  8 coefficients,  rinner =    1.000   1.000   1.000
                                                       1.200   1.200

     PseudoPot. # 2 for S  read from file:
     ~/pseudo/S.pw91-van_ak.UPF
     MD5 check sum: Not computed, couldn't open file
     Pseudo is Ultrasoft, Zval =  6.0
     Generated by new atomic code, or converted to UPF format
     Using radial grid of  811 points,  6 beta functions with:
                l(1) =   0
                l(2) =   0
                l(3) =   1
                l(4) =   1
                l(5) =   2
                l(6) =   2
     Q(r) pseudized with  8 coefficients,  rinner =    1.100   1.100   1.100
                                                       1.100   1.100

     atomic species   valence    mass     pseudopotential
        Mo             6.00    95.50000     Mo( 1.00)
        S              6.00    32.06500     S ( 1.00)

     No symmetry found

   Cartesian axes

     site n.     atom                  positions (alat units)
         1           Mo  tau(   1) = (   0.5047869   0.4606730   0.8762760  )
         2           Mo  tau(   2) = (   0.5945182   0.0736105   0.5744858  )
         3           Mo  tau(   3) = (   0.8466452   0.0883177   0.8663525  )
         4           Mo  tau(   4) = (   0.7936387   0.3098689   0.6358361  )
         5           Mo  tau(   5) = (   0.0289311   0.3715677   0.4223134  )
         6           Mo  tau(   6) = (   0.1112679   0.1131070   0.0950191  )
         7           Mo  tau(   7) = (   0.3957899   0.0929925   0.3817617  )
         8           Mo  tau(   8) = (   0.4019609   0.3594512   0.1077828  )
         9           Mo  tau(   9) = (   0.0049722   0.8785084   0.8967330  )
        10           Mo  tau(  10) = (   0.0608004   0.6139985   0.5729919  )
        11           Mo  tau(  11) = (   0.2516414   0.5662383   0.9401543  )
        12           Mo  tau(  12) = (   0.3192588   0.8444515   0.5549931  )
        13           Mo  tau(  13) = (   0.5481279   0.8557033   0.3777538  )
        14           Mo  tau(  14) = (   0.5775091   0.6031131   0.1232560  )
        15           Mo  tau(  15) = (   0.8449863   0.6017083   0.3668939  )
        16           Mo  tau(  16) = (   0.8474831   0.8835272   0.0976826  )
        17           S   tau(  17) = (   0.6393492   0.1871005   0.7881387  )
        18           S   tau(  18) = (   0.2985819   0.6062021   0.6007751  )
        19           S   tau(  19) = (   0.6076434   0.4752258   0.6499894  )
        20           S   tau(  20) = (   0.0189685   0.3899467   0.6519647  )
        21           S   tau(  21) = (   0.0745018   0.1317122   0.8370645  )
        22           S   tau(  22) = (   0.3612607   0.0982039   0.6180235  )
        23           S   tau(  23) = (   0.2974876   0.3590343   0.8415209  )
        24           S   tau(  24) = (   0.2572605   0.9415031   0.9369324  )
        25           S   tau(  25) = (   0.1452365   0.1692073   0.3438465  )
        26           S   tau(  26) = (   0.8042514   0.8496970   0.3478387  )
        27           S   tau(  27) = (   0.1477270   0.3635995   0.0885621  )
        28           S   tau(  28) = (   0.6417217   0.3726257   0.1024792  )
        29           S   tau(  29) = (   0.6303871   0.1135240   0.3470049  )
        30           S   tau(  30) = (   0.8770118   0.1405281   0.1133085  )
        31           S   tau(  31) = (   0.7997765   0.3688118   0.4019909  )
        32           S   tau(  32) = (   0.8247563   0.6289341   0.1287018  )
        33           S   tau(  33) = (   0.0505612   0.6439459   0.8513549  )
        34           S   tau(  34) = (   0.7433703   0.4909276   0.8056069  )
        35           S   tau(  35) = (   0.0827490   0.8507249   0.6293487  )
        36           S   tau(  36) = (   0.5493664   0.8208725   0.6142464  )
        37           S   tau(  37) = (   0.4415559   0.6870059   0.8843633  )
        38           S   tau(  38) = (   0.8304752   0.6810979   0.5902731  )
        39           S   tau(  39) = (   0.7743678   0.8329826   0.8489959  )
        40           S   tau(  40) = (   0.8478322   0.0775351   0.6054893  )
        41           S   tau(  41) = (   0.5931193   0.6122914   0.3635396  )
        42           S   tau(  42) = (   0.3998659   0.3344557   0.3511137  )
        43           S   tau(  43) = (   0.6024616   0.8541945   0.1319182  )
        44           S   tau(  44) = (   0.0738936   0.8579612   0.1494904  )
        45           S   tau(  45) = (   0.0795249   0.5835570   0.3430405  )
        46           S   tau(  46) = (   0.3456815   0.5852838   0.1898602  )
        47           S   tau(  47) = (   0.3177555   0.8410060   0.3242382  )
        48           S   tau(  48) = (   0.3825667   0.1080966   0.1044774  )

     number of k points=     8  Marzari-Vanderbilt smearing, width (Ry)=  0.0200
                       cart. coord. in units 2pi/alat
        k(    1) = (   0.0000000   0.0000000   0.0000000), wk =   0.2500000
        k(    2) = (   0.0000000   0.0000000  -0.5099101), wk =   0.2500000
        k(    3) = (   0.0000000  -0.5118381   0.0006933), wk =   0.2500000
        k(    4) = (   0.0000000  -0.5118381  -0.5092168), wk =   0.2500000
        k(    5) = (  -0.5000000  -0.0304624  -0.0375935), wk =   0.2500000
        k(    6) = (  -0.5000000  -0.0304624  -0.5475036), wk =   0.2500000
        k(    7) = (  -0.5000000  -0.5423005  -0.0369002), wk =   0.2500000
        k(    8) = (  -0.5000000  -0.5423005  -0.5468103), wk =   0.2500000

     Initial potential from superposition of free atoms

     starting charge  287.97477, renormalised to  288.00000
     Starting wfcs are  272 randomized atomic wfcs

     Self-consistent Calculation

     iteration #  1     ecut=    45.00 Ry     beta= 0.70
     Davidson diagonalization with overlap
     ethr =  1.00E-02,  avg # of iterations =  2.0

     total energy              =   -1123.99501595 Ry
     Harris-Foulkes estimate   =   -1127.73786497 Ry
     estimated scf accuracy    <      10.05384104 Ry

[...]

     total energy              =   -1125.88709731 Ry
     Harris-Foulkes estimate   =   -1125.88709743 Ry
     estimated scf accuracy    <       0.00000173 Ry

     iteration # 15     ecut=    45.00 Ry     beta= 0.70
     Davidson diagonalization with overlap
     ethr =  6.01E-10,  avg # of iterations =  1.0

     End of self-consistent calculation

          k = 0.0000 0.0000 0.0000 ( 34003 PWs)   bands (ev):

    -8.9625  -7.9152  -7.1423  -6.7793  -6.6685  -6.6296  -6.5553  -6.4800
    -6.4309  -6.3048  -6.2337  -6.2179  -6.1976  -6.1025  -6.0729  -6.0498
    -5.9835  -5.9734  -5.9428  -5.8087  -5.6166  -5.4997  -5.4712  -5.3919
    -5.3046  -5.2186  -5.0986  -4.9698  -4.9486  -4.8116  -4.5898  -4.0680
     0.7807   0.8150   0.9447   1.0288   1.0927   1.1430   1.2409   1.3392
     1.3812   1.4904   1.5813   1.6179   1.6665   1.7319   1.7796   1.8004
     1.8349   1.8655   1.9469   2.0220   2.0637   2.1317   2.1904   2.2330
     2.2769   2.3282   2.3683   2.3936   2.4460   2.4957   2.5568   2.6187
     2.7118   2.7556   2.7837   2.8226   2.8307   2.8772   2.9709   2.9911
     3.0132   3.0244   3.0813   3.1112   3.1552   3.1764   3.2024   3.2215
     3.2939   3.3176   3.3353   3.3622   3.4006   3.4431   3.4562   3.5243
     3.5396   3.5626   3.6219   3.6312   3.7130   3.7706   3.7874   3.8168
     3.8592   3.9203   3.9383   4.0567   4.0801   4.1194   4.2093   4.2799
     4.3214   4.3778   4.4714   4.5417   4.5964   4.6260   4.6762   4.7790
     4.8074   4.9508   4.9848   5.0616   5.1730   5.2011   5.3054   5.3506
     5.3928   5.4337   5.4569   5.5211   5.6459   5.7076   5.7969   5.8674
     5.8955   5.9543   6.0140   6.0703   6.1327   6.2675   6.2738   6.3495
     6.3721   6.4464   6.5439   6.6078   6.6594   6.7109   6.7640   6.8221
     6.8821   6.8905   7.0179   7.0832   7.0966   7.2161   7.3365   7.4681
     7.5945   7.6365   7.7601   7.9053   7.9700   7.9923   8.0812   8.1921
     8.2867   8.3447   8.3987   8.4669   8.4990   8.5560   8.5701   8.6613
     8.7129   8.8049   8.8713   8.8851   9.0044

[...]

          k = 0.0000-0.5118-0.5092 ( 34028 PWs)   bands (ev):

[...]

          k =-0.5000-0.0305-0.0376 ( 33928 PWs)   bands (ev):

[...]

          k =-0.5000-0.5423-0.5468 ( 34048 PWs)   bands (ev):

    -8.9584  -7.8925  -6.9576  -6.8904  -6.7496  -6.6856  -6.6088  -6.5795
    -6.4250  -6.3579  -6.2553  -6.2319  -6.1545  -6.1154  -6.0798  -6.0141
    -5.9989  -5.9721  -5.8659  -5.7313  -5.5878  -5.4895  -5.4789  -5.3825
    -5.2923  -5.1932  -5.1056  -4.9524  -4.9248  -4.7987  -4.6012  -4.0573
     0.8153   0.9338   1.0658   1.1251   1.2205   1.2991   1.3495   1.3655
     1.4077   1.4357   1.4619   1.5098   1.6125   1.6773   1.7249   1.7973
     1.8202   1.8499   1.8969   1.9414   1.9768   2.0271   2.1092   2.1379
     2.1608   2.2240   2.2903   2.3232   2.3959   2.4439   2.5101   2.5301
     2.5933   2.6119   2.6526   2.7497   2.8058   2.8546   2.8757   2.9222
     2.9362   2.9999   3.0238   3.0542   3.1018   3.1522   3.1855   3.2245
     3.2353   3.2702   3.3377   3.3982   3.4413   3.4485   3.4877   3.5835
     3.5934   3.6714   3.7040   3.7184   3.7314   3.8367   3.8971   3.9289
     3.9778   4.0575   4.1023   4.1203   4.1853   4.1977   4.2233   4.3479
     4.3574   4.4708   4.4952   4.5883   4.7019   4.7337   4.8051   4.8709
     4.9832   5.0198   5.0692   5.1373   5.1713   5.1889   5.2741   5.3174
     5.3766   5.3972   5.5449   5.5705   5.6910   5.7302   5.7353   5.8534
     5.9141   5.9221   6.0075   6.0480   6.1323   6.2007   6.2990   6.3398
     6.4638   6.4858   6.4973   6.5752   6.6314   6.6684   6.7176   6.7847
     6.8577   6.9039   6.9564   7.0038   7.0149   7.2451   7.3670   7.4771
     7.5101   7.6520   7.8301   7.8679   7.9747   8.0179   8.0351   8.1651
     8.2309   8.3471   8.4487   8.4889   8.5228   8.5597   8.5894   8.6566
     8.6920   8.7384   8.7998   8.8386   8.8936

     the Fermi energy is     6.8224 ev

!    total energy              =   -1125.88709688 Ry
     Harris-Foulkes estimate   =   -1125.88709739 Ry
     estimated scf accuracy    <       0.00000060 Ry

     The total energy is the sum of the following terms:

     one-electron contribution =      19.22313280 Ry
     hartree contribution      =     156.42421722 Ry
     xc contribution           =    -444.54950562 Ry
     ewald contribution        =    -856.98708628 Ry
     smearing contrib. (-TS)   =       0.00214501 Ry

     convergence has been achieved in  15 iterations

     Forces acting on atoms (cartesian axes, Ry/au):

     atom    1 type  1   force =     0.01208878   -0.07368054   -0.03080914
     atom    2 type  1   force =     0.00670901    0.00509812    0.01105846
     atom    3 type  1   force =    -0.00040161   -0.00301809   -0.03966020
     atom    4 type  1   force =    -0.01529209   -0.02365789    0.00892509
     atom    5 type  1   force =    -0.01997576   -0.01535526   -0.01147151
     atom    6 type  1   force =     0.01260201    0.04154240   -0.00592350
     atom    7 type  1   force =     0.02671927    0.02705355   -0.00561049
     atom    8 type  1   force =    -0.02736764    0.02064729    0.02765303
     atom    9 type  1   force =     0.04629777    0.01296658   -0.01138988
     atom   10 type  1   force =    -0.03973055    0.00967145    0.02884683
     atom   11 type  1   force =     0.00013845    0.01874014   -0.01501109
     atom   12 type  1   force =    -0.03489577   -0.02262777    0.02110934
     atom   13 type  1   force =     0.01943994    0.00183510   -0.02955124
     atom   14 type  1   force =     0.00100621    0.03844871    0.00958185
     atom   15 type  1   force =    -0.01337132    0.00916436    0.05959665
     atom   16 type  1   force =    -0.00303385   -0.01217689    0.01444869
     atom   17 type  2   force =    -0.01591399    0.02799788    0.01264935
     atom   18 type  2   force =     0.00364738    0.01741378   -0.00457297
     atom   19 type  2   force =     0.00118095   -0.00275657   -0.00357296
     atom   20 type  2   force =     0.02879861   -0.00177733    0.00199422
     atom   21 type  2   force =    -0.00816786   -0.01451126    0.02150969
     atom   22 type  2   force =     0.01041238    0.00944165   -0.01033896
     atom   23 type  2   force =     0.00238981   -0.00511678    0.01227973
     atom   24 type  2   force =    -0.00571755   -0.00628676    0.00028594
     atom   25 type  2   force =    -0.01257045    0.00380688    0.00751048
     atom   26 type  2   force =    -0.00163903   -0.00213930   -0.00919372
     atom   27 type  2   force =     0.01385735   -0.01894977    0.01640215
     atom   28 type  2   force =     0.00700450    0.00340672    0.00182306
     atom   29 type  2   force =    -0.00006868   -0.00965431    0.00495667
     atom   30 type  2   force =    -0.00661762    0.00778466    0.00493326
     atom   31 type  2   force =    -0.00829532   -0.01512705   -0.00686603
     atom   32 type  2   force =     0.00756065    0.01202686   -0.02049967
     atom   33 type  2   force =    -0.00048843   -0.01097214   -0.00916662
     atom   34 type  2   force =     0.00459528   -0.00336708   -0.00877756
     atom   35 type  2   force =     0.01850051    0.00741781   -0.00369994
     atom   36 type  2   force =    -0.00283099    0.00513811   -0.00456543
     atom   37 type  2   force =     0.01981822    0.00438935    0.00080494
     atom   38 type  2   force =     0.02864715   -0.02719383   -0.03602570
     atom   39 type  2   force =    -0.00972451    0.00546901   -0.00684096
     atom   40 type  2   force =    -0.01566145    0.03243892    0.01349548
     atom   41 type  2   force =    -0.00061326   -0.00473740    0.01624852
     atom   42 type  2   force =    -0.00714199   -0.02044238   -0.02270727
     atom   43 type  2   force =    -0.00444273   -0.01860745    0.00887761
     atom   44 type  2   force =     0.00811164   -0.00007518    0.00551508
     atom   45 type  2   force =     0.02679373    0.01642381   -0.01793105
     atom   46 type  2   force =    -0.00332100   -0.02220703   -0.02926945
     atom   47 type  2   force =    -0.01371818   -0.01006758    0.00961757
     atom   48 type  2   force =    -0.03531797    0.00618250    0.02333163

     Total force =     0.220198     Total SCF correction =     0.001590

     General routines

     Parallel routines

   This run was terminated on:  23: 5: 4  24Dec2021

   JOB DONE.