     Program PWSCF v.6.4 starts on  8Sep2021 at 11:11:35

     R & G space division:  proc/nbgrp/npool/nimage =      40
     Waiting for input...
     Reading input from standard input
Warning: card    &IONS ignored
Warning: card      ION_DYNAMICS = 'BFGS' ignored
Warning: card   / ignored
Warning: card    &CELL ignored
Warning: card      CELL_DYNAMICS = 'BFGS', ignored
Warning: card    / ignored

     Current dimensions of program PWSCF are:
     Max number of different atomic species (ntypx) = 10
     Max number of k-points (npk) =  40000
     Max angular momentum in pseudopotentials (lmaxx) =  3

     bravais-lattice index     =            0
     lattice parameter (alat)  =      12.1648  a.u.
     unit-cell volume          =    5196.0537 (a.u.)^3
     number of atoms/cell      =           36
     number of atomic types    =            2
     number of electrons       =       216.00
     number of Kohn-Sham states=          130
     kinetic-energy cutoff     =      45.0000  Ry
     charge density cutoff     =     360.0000  Ry
     convergence threshold     =      1.0E-06
     mixing beta               =       0.7000
     number of iterations used =            8  local-TF  mixing
     Exchange-correlation      = SLA PW GGX GGC ( 1  4  2  2 0 0)

     celldm(1)=  12.164843  celldm(2)=   0.000000  celldm(3)=   0.000000
     celldm(4)=   0.000000  celldm(5)=   0.000000  celldm(6)=   0.000000

     crystal axes: (cart. coord. in units of alat)
               a(1) = (   0.999625  -0.005758   0.026782 )
               a(2) = (  -0.495408   0.897606  -0.023982 )
               a(3) = (  -0.379050  -0.667170   3.224971 )

     reciprocal axes: (cart. coord. in units 2 pi/alat)
               b(1) = (  0.997356  0.556671  0.232387 )
               b(2) = (  0.000243  1.120403  0.231813 )
               b(3) = ( -0.008281  0.003709  0.309874 )

     PseudoPot. # 1 for Mo read from file:
     ~/pseudo/Mo.pw91-n-van.UPF
     MD5 check sum: Not computed, couldn't open file
     Pseudo is Ultrasoft + core correction, Zval =  6.0
     Generated by new atomic code, or converted to UPF format
     Using radial grid of  965 points,  3 beta functions with:
                l(1) =   1
                l(2) =   2
                l(3) =   2
     Q(r) pseudized with  8 coefficients,  rinner =    1.000   1.000   1.000
                                                       1.200   1.200

     PseudoPot. # 2 for S  read from file:
     ~/pseudo/S.pw91-van_ak.UPF
     MD5 check sum: Not computed, couldn't open file
     Pseudo is Ultrasoft, Zval =  6.0
     Generated by new atomic code, or converted to UPF format
     Using radial grid of  811 points,  6 beta functions with:
                l(1) =   0
                l(2) =   0
                l(3) =   1
                l(4) =   1
                l(5) =   2
                l(6) =   2
     Q(r) pseudized with  8 coefficients,  rinner =    1.100   1.100   1.100
                                                       1.100   1.100

     atomic species   valence    mass     pseudopotential
        Mo             6.00    95.50000     Mo( 1.00)
        S              6.00    32.06500     S ( 1.00)

     No symmetry found

   Cartesian axes

     site n.     atom                  positions (alat units)
         1           Mo  tau(   1) = (   0.1766148  -0.0878018   1.0965580  )
         2           Mo  tau(   2) = (  -0.0700508   0.4515396   1.0581561  )
         3           Mo  tau(   3) = (   0.6770346  -0.0906444   1.1081945  )
         4           Mo  tau(   4) = (   0.4287326   0.4488396   1.0736252  )
         5           Mo  tau(   5) = (  -0.2378407  -0.3423232   2.1232455  )
         6           Mo  tau(   6) = (  -0.4854298   0.1981371   2.1352450  )
         7           Mo  tau(   7) = (   0.2623861  -0.3463120   2.1359926  )
         8           Mo  tau(   8) = (   0.0139175   0.1957992   2.1484715  )
         9           Mo  tau(   9) = (  -0.5168875  -0.6785568   3.2216377  )
        10           Mo  tau(  10) = (  -0.7303301  -0.2027693   3.2238700  )
        11           Mo  tau(  11) = (  -0.0179087  -0.7215057   3.2494444  )
        12           Mo  tau(  12) = (  -0.2985416  -0.2052703   3.2339691  )
        13           S   tau(  13) = (  -0.1414155   0.2874237   0.2557602  )
        14           S   tau(  14) = (  -0.3961501   0.7409166   0.2472097  )
        15           S   tau(  15) = (   0.3583640   0.2859629   0.2254058  )
        16           S   tau(  16) = (   0.1144108   0.7388427   0.2600916  )
        17           S   tau(  17) = (  -0.0682977   0.1098834   0.8665643  )
        18           S   tau(  18) = (  -0.3145467   0.5538036   0.7907285  )
        19           S   tau(  19) = (   0.4326677   0.1086308   0.8813368  )
        20           S   tau(  20) = (   0.1894873   0.5478327   0.8024787  )
        21           S   tau(  21) = (  -0.0798295  -0.1850342   1.3501323  )
        22           S   tau(  22) = (  -0.3245545   0.2570228   1.2755680  )
        23           S   tau(  23) = (   0.4193642  -0.1866762   1.3642280  )
        24           S   tau(  24) = (   0.1698059   0.2538638   1.2907167  )
        25           S   tau(  25) = (   0.0192757  -0.4510023   1.8705287  )
        26           S   tau(  26) = (  -0.2304316  -0.0056009   1.9240969  )
        27           S   tau(  27) = (   0.5184924  -0.4531457   1.8836297  )
        28           S   tau(  28) = (   0.2696561  -0.0081937   1.9375115  )
        29           S   tau(  29) = (   0.0067679  -0.1425763   2.3481329  )
        30           S   tau(  30) = (  -0.2418631   0.3032572   2.4012191  )
        31           S   tau(  31) = (   0.5068504  -0.1447985   2.3607832  )
        32           S   tau(  32) = (   0.2573909   0.2999050   2.4139833  )
        33           S   tau(  33) = (  -0.2517357  -0.5221712   3.0092312  )
        34           S   tau(  34) = (  -0.5071231  -0.0763473   2.9495175  )
        35           S   tau(  35) = (   0.2335960  -0.5262902   3.0221909  )
        36           S   tau(  36) = (  -0.0061926  -0.0861091   3.0047449  )

     number of k points=     5  Marzari-Vanderbilt smearing, width (Ry)=  0.0200
                       cart. coord. in units 2pi/alat
        k(    1) = (   0.0000000   0.0000000   0.0000000), wk =   0.2222222
        k(    2) = (   0.0000810   0.3734675   0.0772711), wk =   0.4444444
        k(    3) = (   0.3324519   0.1855569   0.0774624), wk =   0.4444444
        k(    4) = (   0.3325329   0.5590244   0.1547335), wk =   0.4444444
        k(    5) = (   0.3323709  -0.1879106   0.0001912), wk =   0.4444444

     Initial potential from superposition of free atoms

     starting charge  215.98107, renormalised to  216.00000
     Starting wfcs are  204 randomized atomic wfcs

     Self-consistent Calculation

     iteration #  1     ecut=    45.00 Ry     beta= 0.70
     Davidson diagonalization with overlap
     ethr =  1.00E-02,  avg # of iterations =  2.0

     total energy              =    -843.52711783 Ry
     Harris-Foulkes estimate   =    -846.44251194 Ry
     estimated scf accuracy    <       7.83995879 Ry

[...]

     iteration #  8     ecut=    45.00 Ry     beta= 0.70
     Davidson diagonalization with overlap
     c_bands:  1 eigenvalues not converged
     ethr =  1.10E-06,  avg # of iterations =  9.0

[...]

     total energy              =    -845.03834509 Ry
     Harris-Foulkes estimate   =    -845.03834579 Ry
     estimated scf accuracy    <       0.00000258 Ry

     iteration # 15     ecut=    45.00 Ry     beta= 0.70
     Davidson diagonalization with overlap
     ethr =  1.19E-09,  avg # of iterations =  3.0

     End of self-consistent calculation

          k = 0.0000 0.0000 0.0000 ( 26491 PWs)   bands (ev):

    -8.0184  -7.8835  -7.8439  -6.9957  -6.9210  -6.8587  -6.6898  -6.6627
    -6.4513  -6.4308  -6.4219  -6.4006  -6.2946  -6.1911  -6.1676  -6.1587
    -6.0965  -6.0832  -6.0628  -5.7666  -5.7501  -5.7335  -5.7252  -5.5649
    -0.0917   0.1102   0.1192   0.1801   0.1947   0.2099   0.2238   0.2361
     0.2652   0.5313   0.7841   0.9196   1.3947   1.5406   1.5699   1.5864
     1.5908   1.6111   1.6236   1.6297   1.6621   1.7398   1.7544   1.8857
     1.9615   2.1049   2.1925   2.2654   2.3100   2.3669   2.3901   2.5328
     2.7565   2.7787   2.7996   2.8652   2.8778   2.9621   2.9874   2.9959
     2.9998   3.0460   3.2682   3.2701   3.3336   3.5108   3.6524   3.6579
     3.6697   3.6811   3.7328   3.7641   3.8025   3.8140   3.8442   4.0878
     4.2401   4.2422   4.2656   4.2840   4.3710   4.4502   4.4790   4.6871
     4.8541   4.9094   4.9523   5.0357   5.0665   5.0943   5.2162   5.2202
     5.2534   5.2819   5.2953   5.4533   5.6835   5.7242   5.7435   5.8647
     5.8930   5.9307   5.9383   5.9419   5.9771   6.2405   6.4795   6.5114
     6.7336   6.7862   7.4129   7.4271   7.6889   7.6968   7.7060   7.7128
     7.7155   7.9757   8.0222   8.1155   8.1461   8.2322   8.4760   8.5193
     8.5258   8.5467

[...]

          k = 0.3324-0.1879 0.0002 ( 26487 PWs)   bands (ev):

    -7.6538  -7.5112  -7.4720  -6.9252  -6.8115  -6.7851  -6.7337  -6.7026
    -6.6704  -6.5745  -6.5219  -6.4851  -6.4507  -6.3189  -6.2687  -6.2301
    -6.2027  -6.1938  -6.1786  -6.0375  -6.0060  -5.8045  -5.7775  -5.6757
     0.4964   0.6939   0.7089   0.7300   0.7387   0.7555   0.8253   0.9968
     1.1063   1.1447   1.1712   1.2116   1.2804   1.3274   1.3984   1.4159
     1.4405   1.4716   1.4937   1.8192   1.8964   1.9170   1.9508   1.9959
     2.0530   2.1516   2.1680   2.2062   2.3590   2.3885   2.4344   2.4655
     2.4949   2.5188   2.5298   2.5956   2.7032   2.7447   2.7696   2.7924
     3.0431   3.0704   3.0872   3.1040   3.1337   3.2715   3.3501   3.4660
     3.5128   3.5514   3.5969   3.6253   3.6506   3.6890   3.7437   3.7737
     3.8078   3.9933   4.0308   4.0650   4.1733   4.3764   4.3898   4.4216
     4.6819   4.7720   4.8258   4.8362   4.9094   4.9312   4.9566   4.9638
     5.0940   5.1147   5.1310   5.1852   5.2829   5.3436   5.4189   5.4591
     5.4768   5.5635   5.7705   5.7989   6.3983   6.4162   6.5096   6.6012
     7.1434   7.1677   7.1880   7.2073   7.2294   7.2742   7.5594   7.5795
     7.5926   8.1544   8.1832   8.2136   8.2481   8.2658   8.3550   8.4037
     8.4483   8.5121

     the Fermi energy is     6.0232 ev

!    total energy              =    -845.03834471 Ry
     Harris-Foulkes estimate   =    -845.03834561 Ry
     estimated scf accuracy    <       0.00000098 Ry

     The total energy is the sum of the following terms:

     one-electron contribution =    -113.61602624 Ry
     hartree contribution      =     176.75991137 Ry
     xc contribution           =    -333.67231810 Ry
     ewald contribution        =    -574.52691265 Ry
     smearing contrib. (-TS)   =       0.01700092 Ry

     convergence has been achieved in  15 iterations

     Forces acting on atoms (cartesian axes, Ry/au):

     atom    1 type  1   force =     0.00110639   -0.00142645   -0.00398425
     atom    2 type  1   force =    -0.00046061    0.00827581   -0.00076381
     atom    3 type  1   force =    -0.00215697   -0.00308098    0.00283867
     atom    4 type  1   force =     0.00221145   -0.00068667   -0.00145494
     atom    5 type  1   force =     0.00154643   -0.00220026   -0.00187701
     atom    6 type  1   force =    -0.00123852    0.00062436   -0.00066254
     atom    7 type  1   force =    -0.00038432    0.00385341    0.00185442
     atom    8 type  1   force =     0.00059004   -0.00349226   -0.00041692
     atom    9 type  1   force =     0.00086522   -0.00136175    0.00043085
     atom   10 type  1   force =     0.00285717   -0.00196252    0.00019655
     atom   11 type  1   force =     0.00152904    0.00251938   -0.00012261
     atom   12 type  1   force =    -0.00292537    0.00003045    0.00188168
     atom   13 type  2   force =    -0.00096862    0.00112544   -0.00236241
     atom   14 type  2   force =     0.00069527    0.00133026   -0.00043422
     atom   15 type  2   force =    -0.00022277   -0.00124814   -0.00071845
     atom   16 type  2   force =     0.00043162    0.00068830   -0.00029565
     atom   17 type  2   force =     0.00328364    0.00252725   -0.00080637
     atom   18 type  2   force =     0.00417708    0.00065232    0.00249374
     atom   19 type  2   force =    -0.00008265   -0.00096276   -0.00052858
     atom   20 type  2   force =    -0.00540763    0.00285416    0.00557652
     atom   21 type  2   force =    -0.00464885   -0.00193059    0.00399137
     atom   22 type  2   force =    -0.00437853   -0.00230834   -0.00233474
     atom   23 type  2   force =     0.00072712   -0.00407462   -0.00229517
     atom   24 type  2   force =     0.00592548    0.00015735   -0.00471589
     atom   25 type  2   force =    -0.00238779   -0.00084709    0.00189886
     atom   26 type  2   force =    -0.00020855   -0.00063731    0.00017898
     atom   27 type  2   force =     0.00078396   -0.00188301    0.00165108
     atom   28 type  2   force =    -0.00155186   -0.00143309    0.00026522
     atom   29 type  2   force =     0.00166091    0.00263662   -0.00058887
     atom   30 type  2   force =    -0.00036554    0.00038935   -0.00179032
     atom   31 type  2   force =    -0.00009348    0.00087050    0.00032023
     atom   32 type  2   force =     0.00100509    0.00091195    0.00064649
     atom   33 type  2   force =    -0.00157179   -0.00012422    0.00264801
     atom   34 type  2   force =     0.00132536   -0.00155717   -0.00131577
     atom   35 type  2   force =    -0.00028245    0.00194550    0.00170559
     atom   36 type  2   force =    -0.00138497   -0.00017515   -0.00110977

     Total force =     0.023188     Total SCF correction =     0.002496
     SCF correction compared to forces is large: reduce conv_thr to get better values

     General routines

     Parallel routines

   This run was terminated on:  11:13:14   8Sep2021

   JOB DONE.