     Program PWSCF v.6.4 starts on  8Sep2021 at 11:55:34

     R & G space division:  proc/nbgrp/npool/nimage =      40
     Waiting for input...
     Reading input from standard input
Warning: card    &IONS ignored
Warning: card      ION_DYNAMICS = 'BFGS' ignored
Warning: card   / ignored
Warning: card    &CELL ignored
Warning: card      CELL_DYNAMICS = 'BFGS', ignored
Warning: card    / ignored

     Current dimensions of program PWSCF are:
     Max number of different atomic species (ntypx) = 10
     Max number of k-points (npk) =  40000
     Max angular momentum in pseudopotentials (lmaxx) =  3

     bravais-lattice index     =            0
     lattice parameter (alat)  =      12.6391  a.u.
     unit-cell volume          =    5176.5557 (a.u.)^3
     number of atoms/cell      =           36
     number of atomic types    =            2
     number of electrons       =       216.00
     number of Kohn-Sham states=          130
     kinetic-energy cutoff     =      45.0000  Ry
     charge density cutoff     =     360.0000  Ry
     convergence threshold     =      1.0E-06
     mixing beta               =       0.7000
     number of iterations used =            8  local-TF  mixing
     Exchange-correlation      = SLA PW GGX GGC ( 1  4  2  2 0 0)

     celldm(1)=  12.639149  celldm(2)=   0.000000  celldm(3)=   0.000000
     celldm(4)=   0.000000  celldm(5)=   0.000000  celldm(6)=   0.000000

     crystal axes: (cart. coord. in units of alat)
               a(1) = (   0.999745  -0.015234   0.016669 )
               a(2) = (  -0.500412   0.847336   0.024538 )
               a(3) = (  -0.518336  -0.707896   3.017325 )

     reciprocal axes: (cart. coord. in units 2 pi/alat)
               b(1) = (  1.003994  0.583968  0.309477 )
               b(2) = (  0.013326  1.179957  0.279119 )
               b(3) = ( -0.005655 -0.012822  0.327440 )

     PseudoPot. # 1 for Mo read from file:
     ~/pseudo/Mo.pw91-n-van.UPF
     MD5 check sum: Not computed, couldn't open file
     Pseudo is Ultrasoft + core correction, Zval =  6.0
     Generated by new atomic code, or converted to UPF format
     Using radial grid of  965 points,  3 beta functions with:
                l(1) =   1
                l(2) =   2
                l(3) =   2
     Q(r) pseudized with  8 coefficients,  rinner =    1.000   1.000   1.000
                                                       1.200   1.200

     PseudoPot. # 2 for S  read from file:
     ~/pseudo/S.pw91-van_ak.UPF
     MD5 check sum: Not computed, couldn't open file
     Pseudo is Ultrasoft, Zval =  6.0
     Generated by new atomic code, or converted to UPF format
     Using radial grid of  811 points,  6 beta functions with:
                l(1) =   0
                l(2) =   0
                l(3) =   1
                l(4) =   1
                l(5) =   2
                l(6) =   2
     Q(r) pseudized with  8 coefficients,  rinner =    1.100   1.100   1.100
                                                       1.100   1.100

     atomic species   valence    mass     pseudopotential
        Mo             6.00    95.50000     Mo( 1.00)
        S              6.00    32.06500     S ( 1.00)

     No symmetry found

   Cartesian axes

     site n.     atom                  positions (alat units)
         1           Mo  tau(   1) = (   0.1866237   0.0584887   1.0347220  )
         2           Mo  tau(   2) = (  -0.0610990   0.4335423   1.0243863  )
         3           Mo  tau(   3) = (   0.6495562   0.0685213   1.0518539  )
         4           Mo  tau(   4) = (   0.4097810   0.4258848   1.1585932  )
         5           Mo  tau(   5) = (  -0.3231495  -0.3115627   1.9927578  )
         6           Mo  tau(   6) = (  -0.5742866   0.0268573   1.9707235  )
         7           Mo  tau(   7) = (   0.1734171  -0.3215476   1.9952799  )
         8           Mo  tau(   8) = (  -0.0695985   0.0169602   1.9803811  )
         9           Mo  tau(   9) = (  -0.6218056  -0.7708256   2.9240722  )
        10           Mo  tau(  10) = (  -0.9474598  -0.2798070   3.1450090  )
        11           Mo  tau(  11) = (  -0.2223843  -0.7830443   3.1390530  )
        12           Mo  tau(  12) = (  -0.3532643  -0.3657553   2.9789972  )
        13           S   tau(  13) = (  -0.1325266   0.2277231   0.1367056  )
        14           S   tau(  14) = (  -0.3584526   0.6083372   0.4195152  )
        15           S   tau(  15) = (   0.2847958   0.2391478   0.3021199  )
        16           S   tau(  16) = (   0.1309855   0.6539219   0.1664019  )
        17           S   tau(  17) = (  -0.0819272   0.0956930   0.7871213  )
        18           S   tau(  18) = (  -0.3761615   0.3984478   0.8567752  )
        19           S   tau(  19) = (   0.4401513  -0.0893161   0.8002922  )
        20           S   tau(  20) = (   0.2357714   0.3620257   0.8433868  )
        21           S   tau(  21) = (  -0.0872633  -0.0843379   1.2401726  )
        22           S   tau(  22) = (  -0.3710432   0.2806781   1.3444084  )
        23           S   tau(  23) = (   0.4137041  -0.1318090   1.2499280  )
        24           S   tau(  24) = (   0.1104722   0.2943633   1.3065083  )
        25           S   tau(  25) = (  -0.0742059  -0.4896820   1.7776481  )
        26           S   tau(  26) = (  -0.3187399  -0.0608915   1.7300111  )
        27           S   tau(  27) = (   0.4338132  -0.4972478   1.7861379  )
        28           S   tau(  28) = (   0.1770795  -0.0718126   1.7315051  )
        29           S   tau(  29) = (  -0.0747186  -0.2333603   2.2436096  )
        30           S   tau(  30) = (  -0.3258641   0.1962575   2.1920880  )
        31           S   tau(  31) = (   0.4207272  -0.2360119   2.2510920  )
        32           S   tau(  32) = (   0.1746334   0.1908706   2.2029245  )
        33           S   tau(  33) = (  -0.5223343  -0.5239142   2.6944843  )
        34           S   tau(  34) = (  -0.8265114  -0.1030914   2.8603055  )
        35           S   tau(  35) = (  -0.0620898  -0.5411590   2.8974984  )
        36           S   tau(  36) = (  -0.3102963  -0.1117567   2.7226555  )

     number of k points=     5  Marzari-Vanderbilt smearing, width (Ry)=  0.0200
                       cart. coord. in units 2pi/alat
        k(    1) = (   0.0000000   0.0000000   0.0000000), wk =   0.2222222
        k(    2) = (   0.0044421   0.3933188   0.0930398), wk =   0.4444444
        k(    3) = (   0.3346645   0.1946559   0.1031592), wk =   0.4444444
        k(    4) = (   0.3391066   0.5879747   0.1961990), wk =   0.4444444
        k(    5) = (   0.3302224  -0.1986630   0.0101194), wk =   0.4444444

     Initial potential from superposition of free atoms

     starting charge  215.98107, renormalised to  216.00000
     Starting wfcs are  204 randomized atomic wfcs

     Self-consistent Calculation

     iteration #  1     ecut=    45.00 Ry     beta= 0.70
     Davidson diagonalization with overlap
     ethr =  1.00E-02,  avg # of iterations =  2.0

     total energy              =    -843.08474545 Ry
     Harris-Foulkes estimate   =    -846.08147816 Ry
     estimated scf accuracy    <       8.96964714 Ry

[...]

     iteration #  6     ecut=    45.00 Ry     beta= 0.70
     Davidson diagonalization with overlap
     c_bands:  1 eigenvalues not converged
     ethr =  2.09E-05,  avg # of iterations =  9.2

[...]

     total energy              =    -844.62141200 Ry
     Harris-Foulkes estimate   =    -844.62141211 Ry
     estimated scf accuracy    <       0.00000103 Ry

     iteration # 15     ecut=    45.00 Ry     beta= 0.70
     Davidson diagonalization with overlap
     ethr =  4.78E-10,  avg # of iterations =  1.0

     End of self-consistent calculation

          k = 0.0000 0.0000 0.0000 ( 26421 PWs)   bands (ev):

    -8.4120  -7.7912  -7.6352  -7.3938  -6.6884  -6.6466  -6.5973  -6.5672
    -6.5355  -6.4548  -6.3924  -6.3702  -6.2782  -6.2271  -6.1617  -6.1383
    -5.9930  -5.9224  -5.8631  -5.7401  -5.7034  -5.6555  -5.5759  -5.4725
    -0.2205   0.2363   0.3136   0.3666   0.4539   0.4613   0.5104   0.5801
     0.6734   0.8911   0.9655   0.9956   1.1111   1.2058   1.2745   1.3530
     1.4667   1.5919   1.7221   1.8440   1.8804   1.9122   1.9385   1.9858
     2.1643   2.2014   2.4067   2.4341   2.4819   2.5124   2.5257   2.5483
     2.5821   2.6522   2.7036   2.7423   2.8294   2.9997   3.0228   3.1144
     3.2747   3.3036   3.3686   3.3966   3.4791   3.5161   3.5723   3.6143
     3.7085   3.7448   3.7853   3.8363   3.8572   3.9186   4.0013   4.0790
     4.1206   4.1487   4.2929   4.4525   4.5675   4.5902   4.6122   4.6409
     4.7030   4.8427   4.8573   4.8695   4.8854   5.0336   5.0985   5.3241
     5.4359   5.5354   5.5460   5.5539   5.6665   5.8155   5.8550   5.9175
     6.0310   6.0656   6.1407   6.2759   6.4721   6.4897   6.6695   6.9930
     7.0075   7.1635   7.2231   7.3228   7.4381   7.5200   7.5684   7.5964
     7.7054   7.7476   7.7946   7.9056   8.0269   8.1105   8.1410   8.2254
     8.2964   8.3214

[...]

          k = 0.3302-0.1987 0.0101 ( 26367 PWs)   bands (ev):

    -8.1107  -7.5190  -7.4403  -7.2648  -7.0416  -6.9131  -6.8373  -6.5772
    -6.5087  -6.4908  -6.4778  -6.4211  -6.3824  -6.2602  -6.1185  -6.0926
    -5.9862  -5.9290  -5.8771  -5.8460  -5.7399  -5.7313  -5.6029  -5.4766
     0.0775   0.3975   0.5646   0.6482   0.7084   0.7550   0.8518   0.8987
     0.9198   0.9659   0.9985   1.1207   1.3172   1.3841   1.4583   1.5284
     1.5575   1.6183   1.6599   1.7315   1.8697   1.9041   2.0187   2.0378
     2.1164   2.1293   2.2158   2.2738   2.2925   2.3517   2.5114   2.5570
     2.6058   2.6655   2.7582   2.7793   2.8116   2.8930   2.9449   3.0294
     3.1214   3.2266   3.2637   3.2882   3.3183   3.4294   3.5891   3.6114
     3.6690   3.7097   3.7411   3.7815   3.8248   3.8857   3.8988   3.9454
     3.9828   4.0210   4.0550   4.1057   4.1542   4.4397   4.4590   4.5780
     4.7352   4.8143   4.8912   4.9141   5.0862   5.1438   5.1981   5.2388
     5.2591   5.4013   5.4175   5.4684   5.5857   5.6341   5.7048   5.7558
     5.8087   5.9615   6.0534   6.1172   6.5207   6.5683   6.6464   6.8398
     6.9530   7.0131   7.1314   7.1794   7.3146   7.4331   7.4975   7.5182
     7.6530   7.6997   7.7959   7.8241   8.1007   8.2441   8.3326   8.3648
     8.4680   8.5305

     the Fermi energy is     6.2521 ev

!    total energy              =    -844.62141182 Ry
     Harris-Foulkes estimate   =    -844.62141204 Ry
     estimated scf accuracy    <       0.00000027 Ry

     The total energy is the sum of the following terms:

     one-electron contribution =    -107.07855693 Ry
     hartree contribution      =     174.12674138 Ry
     xc contribution           =    -333.62805945 Ry
     ewald contribution        =    -578.05291008 Ry
     smearing contrib. (-TS)   =       0.01137326 Ry

     convergence has been achieved in  15 iterations

     Forces acting on atoms (cartesian axes, Ry/au):

     atom    1 type  1   force =     0.00712485   -0.00834160   -0.00204885
     atom    2 type  1   force =    -0.02074717    0.01427570    0.00712303
     atom    3 type  1   force =     0.00560694   -0.01111234    0.00913243
     atom    4 type  1   force =    -0.00004792    0.02327461   -0.01655541
     atom    5 type  1   force =    -0.00882847    0.00679979    0.00261964
     atom    6 type  1   force =    -0.00004451   -0.00635861   -0.00414395
     atom    7 type  1   force =     0.00956770   -0.00094437    0.00760362
     atom    8 type  1   force =    -0.00177745    0.01100552    0.00010115
     atom    9 type  1   force =     0.00389314    0.00536195   -0.00269000
     atom   10 type  1   force =    -0.00099117   -0.01767078   -0.00206249
     atom   11 type  1   force =     0.01001951    0.01206714   -0.00581393
     atom   12 type  1   force =    -0.01185124    0.01011299   -0.01010415
     atom   13 type  2   force =    -0.01122480   -0.01885462    0.00464757
     atom   14 type  2   force =     0.00764209    0.00105078    0.00191691
     atom   15 type  2   force =    -0.00740076    0.00945405    0.00846871
     atom   16 type  2   force =    -0.00752983   -0.00908677    0.00861699
     atom   17 type  2   force =     0.00002740   -0.01468146   -0.00045186
     atom   18 type  2   force =     0.01124024   -0.00840754   -0.00349726
     atom   19 type  2   force =    -0.01198809   -0.00730618   -0.00617497
     atom   20 type  2   force =    -0.00759264    0.00544556    0.00240752
     atom   21 type  2   force =    -0.00678968    0.00510691    0.01208914
     atom   22 type  2   force =     0.01091099    0.00463684   -0.00617806
     atom   23 type  2   force =    -0.00401879   -0.00545700    0.00237546
     atom   24 type  2   force =     0.01959008   -0.00039812    0.00190826
     atom   25 type  2   force =     0.00357615   -0.00433097   -0.00934461
     atom   26 type  2   force =    -0.00327827   -0.00098236   -0.01042796
     atom   27 type  2   force =    -0.00729152   -0.00482758   -0.00414262
     atom   28 type  2   force =     0.00557162    0.00477297    0.00008484
     atom   29 type  2   force =     0.00091598    0.00099576    0.00941760
     atom   30 type  2   force =     0.00063203    0.00284725    0.00566183
     atom   31 type  2   force =     0.00116443   -0.00347065    0.00323506
     atom   32 type  2   force =    -0.00235565   -0.00588552    0.00544490
     atom   33 type  2   force =    -0.00130901    0.00750054   -0.00189082
     atom   34 type  2   force =     0.00104995    0.01025854    0.00114438
     atom   35 type  2   force =     0.01062267   -0.00274061   -0.00523981
     atom   36 type  2   force =     0.00591123   -0.00410982   -0.00323230

     Total force =     0.083043     Total SCF correction =     0.001071

     General routines

     Parallel routines

   This run was terminated on:  11:57: 1   8Sep2021

   JOB DONE.