     Program PWSCF v.6.4 starts on 24Dec2021 at 23: 9: 3

     R & G space division:  proc/nbgrp/npool/nimage =      40
     Waiting for input...
     Reading input from standard input
Warning: card    &IONS ignored
Warning: card      ION_DYNAMICS = 'BFGS' ignored
Warning: card   / ignored
Warning: card    &CELL ignored
Warning: card      CELL_DYNAMICS = 'BFGS', ignored
Warning: card    / ignored

     Current dimensions of program PWSCF are:
     Max number of different atomic species (ntypx) = 10
     Max number of k-points (npk) =  40000
     Max angular momentum in pseudopotentials (lmaxx) =  3

     bravais-lattice index     =            0
     lattice parameter (alat)  =      18.3464  a.u.
     unit-cell volume          =    7154.6368 (a.u.)^3
     number of atoms/cell      =           48
     number of atomic types    =            2
     number of electrons       =       288.00
     number of Kohn-Sham states=          173
     kinetic-energy cutoff     =      45.0000  Ry
     charge density cutoff     =     360.0000  Ry
     convergence threshold     =      1.0E-06
     mixing beta               =       0.7000
     number of iterations used =            8  local-TF  mixing
     Exchange-correlation      = SLA PW GGX GGC ( 1  4  2  2 0 0)

     celldm(1)=  18.346380  celldm(2)=   0.000000  celldm(3)=   0.000000
     celldm(4)=   0.000000  celldm(5)=   0.000000  celldm(6)=   0.000000

     crystal axes: (cart. coord. in units of alat)
               a(1) = (   1.000000   0.000000   0.000000 )
               a(2) = (   0.008359   0.997703   0.000000 )
               a(3) = (  -0.164556  -0.129675   1.161276 )

     reciprocal axes: (cart. coord. in units 2 pi/alat)
               b(1) = (  1.000000 -0.008378  0.140768 )
               b(2) = (  0.000000  1.002303  0.111923 )
               b(3) = (  0.000000  0.000000  0.861122 )

     PseudoPot. # 1 for Mo read from file:
     ~/pseudo/Mo.pw91-n-van.UPF
     MD5 check sum: Not computed, couldn't open file
     Pseudo is Ultrasoft + core correction, Zval =  6.0
     Generated by new atomic code, or converted to UPF format
     Using radial grid of  965 points,  3 beta functions with:
                l(1) =   1
                l(2) =   2
                l(3) =   2
     Q(r) pseudized with  8 coefficients,  rinner =    1.000   1.000   1.000
                                                       1.200   1.200

     PseudoPot. # 2 for S  read from file:
     ~/pseudo/S.pw91-van_ak.UPF
     MD5 check sum: Not computed, couldn't open file
     Pseudo is Ultrasoft, Zval =  6.0
     Generated by new atomic code, or converted to UPF format
     Using radial grid of  811 points,  6 beta functions with:
                l(1) =   0
                l(2) =   0
                l(3) =   1
                l(4) =   1
                l(5) =   2
                l(6) =   2
     Q(r) pseudized with  8 coefficients,  rinner =    1.100   1.100   1.100
                                                       1.100   1.100

     atomic species   valence    mass     pseudopotential
        Mo             6.00    95.50000     Mo( 1.00)
        S              6.00    32.06500     S ( 1.00)

     No symmetry found

   Cartesian axes

     site n.     atom                  positions (alat units)
         1           Mo  tau(   1) = (   0.2271837   0.2864307   0.9808530  )
         2           Mo  tau(   2) = (   0.0099893   0.2907737   0.7776710  )
         3           Mo  tau(   3) = (   0.0158852   0.0684211   0.9801470  )
         4           Mo  tau(   4) = (   0.2225709   0.0683341   0.7771202  )
         5           Mo  tau(   5) = (   0.2612315   0.7943362   0.5547879  )
         6           Mo  tau(   6) = (   0.0581716   0.7447733   0.0051028  )
         7           Mo  tau(   7) = (  -0.0166612   0.5287708   0.5785959  )
         8           Mo  tau(   8) = (   0.4744488   0.6319433   0.0071836  )
         9           Mo  tau(   9) = (   0.7460065   0.7723516   0.9486085  )
        10           Mo  tau(  10) = (   0.5133443   0.7746617   0.7591302  )
        11           Mo  tau(  11) = (   0.5270895   0.5501398   0.9685121  )
        12           Mo  tau(  12) = (   0.7374651   0.5503555   0.7776767  )
        13           Mo  tau(  13) = (   0.7618419   0.3125914   0.5744088  )
        14           Mo  tau(  14) = (   0.7056094   0.3857713   1.1462026  )
        15           Mo  tau(  15) = (   0.4770782   0.0147949   0.5238254  )
        16           Mo  tau(  16) = (   0.9855135   0.0835747   0.0039383  )
        17           S   tau(  17) = (  -0.0101193   0.3067659   1.0285644  )
        18           S   tau(  18) = (   0.7482422   0.5559797   1.0030790  )
        19           S   tau(  19) = (   0.2525706   0.3033765   0.7345359  )
        20           S   tau(  20) = (   0.2588430   0.8088539   0.7872636  )
        21           S   tau(  21) = (  -0.0072913   0.8011808   0.9967992  )
        22           S   tau(  22) = (  -0.0077599   0.5389786   0.8107047  )
        23           S   tau(  23) = (   0.2542637   0.5425895   0.9422771  )
        24           S   tau(  24) = (   0.4962906   0.5267784   0.7183046  )
        25           S   tau(  25) = (   0.0182415   0.7642852   0.4887052  )
        26           S   tau(  26) = (   0.7385872   0.0673584   0.5047849  )
        27           S   tau(  27) = (   0.3017615   0.7651390   0.1069540  )
        28           S   tau(  28) = (   0.4228825   0.4183611   0.0760110  )
        29           S   tau(  29) = (  -0.0061576   0.2916493   0.5116224  )
        30           S   tau(  30) = (   0.1862686   0.1699880   0.0798070  )
        31           S   tau(  31) = (   0.2385817   0.0371404   0.5144268  )
        32           S   tau(  32) = (   0.5311705   0.0423191   0.2656149  )
        33           S   tau(  33) = (   0.5098562   0.7959370   1.0171010  )
        34           S   tau(  34) = (   0.2596497   0.0429820   1.0190052  )
        35           S   tau(  35) = (   0.7550629   0.7946092   0.7102212  )
        36           S   tau(  36) = (   0.7550865   0.2964306   0.8096135  )
        37           S   tau(  37) = (   0.4972395   0.3028956   0.9882824  )
        38           S   tau(  38) = (   0.4818920   0.0353160   0.7624550  )
        39           S   tau(  39) = (   0.7519956   0.0323866   0.9486976  )
        40           S   tau(  40) = (  -0.0187137   0.0447131   0.7386890  )
        41           S   tau(  41) = (   0.5242154   0.2817254   0.4823155  )
        42           S   tau(  42) = (   0.2250050   0.5511681   0.4894357  )
        43           S   tau(  43) = (   0.8469734   0.2662339   0.0917595  )
        44           S   tau(  44) = (   0.9346566   0.8971832   0.1424400  )
        45           S   tau(  45) = (   0.4951032   0.7773541   0.4980968  )
        46           S   tau(  46) = (   0.6974762   0.6636220   0.0721562  )
        47           S   tau(  47) = (   0.7546547   0.5376640   0.4946296  )
        48           S   tau(  48) = (   0.0226291   0.5630565   0.1713157  )

     number of k points=     8  Marzari-Vanderbilt smearing, width (Ry)=  0.0200
                       cart. coord. in units 2pi/alat
        k(    1) = (   0.0000000   0.0000000   0.0000000), wk =   0.2500000
        k(    2) = (   0.0000000   0.0000000  -0.4305610), wk =   0.2500000
        k(    3) = (   0.0000000  -0.5011513  -0.0559615), wk =   0.2500000
        k(    4) = (   0.0000000  -0.5011513  -0.4865225), wk =   0.2500000
        k(    5) = (  -0.5000000   0.0041890  -0.0703838), wk =   0.2500000
        k(    6) = (  -0.5000000   0.0041890  -0.5009448), wk =   0.2500000
        k(    7) = (  -0.5000000  -0.4969623  -0.1263454), wk =   0.2500000
        k(    8) = (  -0.5000000  -0.4969623  -0.5569063), wk =   0.2500000

     Initial potential from superposition of free atoms

     starting charge  287.97477, renormalised to  288.00000
     Starting wfcs are  272 randomized atomic wfcs

     Self-consistent Calculation

     iteration #  1     ecut=    45.00 Ry     beta= 0.70
     Davidson diagonalization with overlap
     ethr =  1.00E-02,  avg # of iterations =  2.0

     total energy              =   -1123.36499045 Ry
     Harris-Foulkes estimate   =   -1127.51745732 Ry
     estimated scf accuracy    <      11.55155985 Ry

[...]

     total energy              =   -1125.59705678 Ry
     Harris-Foulkes estimate   =   -1125.59705703 Ry
     estimated scf accuracy    <       0.00000108 Ry

     iteration # 16     ecut=    45.00 Ry     beta= 0.70
     Davidson diagonalization with overlap
     ethr =  3.76E-10,  avg # of iterations =  4.0

     End of self-consistent calculation

          k = 0.0000 0.0000 0.0000 ( 36489 PWs)   bands (ev):

    -9.8735  -8.4517  -7.8868  -7.7633  -7.6653  -7.5907  -7.5164  -7.3727
    -7.3467  -7.2019  -7.1312  -7.1230  -7.0593  -7.0173  -6.9801  -6.9498
    -6.8772  -6.8264  -6.7832  -6.7038  -6.6291  -6.4974  -6.3879  -6.3002
    -6.2368  -6.1769  -6.1653  -6.0869  -5.6723  -5.4000  -5.3534  -4.9983
    -1.6484  -1.4230  -1.1773  -0.3805  -0.1901   0.0109   0.1117   0.2764
     0.3624   0.4404   0.5714   0.5970   0.6640   0.7199   0.8448   0.8777
     0.9095   0.9162   0.9845   1.0396   1.0798   1.1892   1.2340   1.2989
     1.3690   1.3885   1.4362   1.4802   1.5630   1.5822   1.6322   1.6676
     1.7500   1.8091   1.8266   1.8901   1.9173   1.9507   1.9723   2.0021
     2.1371   2.1444   2.2026   2.2454   2.2567   2.2826   2.2955   2.3177
     2.3802   2.4212   2.4628   2.5038   2.5313   2.5469   2.6107   2.6530
     2.7257   2.7358   2.7568   2.8369   2.8479   2.8826   2.9212   2.9628
     3.0039   3.0141   3.1002   3.1295   3.1758   3.2194   3.2658   3.2973
     3.3431   3.3789   3.4398   3.4756   3.5361   3.6223   3.6507   3.7084
     3.8380   3.8993   3.9414   4.0679   4.1314   4.1599   4.2213   4.2506
     4.3064   4.4352   4.5251   4.6043   4.6669   4.6967   4.7603   4.7921
     4.8589   4.9603   5.0566   5.0823   5.1226   5.2597   5.3253   5.3607
     5.4664   5.5066   5.5812   5.6530   5.7281   5.8144   5.9340   6.0009
     6.0508   6.0900   6.2371   6.3766   6.4232   6.5392   6.6184   6.6289
     6.7165   6.8256   6.8725   6.8932   6.9265   7.0073   7.0336   7.1066
     7.1571   7.2034   7.2919   7.3878   7.3923   7.4719   7.5493   7.6211
     7.6313   7.6570   7.7859   7.8394   7.8874

[...]

          k = 0.0000-0.5012-0.4865 ( 36480 PWs)   bands (ev):

[...]

          k =-0.5000 0.0042-0.0704 ( 36458 PWs)   bands (ev):

[...]

          k =-0.5000-0.4970-0.5569 ( 36444 PWs)   bands (ev):

    -9.8592  -8.2975  -8.0341  -7.8834  -7.8201  -7.5116  -7.4701  -7.3639
    -7.3005  -7.2650  -7.2444  -7.1339  -7.0438  -7.0060  -6.9183  -6.9110
    -6.8567  -6.8162  -6.7477  -6.7155  -6.6156  -6.4838  -6.4197  -6.2987
    -6.2105  -6.1497  -6.1056  -6.0704  -5.6640  -5.4112  -5.3458  -4.9981
    -1.6051  -1.4289  -1.1445  -0.1336   0.0480   0.1081   0.1165   0.2932
     0.3071   0.4076   0.5104   0.5971   0.6240   0.6721   0.7146   0.7873
     0.8010   0.8587   0.9335   0.9568   1.0014   1.0641   1.1180   1.2021
     1.2553   1.3143   1.4117   1.4621   1.5152   1.5671   1.5833   1.6094
     1.6414   1.6985   1.7437   1.8025   1.8312   1.9003   1.9751   2.0076
     2.0351   2.0812   2.0954   2.1458   2.2069   2.2357   2.2949   2.4079
     2.4728   2.4952   2.5273   2.5666   2.5932   2.6268   2.6568   2.6632
     2.7017   2.7472   2.7694   2.8332   2.8588   2.8975   2.9397   2.9980
     3.0547   3.1228   3.1472   3.1895   3.2649   3.2875   3.3351   3.3971
     3.4223   3.4698   3.4963   3.5317   3.6303   3.7141   3.7757   3.8426
     3.9320   3.9948   4.0180   4.1023   4.1132   4.1652   4.2821   4.3520
     4.3944   4.4681   4.5485   4.5876   4.6085   4.7785   4.8537   4.8820
     4.9187   4.9543   5.0655   5.1071   5.1506   5.2194   5.2414   5.4074
     5.4635   5.5684   5.6371   5.7601   5.7752   5.8075   5.8928   5.9655
     6.0270   6.1500   6.1991   6.2750   6.3336   6.3862   6.4940   6.5310
     6.6710   6.7281   6.7497   6.8125   6.8969   6.9272   6.9983   7.0438
     7.1284   7.1808   7.2401   7.2980   7.3606   7.4091   7.4368   7.4797
     7.6216   7.6702   7.6995   7.8545   7.8637

     the Fermi energy is     6.0064 ev

!    total energy              =   -1125.59705653 Ry
     Harris-Foulkes estimate   =   -1125.59705703 Ry
     estimated scf accuracy    <       0.00000055 Ry

     The total energy is the sum of the following terms:

     one-electron contribution =    -301.59700401 Ry
     hartree contribution      =     306.91596479 Ry
     xc contribution           =    -445.19901543 Ry
     ewald contribution        =    -685.71771388 Ry
     smearing contrib. (-TS)   =       0.00071200 Ry

     convergence has been achieved in  16 iterations

     Forces acting on atoms (cartesian axes, Ry/au):

     atom    1 type  1   force =     0.02321096   -0.01634157    0.01652795
     atom    2 type  1   force =     0.01050272   -0.06676291   -0.02812013
     atom    3 type  1   force =     0.01691496    0.01421775    0.01251028
     atom    4 type  1   force =     0.00085595   -0.00994582   -0.01821394
     atom    5 type  1   force =    -0.03250229   -0.01445361    0.00060173
     atom    6 type  1   force =     0.10311478    0.02767018    0.13876404
     atom    7 type  1   force =     0.04256026    0.01548932   -0.07046171
     atom    8 type  1   force =    -0.10164218   -0.00279320    0.05323207
     atom    9 type  1   force =    -0.06370910    0.19335611   -0.04987624
     atom   10 type  1   force =     0.01137384   -0.00638026   -0.01177568
     atom   11 type  1   force =    -0.19065514    0.05941973   -0.06626943
     atom   12 type  1   force =    -0.01321983    0.01372185   -0.19484244
     atom   13 type  1   force =    -0.03332719   -0.06269187   -0.01269863
     atom   14 type  1   force =    -0.02063099   -0.10748767    0.11349298
     atom   15 type  1   force =     0.00950035    0.01765092   -0.06404163
     atom   16 type  1   force =    -0.02665608    0.05953108    0.08337668
     atom   17 type  2   force =    -0.03046176   -0.00141827   -0.01018330
     atom   18 type  2   force =     0.15899610   -0.14493355    0.02210401
     atom   19 type  2   force =     0.01852673    0.01464340   -0.00622618
     atom   20 type  2   force =    -0.00236182   -0.01900877    0.01124827
     atom   21 type  2   force =    -0.01919036   -0.01401202    0.01227906
     atom   22 type  2   force =     0.00171252    0.02019096   -0.00171654
     atom   23 type  2   force =     0.04211109   -0.00969596    0.01993028
     atom   24 type  2   force =     0.00086245    0.00875671    0.03153091
     atom   25 type  2   force =     0.00313110   -0.00173002    0.00832569
     atom   26 type  2   force =    -0.00579051    0.02783356    0.00899791
     atom   27 type  2   force =     0.02766993   -0.01821000   -0.01815163
     atom   28 type  2   force =    -0.00178607    0.00104037    0.00331686
     atom   29 type  2   force =     0.02822483    0.00077708    0.01053620
     atom   30 type  2   force =     0.01270852   -0.00388280   -0.00826613
     atom   31 type  2   force =    -0.04577050    0.02301952   -0.02766984
     atom   32 type  2   force =    -0.01507574    0.00392091    0.07916325
     atom   33 type  2   force =    -0.01001876    0.00661158   -0.02164882
     atom   34 type  2   force =     0.00136054    0.00355512   -0.01086661
     atom   35 type  2   force =     0.01222704   -0.00213107   -0.00287017
     atom   36 type  2   force =    -0.01684155    0.00286098   -0.01271885
     atom   37 type  2   force =     0.01546038    0.00179345    0.01085030
     atom   38 type  2   force =     0.02479816    0.01939033    0.02308646
     atom   39 type  2   force =     0.00708336   -0.01580384    0.00323386
     atom   40 type  2   force =     0.00898283   -0.00316160   -0.00913277
     atom   41 type  2   force =     0.02988667   -0.01303176    0.00609761
     atom   42 type  2   force =    -0.00959874    0.01205579    0.01649957
     atom   43 type  2   force =     0.01981709   -0.01402123   -0.02292745
     atom   44 type  2   force =    -0.01393074   -0.00861926    0.00501412
     atom   45 type  2   force =     0.03479945   -0.06229667   -0.01507663
     atom   46 type  2   force =     0.01153267    0.01448843    0.02578465
     atom   47 type  2   force =    -0.01283456    0.03791347    0.01476286
     atom   48 type  2   force =    -0.01192135    0.01890512   -0.04751285

     Total force =     0.562774     Total SCF correction =     0.001313

     General routines

     Parallel routines

   This run was terminated on:  23:13:23  24Dec2021

   JOB DONE.