     Program PWSCF v.6.4 starts on  8Sep2021 at 12: 8:27

     R & G space division:  proc/nbgrp/npool/nimage =      40
     Waiting for input...
     Reading input from standard input
Warning: card    &IONS ignored
Warning: card      ION_DYNAMICS = 'BFGS' ignored
Warning: card   / ignored
Warning: card    &CELL ignored
Warning: card      CELL_DYNAMICS = 'BFGS', ignored
Warning: card    / ignored

     Current dimensions of program PWSCF are:
     Max number of different atomic species (ntypx) = 10
     Max number of k-points (npk) =  40000
     Max angular momentum in pseudopotentials (lmaxx) =  3

     bravais-lattice index     =            0
     lattice parameter (alat)  =      12.4939  a.u.
     unit-cell volume          =    3399.2849 (a.u.)^3
     number of atoms/cell      =           24
     number of atomic types    =            2
     number of electrons       =       144.00
     number of Kohn-Sham states=           86
     kinetic-energy cutoff     =      45.0000  Ry
     charge density cutoff     =     360.0000  Ry
     convergence threshold     =      1.0E-06
     mixing beta               =       0.7000
     number of iterations used =            8  local-TF  mixing
     Exchange-correlation      = SLA PW GGX GGC ( 1  4  2  2 0 0)

     celldm(1)=  12.493927  celldm(2)=   0.000000  celldm(3)=   0.000000
     celldm(4)=   0.000000  celldm(5)=   0.000000  celldm(6)=   0.000000

     crystal axes: (cart. coord. in units of alat)
               a(1) = (   0.999683   0.015623  -0.019722 )
               a(2) = (  -0.240614   0.420238   0.016183 )
               a(3) = (  -0.392706  -0.666124   4.102045 )

     reciprocal axes: (cart. coord. in units 2 pi/alat)
               b(1) = (  0.995206  0.562633  0.186640 )
               b(2) = ( -0.029232  2.348287  0.378536 )
               b(3) = (  0.004900 -0.006559  0.243185 )

     PseudoPot. # 1 for Mo read from file:
     ~/pseudo/Mo.pw91-n-van.UPF
     MD5 check sum: Not computed, couldn't open file
     Pseudo is Ultrasoft + core correction, Zval =  6.0
     Generated by new atomic code, or converted to UPF format
     Using radial grid of  965 points,  3 beta functions with:
                l(1) =   1
                l(2) =   2
                l(3) =   2
     Q(r) pseudized with  8 coefficients,  rinner =    1.000   1.000   1.000
                                                       1.200   1.200

     PseudoPot. # 2 for S  read from file:
     ~/pseudo/S.pw91-van_ak.UPF
     MD5 check sum: Not computed, couldn't open file
     Pseudo is Ultrasoft, Zval =  6.0
     Generated by new atomic code, or converted to UPF format
     Using radial grid of  811 points,  6 beta functions with:
                l(1) =   0
                l(2) =   0
                l(3) =   1
                l(4) =   1
                l(5) =   2
                l(6) =   2
     Q(r) pseudized with  8 coefficients,  rinner =    1.100   1.100   1.100
                                                       1.100   1.100

     atomic species   valence    mass     pseudopotential
        Mo             6.00    95.50000     Mo( 1.00)
        S              6.00    32.06500     S ( 1.00)

     No symmetry found

   Cartesian axes

     site n.     atom                  positions (alat units)
         1           Mo  tau(   1) = (  -0.1084677  -0.1893623   1.5035758  )
         2           Mo  tau(   2) = (  -0.3367893  -0.5966953   3.5654542  )
         3           Mo  tau(   3) = (   0.4721269  -0.1367878   1.5200123  )
         4           Mo  tau(   4) = (   0.0877242  -0.6372471   3.7084620  )
         5           Mo  tau(   5) = (  -0.0563170  -0.0779760   0.5236620  )
         6           Mo  tau(   6) = (  -0.3000060  -0.4054259   2.5425521  )
         7           Mo  tau(   7) = (   0.4428287  -0.0697084   0.5122639  )
         8           Mo  tau(   8) = (   0.2002875  -0.3982530   2.5320759  )
         9           S   tau(   9) = (   0.1870010  -0.3057512   1.7073211  )
        10           S   tau(  10) = (  -0.1878881  -0.5229462   3.9140320  )
        11           S   tau(  11) = (   0.6881687  -0.3030628   1.7643919  )
        12           S   tau(  12) = (   0.3827747  -0.4685158   3.7570760  )
        13           S   tau(  13) = (  -0.0538098   0.2117133   0.2959438  )
        14           S   tau(  14) = (  -0.2952410  -0.1151228   2.3143297  )
        15           S   tau(  15) = (   0.4468718   0.2203886   0.2839388  )
        16           S   tau(  16) = (   0.2051115  -0.1075889   2.3032654  )
        17           S   tau(  17) = (  -0.0434241   0.1992565   0.7658770  )
        18           S   tau(  18) = (  -0.2886477  -0.1285274   2.7869476  )
        19           S   tau(  19) = (   0.4564251   0.2068982   0.7558848  )
        20           S   tau(  20) = (   0.2108343  -0.1218373   2.7758967  )
        21           S   tau(  21) = (   0.1768332  -0.0217592   1.3161160  )
        22           S   tau(  22) = (  -0.0430323  -0.4235204   3.4425334  )
        23           S   tau(  23) = (   0.6767914  -0.0088431   1.2397759  )
        24           S   tau(  24) = (   0.4748409  -0.4006259   3.2920508  )

     number of k points=    10  Marzari-Vanderbilt smearing, width (Ry)=  0.0200
                       cart. coord. in units 2pi/alat
        k(    1) = (   0.0000000   0.0000000   0.0000000), wk =   0.1111111
        k(    2) = (  -0.0048720   0.3913812   0.0630893), wk =   0.2222222
        k(    3) = (  -0.0097441   0.7827624   0.1261786), wk =   0.2222222
        k(    4) = (   0.0146161  -1.1741437  -0.1892679), wk =   0.1111111
        k(    5) = (   0.3317352   0.1875443   0.0622134), wk =   0.2222222
        k(    6) = (   0.3268632   0.5789255   0.1253027), wk =   0.2222222
        k(    7) = (   0.3219911   0.9703067   0.1883920), wk =   0.2222222
        k(    8) = (   0.3463514  -0.9865994  -0.1270545), wk =   0.2222222
        k(    9) = (   0.3414793  -0.5952182  -0.0639652), wk =   0.2222222
        k(   10) = (   0.3366073  -0.2038370  -0.0008759), wk =   0.2222222

     Initial potential from superposition of free atoms

     starting charge  143.98738, renormalised to  144.00000
     Starting wfcs are  136 randomized atomic wfcs

     Self-consistent Calculation

     iteration #  1     ecut=    45.00 Ry     beta= 0.70
     Davidson diagonalization with overlap
     ethr =  1.00E-02,  avg # of iterations =  2.0

     total energy              =    -562.46121607 Ry
     Harris-Foulkes estimate   =    -564.35688460 Ry
     estimated scf accuracy    <       5.36968262 Ry

[...]

     iteration #  8     ecut=    45.00 Ry     beta= 0.70
     Davidson diagonalization with overlap

     Program PWSCF v.6.4 starts on  8Sep2021 at 12:24:33

     R & G space division:  proc/nbgrp/npool/nimage =      40
     Waiting for input...
     Reading input from standard input
Warning: card    &IONS ignored
Warning: card      ION_DYNAMICS = 'BFGS' ignored
Warning: card   / ignored
Warning: card    &CELL ignored
Warning: card      CELL_DYNAMICS = 'BFGS', ignored
Warning: card    / ignored

     Current dimensions of program PWSCF are:
     Max number of different atomic species (ntypx) = 10
     Max number of k-points (npk) =  40000
     Max angular momentum in pseudopotentials (lmaxx) =  3

     bravais-lattice index     =            0
     lattice parameter (alat)  =      12.4939  a.u.
     unit-cell volume          =    3399.2849 (a.u.)^3
     number of atoms/cell      =           24
     number of atomic types    =            2
     number of electrons       =       144.00
     number of Kohn-Sham states=           86
     kinetic-energy cutoff     =      45.0000  Ry
     charge density cutoff     =     360.0000  Ry
     convergence threshold     =      1.0E-06
     mixing beta               =       0.7000
     number of iterations used =            8  local-TF  mixing
     Exchange-correlation      = SLA PW GGX GGC ( 1  4  2  2 0 0)

     celldm(1)=  12.493927  celldm(2)=   0.000000  celldm(3)=   0.000000
     celldm(4)=   0.000000  celldm(5)=   0.000000  celldm(6)=   0.000000

     crystal axes: (cart. coord. in units of alat)
               a(1) = (   0.999683   0.015623  -0.019722 )
               a(2) = (  -0.240614   0.420238   0.016183 )
               a(3) = (  -0.392706  -0.666124   4.102045 )

     reciprocal axes: (cart. coord. in units 2 pi/alat)
               b(1) = (  0.995206  0.562633  0.186640 )
               b(2) = ( -0.029232  2.348287  0.378536 )
               b(3) = (  0.004900 -0.006559  0.243185 )

     PseudoPot. # 1 for Mo read from file:
     ~/pseudo/Mo.pw91-n-van.UPF
     MD5 check sum: Not computed, couldn't open file
     Pseudo is Ultrasoft + core correction, Zval =  6.0
     Generated by new atomic code, or converted to UPF format
     Using radial grid of  965 points,  3 beta functions with:
                l(1) =   1
                l(2) =   2
                l(3) =   2
     Q(r) pseudized with  8 coefficients,  rinner =    1.000   1.000   1.000
                                                       1.200   1.200

     PseudoPot. # 2 for S  read from file:
     ~/pseudo/S.pw91-van_ak.UPF
     MD5 check sum: Not computed, couldn't open file
     Pseudo is Ultrasoft, Zval =  6.0
     Generated by new atomic code, or converted to UPF format
     Using radial grid of  811 points,  6 beta functions with:
                l(1) =   0
                l(2) =   0
                l(3) =   1
                l(4) =   1
                l(5) =   2
                l(6) =   2
     Q(r) pseudized with  8 coefficients,  rinner =    1.100   1.100   1.100
                                                       1.100   1.100

     atomic species   valence    mass     pseudopotential
        Mo             6.00    95.50000     Mo( 1.00)
        S              6.00    32.06500     S ( 1.00)

     No symmetry found

   Cartesian axes

     site n.     atom                  positions (alat units)
         1           Mo  tau(   1) = (  -0.1084677  -0.1893623   1.5035758  )
         2           Mo  tau(   2) = (  -0.3367893  -0.5966953   3.5654542  )
         3           Mo  tau(   3) = (   0.4721269  -0.1367878   1.5200123  )
         4           Mo  tau(   4) = (   0.0877242  -0.6372471   3.7084620  )
         5           Mo  tau(   5) = (  -0.0563170  -0.0779760   0.5236620  )
         6           Mo  tau(   6) = (  -0.3000060  -0.4054259   2.5425521  )
         7           Mo  tau(   7) = (   0.4428287  -0.0697084   0.5122639  )
         8           Mo  tau(   8) = (   0.2002875  -0.3982530   2.5320759  )
         9           S   tau(   9) = (   0.1870010  -0.3057512   1.7073211  )
        10           S   tau(  10) = (  -0.1878881  -0.5229462   3.9140320  )
        11           S   tau(  11) = (   0.6881687  -0.3030628   1.7643919  )
        12           S   tau(  12) = (   0.3827747  -0.4685158   3.7570760  )
        13           S   tau(  13) = (  -0.0538098   0.2117133   0.2959438  )
        14           S   tau(  14) = (  -0.2952410  -0.1151228   2.3143297  )
        15           S   tau(  15) = (   0.4468718   0.2203886   0.2839388  )
        16           S   tau(  16) = (   0.2051115  -0.1075889   2.3032654  )
        17           S   tau(  17) = (  -0.0434241   0.1992565   0.7658770  )
        18           S   tau(  18) = (  -0.2886477  -0.1285274   2.7869476  )
        19           S   tau(  19) = (   0.4564251   0.2068982   0.7558848  )
        20           S   tau(  20) = (   0.2108343  -0.1218373   2.7758967  )
        21           S   tau(  21) = (   0.1768332  -0.0217592   1.3161160  )
        22           S   tau(  22) = (  -0.0430323  -0.4235204   3.4425334  )
        23           S   tau(  23) = (   0.6767914  -0.0088431   1.2397759  )
        24           S   tau(  24) = (   0.4748409  -0.4006259   3.2920508  )

     number of k points=    10  Marzari-Vanderbilt smearing, width (Ry)=  0.0200
                       cart. coord. in units 2pi/alat
        k(    1) = (   0.0000000   0.0000000   0.0000000), wk =   0.1111111
        k(    2) = (  -0.0048720   0.3913812   0.0630893), wk =   0.2222222
        k(    3) = (  -0.0097441   0.7827624   0.1261786), wk =   0.2222222
        k(    4) = (   0.0146161  -1.1741437  -0.1892679), wk =   0.1111111
        k(    5) = (   0.3317352   0.1875443   0.0622134), wk =   0.2222222
        k(    6) = (   0.3268632   0.5789255   0.1253027), wk =   0.2222222
        k(    7) = (   0.3219911   0.9703067   0.1883920), wk =   0.2222222
        k(    8) = (   0.3463514  -0.9865994  -0.1270545), wk =   0.2222222
        k(    9) = (   0.3414793  -0.5952182  -0.0639652), wk =   0.2222222
        k(   10) = (   0.3366073  -0.2038370  -0.0008759), wk =   0.2222222

     Initial potential from superposition of free atoms

     starting charge  143.98738, renormalised to  144.00000
     Starting wfcs are  136 randomized atomic wfcs

     Self-consistent Calculation

[...]

     total energy              =    -563.42393668 Ry
     Harris-Foulkes estimate   =    -563.42393701 Ry
     estimated scf accuracy    <       0.00000138 Ry

     iteration # 21     ecut=    45.00 Ry     beta= 0.70
     Davidson diagonalization with overlap
     ethr =  9.59E-10,  avg # of iterations =  2.9

     End of self-consistent calculation

          k = 0.0000 0.0000 0.0000 ( 17457 PWs)   bands (ev):

    -8.1661  -7.9782  -7.5709  -7.4762  -6.9245  -6.7723  -6.5543  -6.5129
    -6.4771  -6.3510  -6.1442  -6.0717  -5.7631  -5.7517  -5.7339  -5.7067
     0.3401   0.4110   0.5149   0.6460   0.7805   0.8885   1.0570   1.3069
     1.3757   1.4760   1.8083   1.8337   1.9755   2.0311   2.1316   2.3499
     2.8264   2.8501   3.0125   3.0377   3.2306   3.2972   3.4118   3.4121
     3.4333   3.4458   3.5000   3.6370   3.7390   3.8376   3.8785   3.9021
     4.1489   4.2010   4.3100   4.4443   4.4733   4.5356   4.6629   4.8444
     4.8895   4.9937   5.0189   5.1563   5.1996   5.3102   5.4291   5.4981
     5.5272   5.6422   5.7044   5.9657   6.1048   6.3287   6.3897   6.5571
     6.9667   7.2058   7.2096   7.2649   7.7552   7.8126   8.1532   8.1613
     8.3698   8.4204   8.4511   8.4874   8.5591   8.5648

          k =-0.0049 0.3914 0.0631 ( 17368 PWs)   bands (ev):

[...]

          k =-0.0097 0.7828 0.1262 ( 17269 PWs)   bands (ev):

[...]

          k = 0.3366-0.2038-0.0009 ( 17373 PWs)   bands (ev):

    -7.8277  -7.6319  -7.2231  -7.1005  -6.8292  -6.6118  -6.4926  -6.4558
    -6.3689  -6.1874  -6.0946  -6.0602  -5.8319  -5.6993  -5.6287  -5.5912
     0.6727   0.7983   0.8345   1.0960   1.1303   1.2441   1.2998   1.3190
     1.5224   1.6029   1.7225   1.7617   1.8011   2.1010   2.3255   2.3874
     2.5139   2.5873   2.6360   2.8649   2.9486   3.0051   3.0219   3.1614
     3.2175   3.3140   3.3687   3.5029   3.5077   3.5868   3.6430   3.6838
     3.7102   3.9036   3.9240   4.0222   4.0681   4.1293   4.1625   4.3091
     4.3722   4.4859   4.6342   4.9250   5.0883   5.2014   5.3177   5.3689
     5.4496   5.5993   5.7467   5.7710   5.8609   5.9148   6.0845   6.2083
     6.8395   6.9029   7.4262   7.6154   7.7150   7.7723   8.1098   8.1526
     8.1671   8.2606   8.2866   8.3152   8.5191   8.6173

     the Fermi energy is     6.5078 ev

!    total energy              =    -563.42393669 Ry
     Harris-Foulkes estimate   =    -563.42393687 Ry
     estimated scf accuracy    <       0.00000020 Ry

     The total energy is the sum of the following terms:

     one-electron contribution =     -63.32502504 Ry
     hartree contribution      =     112.81739986 Ry
     xc contribution           =    -222.53261752 Ry
     ewald contribution        =    -390.38827650 Ry
     smearing contrib. (-TS)   =       0.00458250 Ry

     convergence has been achieved in  21 iterations

     Forces acting on atoms (cartesian axes, Ry/au):

     atom    1 type  1   force =     0.00706719    0.00019599    0.00098435
     atom    2 type  1   force =    -0.00598393   -0.00004695   -0.00069491
     atom    3 type  1   force =    -0.00601489   -0.00404741   -0.00126899
     atom    4 type  1   force =     0.00435155    0.00103763    0.00074635
     atom    5 type  1   force =    -0.00222751   -0.00114334   -0.00149777
     atom    6 type  1   force =     0.00012768   -0.00106372    0.00161230
     atom    7 type  1   force =     0.00490994   -0.00167374    0.00088711
     atom    8 type  1   force =    -0.00116256    0.00033666   -0.00095872
     atom    9 type  2   force =     0.00168206   -0.00269273    0.00532835
     atom   10 type  2   force =     0.00262358   -0.00037228   -0.00307726
     atom   11 type  2   force =    -0.00315592   -0.00027606    0.00073355
     atom   12 type  2   force =     0.00149014   -0.00255926   -0.00284581
     atom   13 type  2   force =    -0.00042542    0.00080487   -0.00245021
     atom   14 type  2   force =    -0.00332503   -0.00046281    0.00310734
     atom   15 type  2   force =     0.00035325    0.00051930    0.00325289
     atom   16 type  2   force =    -0.00324597   -0.00115317    0.00443671
     atom   17 type  2   force =     0.00077823    0.00130390    0.00388413
     atom   18 type  2   force =     0.00295566    0.00113294   -0.00496823
     atom   19 type  2   force =    -0.00289370    0.00056487   -0.00197287
     atom   20 type  2   force =     0.00475634    0.00136392   -0.00465884
     atom   21 type  2   force =     0.00010411    0.00377946   -0.00390783
     atom   22 type  2   force =    -0.00453250   -0.00063339   -0.00237661
     atom   23 type  2   force =     0.00009126    0.00269174   -0.00003861
     atom   24 type  2   force =     0.00167644    0.00239356    0.00574359

     Total force =     0.023934     Total SCF correction =     0.001119

     General routines

     Parallel routines

   This run was terminated on:  12:26: 2   8Sep2021

   JOB DONE.