     Program PWSCF v.6.4 starts on 19Nov2021 at 21: 2:20

     R & G space division:  proc/nbgrp/npool/nimage =      40
     Waiting for input...
     Reading input from standard input
Warning: card    &IONS ignored
Warning: card      ION_DYNAMICS = 'BFGS' ignored
Warning: card   / ignored
Warning: card    &CELL ignored
Warning: card      CELL_DYNAMICS = 'BFGS', ignored
Warning: card    / ignored

     Current dimensions of program PWSCF are:
     Max number of different atomic species (ntypx) = 10
     Max number of k-points (npk) =  40000
     Max angular momentum in pseudopotentials (lmaxx) =  3

     bravais-lattice index     =            0
     lattice parameter (alat)  =      11.7538  a.u.
     unit-cell volume          =   12393.4188 (a.u.)^3
     number of atoms/cell      =           36
     number of atomic types    =            2
     number of electrons       =       216.00
     number of Kohn-Sham states=          130
     kinetic-energy cutoff     =      45.0000  Ry
     charge density cutoff     =     360.0000  Ry
     convergence threshold     =      1.0E-06
     mixing beta               =       0.7000
     number of iterations used =            8  local-TF  mixing
     Exchange-correlation      = SLA PW GGX GGC ( 1  4  2  2 0 0)

     celldm(1)=  11.753803  celldm(2)=   0.000000  celldm(3)=   0.000000
     celldm(4)=   0.000000  celldm(5)=   0.000000  celldm(6)=   0.000000

     crystal axes: (cart. coord. in units of alat)
               a(1) = (   1.000000   0.000000   0.000000 )
               a(2) = (   0.000281   1.812670   0.000000 )
               a(3) = (   0.354721   0.013177   4.210534 )

     reciprocal axes: (cart. coord. in units 2 pi/alat)
               b(1) = (  1.000000 -0.000155 -0.084246 )
               b(2) = (  0.000000  0.551672 -0.001726 )
               b(3) = (  0.000000  0.000000  0.237500 )

     PseudoPot. # 1 for Mo read from file:
     ~/pseudo/Mo.pw91-n-van.UPF
     MD5 check sum: Not computed, couldn't open file
     Pseudo is Ultrasoft + core correction, Zval =  6.0
     Generated by new atomic code, or converted to UPF format
     Using radial grid of  965 points,  3 beta functions with:
                l(1) =   1
                l(2) =   2
                l(3) =   2
     Q(r) pseudized with  8 coefficients,  rinner =    1.000   1.000   1.000
                                                       1.200   1.200

     PseudoPot. # 2 for S  read from file:
     ~/pseudo/S.pw91-van_ak.UPF
     MD5 check sum: Not computed, couldn't open file
     Pseudo is Ultrasoft, Zval =  6.0
     Generated by new atomic code, or converted to UPF format
     Using radial grid of  811 points,  6 beta functions with:
                l(1) =   0
                l(2) =   0
                l(3) =   1
                l(4) =   1
                l(5) =   2
                l(6) =   2
     Q(r) pseudized with  8 coefficients,  rinner =    1.100   1.100   1.100
                                                       1.100   1.100

     atomic species   valence    mass     pseudopotential
        Mo             6.00    95.50000     Mo( 1.00)
        S              6.00    32.06500     S ( 1.00)

     No symmetry found

   Cartesian axes

     site n.     atom                  positions (alat units)
         1           Mo  tau(   1) = (   0.3031385   1.2549733   1.3210395  )
         2           Mo  tau(   2) = (   1.0500279   0.8005326   1.3202830  )
         3           Mo  tau(   3) = (   0.8032124   1.2529554   1.3211493  )
         4           Mo  tau(   4) = (   0.5523047   0.8001322   1.3204089  )
         5           Mo  tau(   5) = (   0.8000780   0.3484949   1.3164464  )
         6           Mo  tau(   6) = (   0.3006226   0.3468450   1.3165358  )
         7           Mo  tau(   7) = (   0.5511638   1.7095783   1.3182330  )
         8           Mo  tau(   8) = (   1.0537334   1.7097102   1.3182628  )
         9           Mo  tau(   9) = (   0.0405963   1.1117186   0.3806451  )
        10           Mo  tau(  10) = (   0.5409984   1.1051224   0.3826035  )
        11           Mo  tau(  11) = (   0.6458565   0.3292835   2.6384404  )
        12           Mo  tau(  12) = (   1.1472732   0.3286690   2.6365382  )
        13           S   tau(  13) = (   1.0540225   1.0986696   1.0637060  )
        14           S   tau(  14) = (   0.3029216   1.5531267   1.0590394  )
        15           S   tau(  15) = (   0.5526741   1.0984798   1.0640190  )
        16           S   tau(  16) = (   0.8030461   1.5533996   1.0634304  )
        17           S   tau(  17) = (   0.8966553   0.5949096   2.5783681  )
        18           S   tau(  18) = (   0.3979434   0.2325696   2.3842711  )
        19           S   tau(  19) = (   1.0531481   1.0985838   1.5797288  )
        20           S   tau(  20) = (   0.3023743   1.5549291   1.5774872  )
        21           S   tau(  21) = (   0.5526772   1.0983295   1.5796865  )
        22           S   tau(  22) = (   0.8025250   1.5546676   1.5763454  )
        23           S   tau(  23) = (   0.8964773   0.0722302   2.7285138  )
        24           S   tau(  24) = (   0.3952375   0.4003669   2.9035825  )
        25           S   tau(  25) = (   0.8010251   0.6467698   1.0585980  )
        26           S   tau(  26) = (   0.3010255   0.6455988   1.0619805  )
        27           S   tau(  27) = (   0.8007265   0.6439020   1.5783286  )
        28           S   tau(  28) = (   0.3005027   0.6440280   1.5773981  )
        29           S   tau(  29) = (   0.5504131   0.1945389   1.5761552  )
        30           S   tau(  30) = (   1.0497091   0.1949877   1.5758173  )
        31           S   tau(  31) = (   0.2931543   1.3221682   0.5478117  )
        32           S   tau(  32) = (   0.7873110   1.2654940   0.1554772  )
        33           S   tau(  33) = (   0.5506642   0.1928670   1.0569348  )
        34           S   tau(  34) = (   1.0502992   0.1933238   1.0571540  )
        35           S   tau(  35) = (   0.2881139   0.8818384   0.2258570  )
        36           S   tau(  36) = (   0.7944566   0.9655989   0.6129691  )

     number of k points=     4  Marzari-Vanderbilt smearing, width (Ry)=  0.0200
                       cart. coord. in units 2pi/alat
        k(    1) = (   0.0000000   0.0000000   0.0000000), wk =   0.3333333
        k(    2) = (   0.0000000  -0.2758362   0.0008632), wk =   0.3333333
        k(    3) = (   0.3333333  -0.0000517  -0.0280819), wk =   0.6666667
        k(    4) = (   0.3333333  -0.2758879  -0.0272187), wk =   0.6666667

     Initial potential from superposition of free atoms

     starting charge  215.98107, renormalised to  216.00000

     negative rho (up, down):  7.716E-04 0.000E+00
     Starting wfcs are  204 randomized atomic wfcs

     Self-consistent Calculation

     iteration #  1     ecut=    45.00 Ry     beta= 0.70
     Davidson diagonalization with overlap
     ethr =  1.00E-02,  avg # of iterations =  2.5

     negative rho (up, down):  2.045E-05 0.000E+00

     total energy              =    -843.75753671 Ry
     Harris-Foulkes estimate   =    -846.34562478 Ry
     estimated scf accuracy    <       6.60297487 Ry

[...]

     iteration # 10     ecut=    45.00 Ry     beta= 0.70
     Davidson diagonalization with overlap
     c_bands:  2 eigenvalues not converged
     ethr =  2.00E-06,  avg # of iterations =  8.8

[...]

     iteration # 38     ecut=    45.00 Ry     beta= 0.70
     Davidson diagonalization with overlap
     c_bands:  2 eigenvalues not converged
     c_bands:  1 eigenvalues not converged
     ethr =  2.77E-07,  avg # of iterations = 13.0

[...]

     total energy              =    -845.04838935 Ry
     Harris-Foulkes estimate   =    -845.04839006 Ry
     estimated scf accuracy    <       0.00000570 Ry

     iteration # 50     ecut=    45.00 Ry     beta= 0.70
     Davidson diagonalization with overlap
     ethr =  1.34E-09,  avg # of iterations =  1.0

[...]

     End of self-consistent calculation

          k = 0.0000 0.0000 0.0000 ( 63185 PWs)   bands (ev):

   -14.7910 -14.0445 -14.0241 -13.7150 -13.6187 -13.5894 -13.3270 -13.3116
   -13.0814 -13.0413 -13.0405 -13.0221 -13.0170 -12.9392 -12.9242 -12.9212
   -12.8965 -12.8810 -12.8776 -12.8727 -12.6821 -12.6718 -12.6625 -12.6432
    -6.4884  -6.4294  -6.4107  -6.3153  -5.8732  -5.8479  -5.7405  -5.6370
    -5.6311  -5.6238  -5.6196  -5.5782  -5.5729  -5.5416  -5.4778  -4.8262
    -4.8072  -4.7556  -4.6551  -4.6395  -4.5550  -4.5480  -4.5425  -4.5300
    -4.5276  -4.5140  -4.3235  -4.3167  -4.2959  -4.2708  -4.2582  -4.2521
    -4.0887  -4.0588  -4.0499  -4.0314  -4.0025  -3.9863  -3.9827  -3.9216
    -3.9121  -3.9083  -3.4769  -3.4731  -3.3998  -3.3924  -3.3765  -3.3517
    -2.9370  -2.9241  -2.7641  -2.7509  -2.7447  -2.6709  -2.6003  -2.5921
    -2.5788  -2.5644  -2.5044  -2.4374  -2.4006  -2.2603  -2.1843  -2.1497
    -2.1162  -2.1010  -2.0032  -1.9926  -1.8533  -1.7058  -1.6997  -1.6759
    -1.6583  -1.5841  -1.3544  -1.3480  -1.3306  -1.2968  -1.2452  -0.9745
    -0.9528  -0.9507  -0.9429  -0.9332  -0.7660  -0.7261   0.6496   0.6715
     0.7599   0.7676   1.1074   1.1819   1.1925   1.2143   1.3368   1.3418
     1.3535   1.3592   1.3847   1.4005   1.4270   1.6902   1.7101   1.8247
     1.8758   1.9564

[...]

          k = 0.3333-0.2759-0.0272 ( 63140 PWs)   bands (ev):

   -14.3047 -14.2835 -13.5923 -13.5613 -13.5102 -13.4396 -13.4137 -13.3605
   -13.2130 -13.1787 -13.1328 -13.0967 -13.0414 -13.0295 -13.0270 -13.0146
   -13.0045 -12.9758 -12.8938 -12.8775 -12.8559 -12.8261 -12.6624 -12.6483
    -5.8943  -5.8413  -5.8212  -5.7876  -5.7825  -5.7513  -5.7440  -5.7282
    -5.7180  -5.7065  -5.2763  -5.2398  -5.1670  -5.1529  -4.7990  -4.7336
    -4.6645  -4.5803  -4.5740  -4.5621  -4.5303  -4.4926  -4.4862  -4.4616
    -4.4427  -4.4145  -4.4103  -4.3816  -4.3463  -4.3394  -4.0863  -4.0766
    -4.0351  -4.0056  -3.9794  -3.9445  -3.9326  -3.9306  -3.9110  -3.8842
    -3.8680  -3.8077  -3.7046  -3.6639  -3.6465  -3.5848  -3.5735  -3.5686
    -3.5568  -3.4915  -3.1377  -3.1016  -3.0917  -3.0764  -2.9466  -2.9329
    -2.9215  -2.9095  -2.8702  -2.8291  -2.7140  -2.6890  -2.6821  -2.6513
    -2.4128  -2.3833  -2.2861  -2.2233  -2.1737  -2.1403  -1.8337  -1.7853
    -1.6786  -1.6705  -1.2867  -1.2818  -1.2622  -1.2251  -1.0081  -0.9804
    -0.8644  -0.8576  -0.7579  -0.7438   0.0132   0.0262   0.9129   0.9263
     0.9311   1.0024   1.0037   1.0766   1.1566   1.1742   1.2616   1.2719
     1.2957   1.3036   1.3357   1.3693   1.5546   1.5658   1.5886   1.6020
     1.6044   1.6253

     the Fermi energy is    -0.6592 ev

!    total energy              =    -845.04838824 Ry
     Harris-Foulkes estimate   =    -845.04838954 Ry
     estimated scf accuracy    <       0.00000094 Ry

     The total energy is the sum of the following terms:

     one-electron contribution =   -4978.60095365 Ry
     hartree contribution      =    2556.12450125 Ry
     xc contribution           =    -333.41483887 Ry
     ewald contribution        =    1910.82823586 Ry
     smearing contrib. (-TS)   =       0.01466717 Ry

     convergence has been achieved in  50 iterations

     negative rho (up, down):  1.311E-03 0.000E+00

     Forces acting on atoms (cartesian axes, Ry/au):

     atom    1 type  1   force =    -0.00036614   -0.00620223    0.00128267
     atom    2 type  1   force =     0.00662049   -0.01041507   -0.00174219
     atom    3 type  1   force =    -0.00058995   -0.00103431   -0.00062759
     atom    4 type  1   force =    -0.00419978   -0.00865812   -0.00215080
     atom    5 type  1   force =     0.00221499   -0.00948436    0.00230731
     atom    6 type  1   force =     0.00000738   -0.00384994    0.00437008
     atom    7 type  1   force =     0.00549501   -0.01278502    0.00080257
     atom    8 type  1   force =    -0.00607362   -0.01282998    0.00043464
     atom    9 type  1   force =    -0.00163885   -0.00491746   -0.00654386
     atom   10 type  1   force =     0.00202807   -0.00028722   -0.00702953
     atom   11 type  1   force =     0.00181551   -0.00411140    0.02689944
     atom   12 type  1   force =    -0.00174360   -0.00390650    0.02872376
     atom   13 type  2   force =    -0.00139572    0.00643431    0.01201289
     atom   14 type  2   force =    -0.00075984    0.00166645    0.01872740
     atom   15 type  2   force =    -0.00150127    0.00656083    0.01236489
     atom   16 type  2   force =    -0.00115857   -0.00020089    0.00603075
     atom   17 type  2   force =    -0.00031401    0.01750798   -0.01900500
     atom   18 type  2   force =    -0.00077275    0.00031592   -0.03481846
     atom   19 type  2   force =    -0.00055836    0.00449870   -0.01175015
     atom   20 type  2   force =     0.00046312    0.00293604   -0.01023649
     atom   21 type  2   force =     0.00005996    0.00473741   -0.01178617
     atom   22 type  2   force =     0.00008135    0.00331076   -0.01012518
     atom   23 type  2   force =     0.00003506   -0.01461709   -0.00347272
     atom   24 type  2   force =     0.00033375    0.00618963    0.00159818
     atom   25 type  2   force =    -0.00044779    0.00383433    0.01859464
     atom   26 type  2   force =    -0.00042907    0.00763934    0.00842951
     atom   27 type  2   force =     0.00041049    0.00514722   -0.01180468
     atom   28 type  2   force =     0.00068066    0.00463433   -0.01219172
     atom   29 type  2   force =     0.00033251    0.00274368   -0.01180220
     atom   30 type  2   force =     0.00146189    0.00216701   -0.01139733
     atom   31 type  2   force =     0.00049941    0.02044594    0.00384047
     atom   32 type  2   force =     0.00072720    0.00345161   -0.00515188
     atom   33 type  2   force =    -0.00036450    0.00449965    0.01445440
     atom   34 type  2   force =     0.00047838    0.00390859    0.01431819
     atom   35 type  2   force =     0.00001012   -0.00566451   -0.00418716
     atom   36 type  2   force =    -0.00144151   -0.01366562    0.00063131

     Total force =     0.090987     Total SCF correction =     0.002133

     General routines

     Parallel routines

   This run was terminated on:  21:13:57  19Nov2021

   JOB DONE.