     Program PWSCF v.6.4 starts on  8Sep2021 at 11:59:58

     R & G space division:  proc/nbgrp/npool/nimage =      40
     Waiting for input...
     Reading input from standard input
Warning: card    &IONS ignored
Warning: card      ION_DYNAMICS = 'BFGS' ignored
Warning: card   / ignored
Warning: card    &CELL ignored
Warning: card      CELL_DYNAMICS = 'BFGS', ignored
Warning: card    / ignored

     Current dimensions of program PWSCF are:
     Max number of different atomic species (ntypx) = 10
     Max number of k-points (npk) =  40000
     Max angular momentum in pseudopotentials (lmaxx) =  3

     bravais-lattice index     =            0
     lattice parameter (alat)  =       6.2252  a.u.
     unit-cell volume          =    1132.2060 (a.u.)^3
     number of atoms/cell      =            9
     number of atomic types    =            2
     number of electrons       =        54.00
     number of Kohn-Sham states=           32
     kinetic-energy cutoff     =      45.0000  Ry
     charge density cutoff     =     360.0000  Ry
     convergence threshold     =      1.0E-06
     mixing beta               =       0.7000
     number of iterations used =            8  local-TF  mixing
     Exchange-correlation      = SLA PW GGX GGC ( 1  4  2  2 0 0)

     celldm(1)=   6.225223  celldm(2)=   0.000000  celldm(3)=   0.000000
     celldm(4)=   0.000000  celldm(5)=   0.000000  celldm(6)=   0.000000

     crystal axes: (cart. coord. in units of alat)
               a(1) = (   0.999999   0.000207   0.001286 )
               a(2) = (   0.000468   1.805893   0.039031 )
               a(3) = (  -0.497162  -0.558488   2.586071 )

     reciprocal axes: (cart. coord. in units 2 pi/alat)
               b(1) = (  0.999756 -0.004393  0.191251 )
               b(2) = ( -0.000267  0.551171  0.118980 )
               b(3) = ( -0.000493 -0.008317  0.384796 )

     PseudoPot. # 1 for Mo read from file:
     ~/pseudo/Mo.pw91-n-van.UPF
     MD5 check sum: Not computed, couldn't open file
     Pseudo is Ultrasoft + core correction, Zval =  6.0
     Generated by new atomic code, or converted to UPF format
     Using radial grid of  965 points,  3 beta functions with:
                l(1) =   1
                l(2) =   2
                l(3) =   2
     Q(r) pseudized with  8 coefficients,  rinner =    1.000   1.000   1.000
                                                       1.200   1.200

     PseudoPot. # 2 for S  read from file:
     ~/pseudo/S.pw91-van_ak.UPF
     MD5 check sum: Not computed, couldn't open file
     Pseudo is Ultrasoft, Zval =  6.0
     Generated by new atomic code, or converted to UPF format
     Using radial grid of  811 points,  6 beta functions with:
                l(1) =   0
                l(2) =   0
                l(3) =   1
                l(4) =   1
                l(5) =   2
                l(6) =   2
     Q(r) pseudized with  8 coefficients,  rinner =    1.100   1.100   1.100
                                                       1.100   1.100

     atomic species   valence    mass     pseudopotential
        Mo             6.00    95.50000     Mo( 1.00)
        S              6.00    32.06500     S ( 1.00)

     No symmetry found

   Cartesian axes

     site n.     atom                  positions (alat units)
         1           Mo  tau(   1) = (   0.7666154   0.5283895   1.1640957  )
         2           Mo  tau(   2) = (   0.2677651   0.5406909   1.9656263  )
         3           Mo  tau(   3) = (   0.2638889   0.5223435   0.3521099  )
         4           S   tau(   4) = (   0.2664102   1.0044629   0.8711942  )
         5           S   tau(   5) = (   0.7645693   0.0326608   0.5954682  )
         6           S   tau(   6) = (  -0.2335234   1.0317835   1.7269464  )
         7           S   tau(   7) = (   0.2666946   0.0542665   1.4459346  )
         8           S   tau(   8) = (  -0.2330367   0.6132605   2.5190011  )
         9           S   tau(   9) = (   0.2674738  -0.1081396   2.3841361  )

     number of k points=    22  Marzari-Vanderbilt smearing, width (Ry)=  0.0200
                       cart. coord. in units 2pi/alat
        k(    1) = (   0.0000000   0.0000000   0.0000000), wk =   0.0500000
        k(    2) = (   0.0002466   0.0041583  -0.1923981), wk =   0.0500000
        k(    3) = (  -0.0000668   0.1377928   0.0297449), wk =   0.1000000
        k(    4) = (   0.0001798   0.1419511  -0.1626532), wk =   0.1000000
        k(    5) = (   0.0001335  -0.2755857  -0.0594898), wk =   0.0500000
        k(    6) = (   0.0003801  -0.2714274  -0.2518879), wk =   0.0500000
        k(    7) = (   0.1999512  -0.0008785   0.0382501), wk =   0.1000000
        k(    8) = (   0.2001977   0.0032798  -0.1541480), wk =   0.1000000
        k(    9) = (   0.1998844   0.1369143   0.0679950), wk =   0.1000000
        k(   10) = (   0.2001310   0.1410726  -0.1244031), wk =   0.1000000
        k(   11) = (   0.2000847  -0.2764642  -0.0212397), wk =   0.1000000
        k(   12) = (   0.2003312  -0.2723059  -0.2136378), wk =   0.1000000
        k(   13) = (   0.2000179  -0.1386713   0.0085052), wk =   0.1000000
        k(   14) = (   0.2002645  -0.1345130  -0.1838929), wk =   0.1000000
        k(   15) = (   0.3999023  -0.0017570   0.0765003), wk =   0.1000000
        k(   16) = (   0.4001489   0.0024013  -0.1158978), wk =   0.1000000
        k(   17) = (   0.3998356   0.1360358   0.1062452), wk =   0.1000000
        k(   18) = (   0.4000821   0.1401941  -0.0861529), wk =   0.1000000
        k(   19) = (   0.4000359  -0.2773427   0.0170105), wk =   0.1000000
        k(   20) = (   0.4002824  -0.2731844  -0.1753876), wk =   0.1000000
        k(   21) = (   0.3999691  -0.1395498   0.0467554), wk =   0.1000000
        k(   22) = (   0.4002156  -0.1353915  -0.1456427), wk =   0.1000000

     Initial potential from superposition of free atoms

     starting charge   53.99527, renormalised to   54.00000
     Starting wfcs are   51 randomized atomic wfcs

     Self-consistent Calculation

     iteration #  1     ecut=    45.00 Ry     beta= 0.70
     Davidson diagonalization with overlap
     ethr =  1.00E-02,  avg # of iterations =  2.0

     total energy              =    -210.80986680 Ry
     Harris-Foulkes estimate   =    -211.50934328 Ry
     estimated scf accuracy    <       1.79032781 Ry

[...]

     total energy              =    -211.19545891 Ry
     Harris-Foulkes estimate   =    -211.19545932 Ry
     estimated scf accuracy    <       0.00000229 Ry

     iteration # 12     ecut=    45.00 Ry     beta= 0.70
     Davidson diagonalization with overlap
     ethr =  4.23E-09,  avg # of iterations =  2.5

     End of self-consistent calculation

          k = 0.0000 0.0000 0.0000 (  5765 PWs)   bands (ev):

    -6.4673  -5.4082  -5.1409  -4.8199  -4.6017  -4.0710   1.8439   2.1646
     2.8360   3.3720   3.7284   3.8930   4.1917   4.3730   4.7791   4.7822
     5.4049   5.5585   5.8417   5.8586   5.9725   6.4634   6.9150   7.3016
     7.4266   7.8533   7.8926   8.0535   8.8741   9.6570   9.9368  10.1699

[...]

          k =-0.0001 0.1378 0.0297 (  5786 PWs)   bands (ev):

[...]

          k = 0.4002-0.1354-0.1456 (  5756 PWs)   bands (ev):

    -5.0497  -4.9310  -4.7431  -4.4927  -4.2924  -4.0343   2.2020   2.4861
     2.6370   2.7742   3.2657   3.4034   3.6741   3.8896   4.3194   4.4849
     4.5818   4.6254   5.0125   5.3034   5.4383   5.7202   6.4857   6.6721
     7.1334   7.1909   8.6097   8.8592   9.4269   9.5747   9.8348  10.0719

     the Fermi energy is     8.4976 ev

!    total energy              =    -211.19545909 Ry
     Harris-Foulkes estimate   =    -211.19545912 Ry
     estimated scf accuracy    <       0.00000004 Ry

     The total energy is the sum of the following terms:

     one-electron contribution =      24.15601285 Ry
     hartree contribution      =      21.51482292 Ry
     xc contribution           =     -83.50853779 Ry
     ewald contribution        =    -173.35619126 Ry
     smearing contrib. (-TS)   =      -0.00156580 Ry

     convergence has been achieved in  12 iterations

     Forces acting on atoms (cartesian axes, Ry/au):

     atom    1 type  1   force =    -0.00043941    0.00706806   -0.00425156
     atom    2 type  1   force =    -0.00039641   -0.00286064    0.00971184
     atom    3 type  1   force =    -0.00032379   -0.00107184   -0.01110494
     atom    4 type  2   force =    -0.00008343   -0.00269270   -0.00069077
     atom    5 type  2   force =     0.00046066    0.01322973    0.00223506
     atom    6 type  2   force =     0.00060154   -0.01561808   -0.00608572
     atom    7 type  2   force =    -0.00020594    0.00165710    0.00771779
     atom    8 type  2   force =     0.00030279   -0.00316409   -0.00091011
     atom    9 type  2   force =     0.00008400    0.00345246    0.00337841

     Total force =     0.029349     Total SCF correction =     0.000350

     General routines

     Parallel routines

   This run was terminated on:  12: 0:22   8Sep2021

   JOB DONE.