     Program PWSCF v.6.4 starts on 19Nov2021 at 22:54: 4

     R & G space division:  proc/nbgrp/npool/nimage =      40
     Waiting for input...
     Reading input from standard input
Warning: card    &IONS ignored
Warning: card      ION_DYNAMICS = 'BFGS' ignored
Warning: card   / ignored
Warning: card    &CELL ignored
Warning: card      CELL_DYNAMICS = 'BFGS', ignored
Warning: card    / ignored

     Current dimensions of program PWSCF are:
     Max number of different atomic species (ntypx) = 10
     Max number of k-points (npk) =  40000
     Max angular momentum in pseudopotentials (lmaxx) =  3

     bravais-lattice index     =            0
     lattice parameter (alat)  =      11.7937  a.u.
     unit-cell volume          =    6532.2595 (a.u.)^3
     number of atoms/cell      =           36
     number of atomic types    =            2
     number of electrons       =       216.00
     number of Kohn-Sham states=          130
     kinetic-energy cutoff     =      45.0000  Ry
     charge density cutoff     =     360.0000  Ry
     convergence threshold     =      1.0E-06
     mixing beta               =       0.7000
     number of iterations used =            8  local-TF  mixing
     Exchange-correlation      = SLA PW GGX GGC ( 1  4  2  2 0 0)

     celldm(1)=  11.793654  celldm(2)=   0.000000  celldm(3)=   0.000000
     celldm(4)=   0.000000  celldm(5)=   0.000000  celldm(6)=   0.000000

     crystal axes: (cart. coord. in units of alat)
               a(1) = (   1.000000   0.000000   0.000000 )
               a(2) = (   0.000187   1.812834   0.000000 )
               a(3) = (  -0.062759  -0.349005   2.196648 )

     reciprocal axes: (cart. coord. in units 2 pi/alat)
               b(1) = (  1.000000 -0.000103  0.028554 )
               b(2) = (  0.000000  0.551623  0.087642 )
               b(3) = (  0.000000  0.000000  0.455239 )

     PseudoPot. # 1 for Mo read from file:
     ~/pseudo/Mo.pw91-n-van.UPF
     MD5 check sum: Not computed, couldn't open file
     Pseudo is Ultrasoft + core correction, Zval =  6.0
     Generated by new atomic code, or converted to UPF format
     Using radial grid of  965 points,  3 beta functions with:
                l(1) =   1
                l(2) =   2
                l(3) =   2
     Q(r) pseudized with  8 coefficients,  rinner =    1.000   1.000   1.000
                                                       1.200   1.200

     PseudoPot. # 2 for S  read from file:
     ~/pseudo/S.pw91-van_ak.UPF
     MD5 check sum: Not computed, couldn't open file
     Pseudo is Ultrasoft, Zval =  6.0
     Generated by new atomic code, or converted to UPF format
     Using radial grid of  811 points,  6 beta functions with:
                l(1) =   0
                l(2) =   0
                l(3) =   1
                l(4) =   1
                l(5) =   2
                l(6) =   2
     Q(r) pseudized with  8 coefficients,  rinner =    1.100   1.100   1.100
                                                       1.100   1.100

     atomic species   valence    mass     pseudopotential
        Mo             6.00    95.50000     Mo( 1.00)
        S              6.00    32.06500     S ( 1.00)

     No symmetry found

   Cartesian axes

     site n.     atom                  positions (alat units)
         1           Mo  tau(   1) = (   0.6147772   0.7413494   0.7109822  )
         2           Mo  tau(   2) = (   0.8663883   1.1941374   0.7078918  )
         3           Mo  tau(   3) = (   0.1147534   0.7397825   0.7121977  )
         4           Mo  tau(   4) = (   0.3661030   1.1940844   0.7092641  )
         5           Mo  tau(   5) = (   0.1147872   1.6473552   0.7127635  )
         6           Mo  tau(   6) = (   0.6152327   1.6468067   0.7122873  )
         7           Mo  tau(   7) = (   0.3665938   0.2882541   0.7111469  )
         8           Mo  tau(   8) = (   0.8666768   0.2875525   0.7095556  )
         9           Mo  tau(   9) = (   0.3141519  -0.2632484   1.8698074  )
        10           Mo  tau(  10) = (   0.7738546  -0.2626548   1.8702853  )
        11           Mo  tau(  11) = (   0.7883153   0.6343125   1.8170510  )
        12           Mo  tau(  12) = (   0.3246656   0.6361898   1.8162559  )
        13           S   tau(  13) = (   0.8650924   0.8939036   0.4551068  )
        14           S   tau(  14) = (   0.6162612   0.4441751   0.4542907  )
        15           S   tau(  15) = (   0.3641641   0.8949114   0.4559304  )
        16           S   tau(  16) = (   0.1173729   0.4422028   0.4557675  )
        17           S   tau(  17) = (   0.5549239   0.3415643   1.8083795  )
        18           S   tau(  18) = (   0.0545447   0.6043658   1.5617583  )
        19           S   tau(  19) = (   0.8646837   0.8980081   0.9652600  )
        20           S   tau(  20) = (   0.6175366   0.4423966   0.9648470  )
        21           S   tau(  21) = (   0.3644607   0.8974682   0.9666694  )
        22           S   tau(  22) = (   0.1159263   0.4410589   0.9679933  )
        23           S   tau(  23) = (   0.5591740   0.9271827   1.7778938  )
        24           S   tau(  24) = (   0.0551833   0.6478595   2.0774523  )
        25           S   tau(  25) = (   0.1169461   1.3499388   0.4540168  )
        26           S   tau(  26) = (   0.6160709   1.3505084   0.4525582  )
        27           S   tau(  27) = (   0.1165008   1.3478252   0.9657102  )
        28           S   tau(  28) = (   0.6164434   1.3471582   0.9655806  )
        29           S   tau(  29) = (   0.3651305  -0.0101539   0.9683818  )
        30           S   tau(  30) = (   0.8638021  -0.0093249   0.9677872  )
        31           S   tau(  31) = (   0.0428432  -0.2364507   1.6094699  )
        32           S   tau(  32) = (   0.5443338   0.0267123   1.9287347  )
        33           S   tau(  33) = (   0.3649494  -0.0112200   0.4581410  )
        34           S   tau(  34) = (   0.8644563  -0.0123533   0.4569660  )
        35           S   tau(  35) = (   0.0436466  -0.2870640   2.1240290  )
        36           S   tau(  36) = (   0.5427164   1.2511471   1.8735168  )

     number of k points=     8  Marzari-Vanderbilt smearing, width (Ry)=  0.0200
                       cart. coord. in units 2pi/alat
        k(    1) = (   0.0000000   0.0000000   0.0000000), wk =   0.1666667
        k(    2) = (   0.0000000   0.0000000  -0.2276196), wk =   0.1666667
        k(    3) = (   0.0000000  -0.2758113  -0.0438211), wk =   0.1666667
        k(    4) = (   0.0000000  -0.2758113  -0.2714407), wk =   0.1666667
        k(    5) = (   0.3333333  -0.0000345   0.0095180), wk =   0.3333333
        k(    6) = (   0.3333333  -0.0000345  -0.2181016), wk =   0.3333333
        k(    7) = (   0.3333333  -0.2758458  -0.0343032), wk =   0.3333333
        k(    8) = (   0.3333333  -0.2758458  -0.2619227), wk =   0.3333333

     Initial potential from superposition of free atoms

     starting charge  215.98107, renormalised to  216.00000
     Starting wfcs are  204 randomized atomic wfcs

     Self-consistent Calculation

     iteration #  1     ecut=    45.00 Ry     beta= 0.70
     Davidson diagonalization with overlap
     ethr =  1.00E-02,  avg # of iterations =  2.8

     total energy              =    -843.62976067 Ry
     Harris-Foulkes estimate   =    -846.07377879 Ry
     estimated scf accuracy    <       6.24387857 Ry

[...]

     iteration # 10     ecut=    45.00 Ry     beta= 0.70
     Davidson diagonalization with overlap
     c_bands:  1 eigenvalues not converged
     c_bands:  2 eigenvalues not converged
     c_bands:  2 eigenvalues not converged
     ethr =  1.27E-06,  avg # of iterations = 11.2

[...]

     total energy              =    -844.84274691 Ry
     Harris-Foulkes estimate   =    -844.84274711 Ry
     estimated scf accuracy    <       0.00000104 Ry

     iteration # 17     ecut=    45.00 Ry     beta= 0.70
     Davidson diagonalization with overlap
     ethr =  4.80E-10,  avg # of iterations =  3.8

     End of self-consistent calculation

          k = 0.0000 0.0000 0.0000 ( 33259 PWs)   bands (ev):

   -11.1849 -11.0684 -10.5066  -9.7629  -9.7539  -9.3541  -9.0189  -9.0128
    -8.7969  -8.7603  -8.6714  -8.6587  -8.6460  -8.6325  -8.6237  -8.5912
    -8.4070  -8.4025  -8.3953  -8.3757  -8.1830  -8.1395  -7.9194  -7.8856
    -2.7249  -2.5136  -2.1938  -2.1283  -2.1211  -1.9926  -1.5885  -1.5668
    -1.3644  -1.3570  -1.3545  -1.3405  -1.2661  -1.2635  -1.1668  -0.9783
    -0.6867  -0.5018  -0.4804  -0.4619  -0.3799  -0.3536  -0.3212  -0.2748
    -0.1325  -0.0895  -0.0481  -0.0360  -0.0147   0.0020   0.2204   0.2506
     0.3101   0.3190   0.3517   0.4236   0.4923   0.6195   0.6621   0.6766
     0.7629   0.7703   0.8160   0.8178   0.8250   0.9444   1.2456   1.2817
     1.3268   1.4254   1.4578   1.4585   1.4708   1.6479   1.6764   1.8106
     1.8814   1.8889   1.9095   1.9898   2.0750   2.0866   2.0985   2.1130
     2.3514   2.4202   2.5211   2.5305   2.6232   2.6473   2.6838   2.7864
     2.9208   2.9433   2.9511   2.9562   2.9699   2.9993   3.2433   3.4626
     3.7619   3.7854   3.8413   3.8648   3.9923   4.3683   4.8959   5.3463
     5.4040   5.4724   5.5462   5.5828   5.5871   5.6244   5.6320   5.6366
     5.7747   5.8400   5.9207   5.9302   5.9672   5.9844   6.0172   6.0692
     6.1640   6.2177

[...]

          k = 0.3333-0.2758-0.2619 ( 33300 PWs)   bands (ev):

   -11.1610 -11.0820 -10.0185 -10.0132  -9.3090  -9.3029  -9.1080  -9.1057
    -8.9365  -8.9275  -8.7353  -8.7304  -8.6297  -8.6203  -8.6100  -8.5975
    -8.5916  -8.5833  -8.3894  -8.3827  -8.1624  -8.1263  -7.9812  -7.9553
    -2.5805  -2.5649  -1.5728  -1.5691  -1.5063  -1.5052  -1.4810  -1.4758
    -1.4703  -1.4663  -1.4484  -1.4415  -0.9737  -0.9692  -0.7780  -0.7202
    -0.4546  -0.4445  -0.3832  -0.3091  -0.2725  -0.2642  -0.2360  -0.2270
    -0.2181  -0.2054   0.0665   0.0819   0.1678   0.1690   0.2436   0.2902
     0.3625   0.3807   0.4129   0.4213   0.4348   0.4560   0.6221   0.6274
     0.6543   0.6623   0.7066   0.7083   0.7659   0.8093   1.0488   1.0974
     1.2679   1.2819   1.2956   1.3010   1.3283   1.3350   1.5026   1.5062
     1.5429   1.5643   1.6368   1.6381   1.8628   1.8936   1.9228   2.0027
     2.0293   2.0556   2.0580   2.0659   2.3717   2.4161   2.4889   2.4941
     2.6116   2.6171   2.9704   2.9743   3.0684   3.0746   3.2701   3.2709
     3.7570   3.8137   4.2013   4.2175   4.6501   4.7118   5.0579   5.0743
     5.3380   5.3679   5.4618   5.4684   5.5067   5.5224   5.5542   5.6008
     5.6114   5.6205   5.6354   5.6877   5.8595   5.8647   5.8918   5.8960
     5.9251   5.9272

     the Fermi energy is     4.3369 ev

!    total energy              =    -844.84274680 Ry
     Harris-Foulkes estimate   =    -844.84274714 Ry
     estimated scf accuracy    <       0.00000044 Ry

     The total energy is the sum of the following terms:

     one-electron contribution =    -575.44190910 Ry
     hartree contribution      =     389.13025775 Ry
     xc contribution           =    -333.70358583 Ry
     ewald contribution        =    -324.82538101 Ry
     smearing contrib. (-TS)   =      -0.00212861 Ry

     convergence has been achieved in  17 iterations

     Forces acting on atoms (cartesian axes, Ry/au):

     atom    1 type  1   force =     0.00168387    0.00805174    0.00238311
     atom    2 type  1   force =    -0.00063517    0.00793280    0.00467855
     atom    3 type  1   force =     0.00221965    0.00986654   -0.00109492
     atom    4 type  1   force =     0.00125174    0.00792320    0.00099914
     atom    5 type  1   force =     0.00221904    0.00564798   -0.00032998
     atom    6 type  1   force =    -0.00028314    0.00626943    0.00218991
     atom    7 type  1   force =    -0.00044606    0.00448392    0.00255897
     atom    8 type  1   force =    -0.00124369    0.00712920    0.00519182
     atom    9 type  1   force =    -0.07122684   -0.00734700    0.01502109
     atom   10 type  1   force =     0.06961318   -0.01567216    0.01254415
     atom   11 type  1   force =     0.05966735   -0.00867889   -0.01614828
     atom   12 type  1   force =    -0.06817808   -0.00478844   -0.01452921
     atom   13 type  2   force =     0.00050978   -0.00198865    0.00453131
     atom   14 type  2   force =    -0.00041694   -0.00680710    0.00723293
     atom   15 type  2   force =     0.00025999   -0.00362398    0.00393073
     atom   16 type  2   force =    -0.00172030   -0.00285722    0.00350668
     atom   17 type  2   force =     0.00302487    0.11317523   -0.03206146
     atom   18 type  2   force =     0.00458445    0.00377480   -0.02155429
     atom   19 type  2   force =     0.00007761   -0.00664998   -0.00395025
     atom   20 type  2   force =    -0.00184180   -0.00187053   -0.00186250
     atom   21 type  2   force =     0.00104812   -0.00674542   -0.00661919
     atom   22 type  2   force =     0.00019863   -0.00221549   -0.01015937
     atom   23 type  2   force =     0.00076225   -0.11854440   -0.02553749
     atom   24 type  2   force =     0.00592477    0.00625238    0.02759101
     atom   25 type  2   force =    -0.00138242   -0.00198580    0.00595567
     atom   26 type  2   force =    -0.00095516   -0.00531912    0.01016905
     atom   27 type  2   force =    -0.00227156   -0.00352849   -0.00668176
     atom   28 type  2   force =     0.00027786   -0.00264876   -0.00707403
     atom   29 type  2   force =    -0.00013627   -0.00373034   -0.00795083
     atom   30 type  2   force =     0.00245712   -0.00519010   -0.00725087
     atom   31 type  2   force =    -0.00053377    0.00382972   -0.02201463
     atom   32 type  2   force =    -0.00529437   -0.10469885    0.02843300
     atom   33 type  2   force =     0.00055040   -0.00247729    0.00274773
     atom   34 type  2   force =     0.00078071   -0.00167261    0.00351503
     atom   35 type  2   force =     0.00081100    0.00102054    0.01775011
     atom   36 type  2   force =    -0.00135680    0.13368312    0.02388909

     Total force =     0.285955     Total SCF correction =     0.001465

     General routines

     Parallel routines

   This run was terminated on:  22:56:51  19Nov2021

   JOB DONE.