     Program PWSCF v.6.4 starts on  3Dec2021 at 15:59:35

     R & G space division:  proc/nbgrp/npool/nimage =      40
     Waiting for input...
     Reading input from standard input
Warning: card    &IONS ignored
Warning: card      ION_DYNAMICS = 'BFGS' ignored
Warning: card   / ignored
Warning: card    &CELL ignored
Warning: card      CELL_DYNAMICS = 'BFGS', ignored
Warning: card    / ignored

     Current dimensions of program PWSCF are:
     Max number of different atomic species (ntypx) = 10
     Max number of k-points (npk) =  40000
     Max angular momentum in pseudopotentials (lmaxx) =  3

     bravais-lattice index     =            0
     lattice parameter (alat)  =      11.8497  a.u.
     unit-cell volume          =   14131.1785 (a.u.)^3
     number of atoms/cell      =           36
     number of atomic types    =            2
     number of electrons       =       216.00
     number of Kohn-Sham states=          130
     kinetic-energy cutoff     =      45.0000  Ry
     charge density cutoff     =     360.0000  Ry
     convergence threshold     =      1.0E-06
     mixing beta               =       0.7000
     number of iterations used =            8  local-TF  mixing
     Exchange-correlation      = SLA PW GGX GGC ( 1  4  2  2 0 0)

     celldm(1)=  11.849722  celldm(2)=   0.000000  celldm(3)=   0.000000
     celldm(4)=   0.000000  celldm(5)=   0.000000  celldm(6)=   0.000000

     crystal axes: (cart. coord. in units of alat)
               a(1) = (   1.000000   0.000000   0.000000 )
               a(2) = (  -0.000321   1.805757   0.000000 )
               a(3) = (   0.076342   0.859457   4.703212 )

     reciprocal axes: (cart. coord. in units 2 pi/alat)
               b(1) = (  1.000000  0.000178 -0.016264 )
               b(2) = (  0.000000  0.553784 -0.101198 )
               b(3) = (  0.000000  0.000000  0.212621 )

     PseudoPot. # 1 for Mo read from file:
     ~/pseudo/Mo.pw91-n-van.UPF
     MD5 check sum: Not computed, couldn't open file
     Pseudo is Ultrasoft + core correction, Zval =  6.0
     Generated by new atomic code, or converted to UPF format
     Using radial grid of  965 points,  3 beta functions with:
                l(1) =   1
                l(2) =   2
                l(3) =   2
     Q(r) pseudized with  8 coefficients,  rinner =    1.000   1.000   1.000
                                                       1.200   1.200

     PseudoPot. # 2 for S  read from file:
     ~/pseudo/S.pw91-van_ak.UPF
     MD5 check sum: Not computed, couldn't open file
     Pseudo is Ultrasoft, Zval =  6.0
     Generated by new atomic code, or converted to UPF format
     Using radial grid of  811 points,  6 beta functions with:
                l(1) =   0
                l(2) =   0
                l(3) =   1
                l(4) =   1
                l(5) =   2
                l(6) =   2
     Q(r) pseudized with  8 coefficients,  rinner =    1.100   1.100   1.100
                                                       1.100   1.100

     atomic species   valence    mass     pseudopotential
        Mo             6.00    95.50000     Mo( 1.00)
        S              6.00    32.06500     S ( 1.00)

     No symmetry found

   Cartesian axes

     site n.     atom                  positions (alat units)
         1           Mo  tau(   1) = (   0.9677591   1.5782350   1.3175968  )
         2           Mo  tau(   2) = (   0.2166647   2.0310841   1.3110836  )
         3           Mo  tau(   3) = (   0.4674826   1.5782650   1.3175766  )
         4           Mo  tau(   4) = (   0.7166421   2.0313895   1.3117097  )
         5           Mo  tau(   5) = (   0.4695123   0.6869355   1.3263824  )
         6           Mo  tau(   6) = (   0.9688564   0.6870230   1.3263237  )
         7           Mo  tau(   7) = (   0.7194603   1.1346286   1.3222762  )
         8           Mo  tau(   8) = (   0.2194277   1.1353226   1.3230333  )
         9           Mo  tau(   9) = (   0.4560422   0.4274639   0.6700527  )
        10           Mo  tau(  10) = (   0.9552569   0.4278648   0.6699333  )
        11           Mo  tau(  11) = (   0.6241136   1.1261404   3.3599998  )
        12           Mo  tau(  12) = (   0.1242306   1.1272456   3.3597530  )
        13           S   tau(  13) = (   0.2174648   1.7379289   1.0699193  )
        14           S   tau(  14) = (   0.9698130   1.2826833   1.0662625  )
        15           S   tau(  15) = (   0.7174928   1.7386433   1.0716236  )
        16           S   tau(  16) = (   0.4695529   1.2826682   1.0662617  )
        17           S   tau(  17) = (   0.3753224   1.3928428   3.3204249  )
        18           S   tau(  18) = (   0.8741319   1.1654795   3.6258265  )
        19           S   tau(  19) = (   0.2171173   1.7397579   1.5668927  )
        20           S   tau(  20) = (   0.9688427   1.2862199   1.5749128  )
        21           S   tau(  21) = (   0.7170974   1.7397518   1.5675006  )
        22           S   tau(  22) = (   0.4696743   1.2862447   1.5748939  )
        23           S   tau(  23) = (   0.3729918   0.8609529   3.4034533  )
        24           S   tau(  24) = (   0.8741835   1.0898080   3.0931122  )
        25           S   tau(  25) = (   0.4662938   0.3920071   1.0676801  )
        26           S   tau(  26) = (   0.9657749   0.3920819   1.0675757  )
        27           S   tau(  27) = (   0.4667637   0.3783931   1.5614668  )
        28           S   tau(  28) = (   0.9669758   0.3784526   1.5613477  )
        29           S   tau(  29) = (   0.7196202   0.8383291   1.5808187  )
        30           S   tau(  30) = (   0.2196208   0.8382057   1.5811453  )
        31           S   tau(  31) = (   0.2033123   0.6933312   0.5783234  )
        32           S   tau(  32) = (   0.7031026   0.6840336   0.5549872  )
        33           S   tau(  33) = (   0.7196652   0.8303664   1.0833019  )
        34           S   tau(  34) = (   0.2197248   0.8313590   1.0857354  )
        35           S   tau(  35) = (   0.2047645   0.1845740   0.5335237  )
        36           S   tau(  36) = (   0.7049987   0.1678111   0.5699295  )

     number of k points=     4  Marzari-Vanderbilt smearing, width (Ry)=  0.0200
                       cart. coord. in units 2pi/alat
        k(    1) = (   0.0000000   0.0000000   0.0000000), wk =   0.3333333
        k(    2) = (   0.0000000  -0.2768922   0.0505988), wk =   0.3333333
        k(    3) = (   0.3333333   0.0000592  -0.0054214), wk =   0.6666667
        k(    4) = (   0.3333333  -0.2768330   0.0451774), wk =   0.6666667

     Initial potential from superposition of free atoms

     starting charge  215.98107, renormalised to  216.00000

     negative rho (up, down):  1.406E-03 0.000E+00
     Starting wfcs are  204 randomized atomic wfcs

     Self-consistent Calculation

     iteration #  1     ecut=    45.00 Ry     beta= 0.70
     Davidson diagonalization with overlap
     ethr =  1.00E-02,  avg # of iterations =  2.5

     negative rho (up, down):  1.665E-04 0.000E+00

     total energy              =    -843.62992035 Ry
     Harris-Foulkes estimate   =    -846.30694151 Ry
     estimated scf accuracy    <       7.40171960 Ry

[...]

     total energy              =    -844.96427223 Ry
     Harris-Foulkes estimate   =    -844.96428010 Ry
     estimated scf accuracy    <       0.00000109 Ry

     iteration # 17     ecut=    45.00 Ry     beta= 0.70
     Davidson diagonalization with overlap
     ethr =  5.04E-10,  avg # of iterations =  4.8

[...]

     End of self-consistent calculation

          k = 0.0000 0.0000 0.0000 ( 71995 PWs)   bands (ev):

   -16.4135 -15.6811 -15.5696 -15.1102 -14.9545 -14.8440 -14.7038 -14.6049
   -14.5854 -14.4585 -14.3468 -14.3434 -14.2608 -14.1766 -14.1070 -14.0687
   -14.0082 -13.8015 -13.2085 -13.2012 -13.1600 -13.1159 -12.9322 -12.7445
    -8.0499  -8.0370  -7.9433  -7.9344  -7.4576  -7.4200  -7.2932  -7.2359
    -7.1879  -7.1765  -7.0460  -6.9671  -6.9653  -6.6182  -6.4623  -6.2660
    -6.1837  -6.1297  -5.9701  -5.8633  -5.8462  -5.8173  -5.8090  -5.8010
    -5.7397  -5.6542  -5.6184  -5.4476  -5.4009  -5.1138  -5.0804  -5.0369
    -4.9895  -4.9756  -4.7279  -4.6897  -4.6881  -4.6758  -4.6621  -4.4604
    -4.4577  -4.4352  -4.4326  -4.4073  -4.4001  -4.2393  -4.2376  -4.2241
    -4.1721  -3.9634  -3.9105  -3.8890  -3.8674  -3.8269  -3.8044  -3.7802
    -3.7682  -3.7464  -3.6104  -3.5612  -3.4852  -3.4323  -3.3158  -3.2940
    -3.0957  -2.9823  -2.9591  -2.9432  -2.9117  -2.8871  -2.8308  -2.7598
    -2.7501  -2.6872  -2.6123  -2.5741  -2.2410  -2.1884  -2.0870  -1.6232
    -1.3488  -1.1404  -1.1341  -0.8948  -0.8631  -0.5369  -0.4045  -0.2567
    -0.2343  -0.1455  -0.1256  -0.1163   0.0576   0.0761   0.0908   0.1152
     0.3051   0.3695   0.4933   0.5244   0.5245   0.5497   0.5595   0.5763
     0.6034   0.6704

[...]

          k = 0.3333-0.2768 0.0452 ( 72006 PWs)   bands (ev):

   -16.0498 -15.7505 -15.4000 -15.0646 -15.0620 -14.8434 -14.7695 -14.6882
   -14.6578 -14.5264 -14.4289 -14.3990 -14.3283 -14.3158 -14.1700 -14.1022
   -13.7407 -13.6246 -13.2819 -13.2008 -13.1969 -13.1391 -13.0839 -12.9705
    -7.6866  -7.6154  -7.5051  -7.4213  -7.3671  -7.3376  -7.2157  -7.1960
    -7.1924  -7.1874  -6.8677  -6.6948  -6.6914  -6.3505  -6.2402  -6.1694
    -6.0353  -6.0172  -5.9665  -5.9099  -5.7545  -5.7118  -5.5682  -5.4805
    -5.4326  -5.3731  -5.3613  -5.3050  -5.2558  -5.2145  -5.2011  -5.1904
    -5.1519  -5.1138  -5.0708  -5.0325  -4.7191  -4.7172  -4.6836  -4.6119
    -4.6102  -4.6070  -4.5414  -4.5322  -4.3970  -4.3941  -4.3703  -4.2948
    -4.2721  -4.1969  -4.1908  -4.0851  -4.0813  -4.0655  -3.9827  -3.9438
    -3.8767  -3.8069  -3.7677  -3.7006  -3.6724  -3.4615  -3.4153  -3.3650
    -3.3238  -3.2647  -3.2507  -3.1446  -3.0696  -3.0499  -3.0224  -2.8483
    -2.8165  -2.7420  -2.6238  -2.5654  -2.5540  -2.4454  -2.3242  -2.2258
    -1.5157  -1.2332  -1.0226  -0.8920  -0.4614  -0.3881  -0.2963  -0.2404
    -0.1990  -0.1871  -0.1501  -0.0630  -0.0621   0.0152   0.0866   0.0982
     0.1237   0.1734   0.2383   0.3013   0.3302   0.3697   0.3945   0.5910
     0.6993   0.7312

     the Fermi energy is    -0.7976 ev

!    total energy              =    -844.96427053 Ry
     Harris-Foulkes estimate   =    -844.96427244 Ry
     estimated scf accuracy    <       0.00000061 Ry

     The total energy is the sum of the following terms:

     one-electron contribution =   -6258.47257671 Ry
     hartree contribution      =    3187.87855665 Ry
     xc contribution           =    -333.85745157 Ry
     ewald contribution        =    2559.48530729 Ry
     smearing contrib. (-TS)   =       0.00189381 Ry

     convergence has been achieved in  17 iterations

     negative rho (up, down):  2.192E-03 0.000E+00

     Forces acting on atoms (cartesian axes, Ry/au):

     atom    1 type  1   force =    -0.00075049    0.02588655    0.01168241
     atom    2 type  1   force =    -0.00191115    0.02279413    0.02267276
     atom    3 type  1   force =     0.00093012    0.02577581    0.01159388
     atom    4 type  1   force =    -0.00149391    0.02175846    0.02399447
     atom    5 type  1   force =    -0.00190627   -0.01930067    0.02792060
     atom    6 type  1   force =     0.00037236   -0.01947277    0.02781201
     atom    7 type  1   force =    -0.00085442   -0.00347947    0.00736153
     atom    8 type  1   force =    -0.00060770   -0.00457665    0.00832122
     atom    9 type  1   force =    -0.00355071    0.00335589    0.03617354
     atom   10 type  1   force =    -0.00046077    0.00334271    0.03596970
     atom   11 type  1   force =    -0.00006890   -0.00054867    0.00082648
     atom   12 type  1   force =     0.00011164    0.00106111    0.00109944
     atom   13 type  2   force =    -0.00019745   -0.02442537   -0.02635533
     atom   14 type  2   force =    -0.00107647   -0.00338519   -0.00299510
     atom   15 type  2   force =    -0.00011135   -0.02611235   -0.02896182
     atom   16 type  2   force =    -0.00082801   -0.00337362   -0.00295168
     atom   17 type  2   force =    -0.00097078    0.01874575   -0.00297437
     atom   18 type  2   force =     0.00038676    0.00341031    0.01875260
     atom   19 type  2   force =     0.00097920   -0.01358343    0.00707781
     atom   20 type  2   force =     0.00042476    0.00240493    0.00179990
     atom   21 type  2   force =     0.00101202   -0.01386349    0.00587732
     atom   22 type  2   force =    -0.00046990    0.00242602    0.00167570
     atom   23 type  2   force =     0.00154235   -0.01843693    0.00053907
     atom   24 type  2   force =    -0.00002307   -0.00471650   -0.01809359
     atom   25 type  2   force =    -0.00062374   -0.00795760   -0.04197473
     atom   26 type  2   force =     0.00065488   -0.00836219   -0.04183820
     atom   27 type  2   force =     0.00073311   -0.00299632    0.01796325
     atom   28 type  2   force =     0.00149280   -0.00296330    0.01810154
     atom   29 type  2   force =    -0.00048905   -0.00009410    0.00184644
     atom   30 type  2   force =    -0.00047902    0.00006885    0.00104421
     atom   31 type  2   force =     0.00321388    0.00395699   -0.02067159
     atom   32 type  2   force =     0.00349472   -0.00159056   -0.00630023
     atom   33 type  2   force =    -0.00097495    0.02663369   -0.03980342
     atom   34 type  2   force =    -0.00092529    0.02633445   -0.04313736
     atom   35 type  2   force =     0.00191153   -0.00213959    0.00131766
     atom   36 type  2   force =     0.00151325   -0.00657689   -0.01536612

     Total force =     0.153384     Total SCF correction =     0.001577

     General routines

     Parallel routines

   This run was terminated on:  16: 4:45   3Dec2021

   JOB DONE.