     Program PWSCF v.6.4 starts on  8Sep2021 at 12:20:38

     R & G space division:  proc/nbgrp/npool/nimage =      40
     Waiting for input...
     Reading input from standard input
Warning: card    &IONS ignored
Warning: card      ION_DYNAMICS = 'BFGS' ignored
Warning: card   / ignored
Warning: card    &CELL ignored
Warning: card      CELL_DYNAMICS = 'BFGS', ignored
Warning: card    / ignored

     Current dimensions of program PWSCF are:
     Max number of different atomic species (ntypx) = 10
     Max number of k-points (npk) =  40000
     Max angular momentum in pseudopotentials (lmaxx) =  3

     bravais-lattice index     =            0
     lattice parameter (alat)  =      12.4853  a.u.
     unit-cell volume          =    3451.3777 (a.u.)^3
     number of atoms/cell      =           24
     number of atomic types    =            2
     number of electrons       =       144.00
     number of Kohn-Sham states=           86
     kinetic-energy cutoff     =      45.0000  Ry
     charge density cutoff     =     360.0000  Ry
     convergence threshold     =      1.0E-06
     mixing beta               =       0.7000
     number of iterations used =            8  local-TF  mixing
     Exchange-correlation      = SLA PW GGX GGC ( 1  4  2  2 0 0)

     celldm(1)=  12.485321  celldm(2)=   0.000000  celldm(3)=   0.000000
     celldm(4)=   0.000000  celldm(5)=   0.000000  celldm(6)=   0.000000

     crystal axes: (cart. coord. in units of alat)
               a(1) = (   0.999776   0.021147   0.000691 )
               a(2) = (  -0.242737   0.418603   0.000269 )
               a(3) = (  -0.314426   0.419446   4.186171 )

     reciprocal axes: (cart. coord. in units 2 pi/alat)
               b(1) = (  0.988093  0.572959  0.016807 )
               b(2) = ( -0.049756  2.360201 -0.240225 )
               b(3) = ( -0.000160 -0.000246  0.238894 )

     PseudoPot. # 1 for Mo read from file:
     ~/pseudo/Mo.pw91-n-van.UPF
     MD5 check sum: Not computed, couldn't open file
     Pseudo is Ultrasoft + core correction, Zval =  6.0
     Generated by new atomic code, or converted to UPF format
     Using radial grid of  965 points,  3 beta functions with:
                l(1) =   1
                l(2) =   2
                l(3) =   2
     Q(r) pseudized with  8 coefficients,  rinner =    1.000   1.000   1.000
                                                       1.200   1.200

     PseudoPot. # 2 for S  read from file:
     ~/pseudo/S.pw91-van_ak.UPF
     MD5 check sum: Not computed, couldn't open file
     Pseudo is Ultrasoft, Zval =  6.0
     Generated by new atomic code, or converted to UPF format
     Using radial grid of  811 points,  6 beta functions with:
                l(1) =   0
                l(2) =   0
                l(3) =   1
                l(4) =   1
                l(5) =   2
                l(6) =   2
     Q(r) pseudized with  8 coefficients,  rinner =    1.100   1.100   1.100
                                                       1.100   1.100

     atomic species   valence    mass     pseudopotential
        Mo             6.00    95.50000     Mo( 1.00)
        S              6.00    32.06500     S ( 1.00)

     No symmetry found

   Cartesian axes

     site n.     atom                  positions (alat units)
         1           Mo  tau(   1) = (   0.0912207   0.3334445   1.5071481  )
         2           Mo  tau(   2) = (  -0.3596390   0.4826794   3.7282430  )
         3           Mo  tau(   3) = (   0.5131214   0.2998453   1.5324333  )
         4           Mo  tau(   4) = (   0.2180247   0.5379682   3.7035050  )
         5           Mo  tau(   5) = (  -0.0995461  -0.1157160   0.5504332  )
         6           Mo  tau(   6) = (  -0.2474859   0.1363285   2.5910483  )
         7           Mo  tau(   7) = (   0.4758597  -0.0614551   0.5261732  )
         8           Mo  tau(   8) = (   0.1735594   0.1018848   2.6158669  )
         9           S   tau(   9) = (   0.3018889   0.4565306   1.7865115  )
        10           S   tau(  10) = (  -0.0734082   0.6489750   3.9193896  )
        11           S   tau(  11) = (   0.7990882   0.4651621   1.7229687  )
        12           S   tau(  12) = (   0.4294875   0.6606173   3.9834873  )
        13           S   tau(  13) = (  -0.0508369   0.1916593   0.3348185  )
        14           S   tau(  14) = (  -0.2814293   0.3970185   2.3361014  )
        15           S   tau(  15) = (   0.4456355   0.2005712   0.2729903  )
        16           S   tau(  16) = (   0.2237017   0.4103843   2.4025196  )
        17           S   tau(  17) = (  -0.0584718   0.4683169   0.7415172  )
        18           S   tau(  18) = (  -0.2786834   0.6786929   2.8711653  )
        19           S   tau(  19) = (   0.4450924   0.4809085   0.8049062  )
        20           S   tau(  20) = (   0.2165601   0.6864014   2.8062471  )
        21           S   tau(  21) = (   0.3012979   0.1759468   1.2535099  )
        22           S   tau(  22) = (  -0.0695596   0.3706372   3.5117308  )
        23           S   tau(  23) = (   0.8054180   0.1887197   1.3187840  )
        24           S   tau(  24) = (   0.4296933   0.3810162   3.4490737  )

     number of k points=     8  Marzari-Vanderbilt smearing, width (Ry)=  0.0200
                       cart. coord. in units 2pi/alat
        k(    1) = (   0.0000000   0.0000000   0.0000000), wk =   0.1333333
        k(    2) = (  -0.0099512   0.4720402  -0.0480450), wk =   0.2666667
        k(    3) = (  -0.0199023   0.9440803  -0.0960899), wk =   0.2666667
        k(    4) = (   0.3293645   0.1909862   0.0056023), wk =   0.2666667
        k(    5) = (   0.3194133   0.6630264  -0.0424426), wk =   0.2666667
        k(    6) = (   0.3094621   1.1350665  -0.0904876), wk =   0.2666667
        k(    7) = (   0.3492668  -0.7530942   0.1016923), wk =   0.2666667
        k(    8) = (   0.3393156  -0.2810540   0.0536473), wk =   0.2666667

     Initial potential from superposition of free atoms

     starting charge  143.98738, renormalised to  144.00000
     Starting wfcs are  136 randomized atomic wfcs

     Self-consistent Calculation

     iteration #  1     ecut=    45.00 Ry     beta= 0.70
     Davidson diagonalization with overlap
     ethr =  1.00E-02,  avg # of iterations =  2.0

     total energy              =    -562.37605560 Ry
     Harris-Foulkes estimate   =    -564.27266528 Ry
     estimated scf accuracy    <       4.97546389 Ry

[...]

     iteration #  7     ecut=    45.00 Ry     beta= 0.70
     Davidson diagonalization with overlap
     c_bands:  1 eigenvalues not converged
     c_bands:  1 eigenvalues not converged
     ethr =  8.34E-07,  avg # of iterations = 10.9

[...]

     total energy              =    -563.38077169 Ry
     Harris-Foulkes estimate   =    -563.38077192 Ry
     estimated scf accuracy    <       0.00000109 Ry

     iteration # 16     ecut=    45.00 Ry     beta= 0.70
     Davidson diagonalization with overlap
     ethr =  7.54E-10,  avg # of iterations =  3.0

     End of self-consistent calculation

          k = 0.0000 0.0000 0.0000 ( 17723 PWs)   bands (ev):

    -7.9768  -7.9015  -7.8346  -7.8200  -7.0127  -6.9208  -6.8684  -6.8471
    -6.2635  -6.2380  -6.1850  -6.1745  -6.1542  -6.1283  -6.0928  -6.0830
     0.1443   0.2144   0.2832   0.3012   0.5474   0.7985   0.8598   1.0284
     1.4680   1.5342   1.6137   1.6587   1.6988   1.7646   1.7785   1.7897
     2.8020   2.8176   2.8779   2.8796   2.8915   2.9137   2.9774   2.9807
     3.1317   3.2489   3.3275   3.3389   3.4869   3.5780   3.6306   3.7221
     3.8675   4.2147   4.2548   4.5012   4.7754   4.8433   4.8944   5.0061
     5.0762   5.1083   5.1678   5.1964   5.3520   5.5549   5.5954   5.6748
     5.7746   5.7915   5.8442   5.9373   5.9485   5.9662   6.0030   6.0638
     6.5148   6.5287   6.5915   6.6131   6.6144   6.7079   6.7609   6.8044
     7.9522   8.0258   8.0295   8.0596   8.0824   8.0928

          k =-0.0100 0.4720-0.0480 ( 17623 PWs)   bands (ev):

[...]

          k =-0.0199 0.9441-0.0961 ( 17539 PWs)   bands (ev):

[...]

          k = 0.3393-0.2811 0.0536 ( 17609 PWs)   bands (ev):

    -7.5055  -7.4298  -7.3624  -7.3495  -6.8226  -6.7407  -6.6873  -6.6663
    -6.2257  -6.1900  -6.1132  -6.1038  -6.0385  -6.0091  -5.9391  -5.9146
     0.7320   0.7541   0.8428   0.8576   0.9438   1.0937   1.1949   1.2203
     1.4083   1.4773   1.5314   1.6378   1.7217   1.8493   1.8796   1.9093
     2.3561   2.4570   2.5254   2.5582   2.6586   2.7789   2.8337   2.8658
     2.9069   2.9303   2.9587   2.9636   3.3027   3.3449   3.4237   3.4401
     3.5088   3.5996   3.6759   3.6966   3.7610   3.7809   3.8545   3.8768
     4.5211   4.5943   4.6584   4.6826   5.0169   5.1686   5.2565   5.2642
     5.2998   5.3356   5.3652   5.4764   5.5265   5.6751   5.7599   5.8346
     6.4293   6.4775   6.5240   6.5828   7.1444   7.2369   7.2846   7.3280
     8.1985   8.2509   8.2951   8.3507   8.4369   8.4619

     the Fermi energy is     6.0476 ev

!    total energy              =    -563.38077127 Ry
     Harris-Foulkes estimate   =    -563.38077193 Ry
     estimated scf accuracy    <       0.00000070 Ry

     The total energy is the sum of the following terms:

     one-electron contribution =    -105.52821348 Ry
     hartree contribution      =     132.93756366 Ry
     xc contribution           =    -222.49344410 Ry
     ewald contribution        =    -368.30847340 Ry
     smearing contrib. (-TS)   =       0.01179605 Ry

     convergence has been achieved in  16 iterations

     Forces acting on atoms (cartesian axes, Ry/au):

     atom    1 type  1   force =    -0.00182542   -0.00048612    0.00261718
     atom    2 type  1   force =     0.00085365   -0.00031759   -0.00062244
     atom    3 type  1   force =     0.00061035    0.00013956   -0.00026391
     atom    4 type  1   force =    -0.00254652   -0.00115262    0.00053742
     atom    5 type  1   force =    -0.00365503   -0.00158310   -0.00265266
     atom    6 type  1   force =    -0.00257620   -0.00067351    0.00094186
     atom    7 type  1   force =     0.00495994    0.00116033    0.00129480
     atom    8 type  1   force =     0.00139364    0.00069681   -0.00045512
     atom    9 type  2   force =     0.00009036   -0.00002062    0.00033208
     atom   10 type  2   force =    -0.00100727   -0.00056435   -0.00389576
     atom   11 type  2   force =     0.00052623    0.00077266    0.00081825
     atom   12 type  2   force =    -0.00048795    0.00031627   -0.00355449
     atom   13 type  2   force =    -0.00204480   -0.00082236    0.00214927
     atom   14 type  2   force =     0.00184992    0.00034966    0.00224488
     atom   15 type  2   force =    -0.00087131    0.00085797    0.00078071
     atom   16 type  2   force =    -0.00113963   -0.00059580   -0.00257110
     atom   17 type  2   force =     0.00236841    0.00039409   -0.00355017
     atom   18 type  2   force =    -0.00079375   -0.00116282   -0.00097577
     atom   19 type  2   force =     0.00002985   -0.00106933   -0.00230526
     atom   20 type  2   force =     0.00067081    0.00039804    0.00186136
     atom   21 type  2   force =     0.00205125    0.00086084    0.00137736
     atom   22 type  2   force =     0.00369398    0.00272733    0.00282992
     atom   23 type  2   force =    -0.00056192    0.00040325    0.00135405
     atom   24 type  2   force =    -0.00158859   -0.00062860    0.00170755

     Total force =     0.014725     Total SCF correction =     0.002110
     SCF correction compared to forces is large: reduce conv_thr to get better values

     General routines

     Parallel routines

   This run was terminated on:  12:21:43   8Sep2021

   JOB DONE.