     Program PWSCF v.6.4 starts on 28Nov2021 at  9:59:16

     R & G space division:  proc/nbgrp/npool/nimage =      40
     Waiting for input...
     Reading input from standard input
Warning: card    &IONS ignored
Warning: card      ION_DYNAMICS = 'BFGS' ignored
Warning: card   / ignored
Warning: card    &CELL ignored
Warning: card      CELL_DYNAMICS = 'BFGS', ignored
Warning: card    / ignored

     Current dimensions of program PWSCF are:
     Max number of different atomic species (ntypx) = 10
     Max number of k-points (npk) =  40000
     Max angular momentum in pseudopotentials (lmaxx) =  3

     bravais-lattice index     =            0
     lattice parameter (alat)  =      13.1021  a.u.
     unit-cell volume          =    4739.4803 (a.u.)^3
     number of atoms/cell      =           24
     number of atomic types    =            2
     number of electrons       =       144.00
     number of Kohn-Sham states=           86
     kinetic-energy cutoff     =      45.0000  Ry
     charge density cutoff     =     360.0000  Ry
     convergence threshold     =      1.0E-06
     mixing beta               =       0.7000
     number of iterations used =            8  local-TF  mixing
     Exchange-correlation      = SLA PW GGX GGC ( 1  4  2  2 0 0)

     celldm(1)=  13.102102  celldm(2)=   0.000000  celldm(3)=   0.000000
     celldm(4)=   0.000000  celldm(5)=   0.000000  celldm(6)=   0.000000

     crystal axes: (cart. coord. in units of alat)
               a(1) = (   0.998977   0.042483  -0.015464 )
               a(2) = (   0.547210   0.960730   0.030348 )
               a(3) = (   0.791131  -0.122235   2.231388 )

     reciprocal axes: (cart. coord. in units 2 pi/alat)
               b(1) = (  1.019106 -0.568064 -0.392439 )
               b(2) = ( -0.044090  1.063653  0.073899 )
               b(3) = (  0.007662 -0.018403  0.444427 )

     PseudoPot. # 1 for Mo read from file:
     ~/pseudo/Mo.pw91-n-van.UPF
     MD5 check sum: Not computed, couldn't open file
     Pseudo is Ultrasoft + core correction, Zval =  6.0
     Generated by new atomic code, or converted to UPF format
     Using radial grid of  965 points,  3 beta functions with:
                l(1) =   1
                l(2) =   2
                l(3) =   2
     Q(r) pseudized with  8 coefficients,  rinner =    1.000   1.000   1.000
                                                       1.200   1.200

     PseudoPot. # 2 for S  read from file:
     ~/pseudo/S.pw91-van_ak.UPF
     MD5 check sum: Not computed, couldn't open file
     Pseudo is Ultrasoft, Zval =  6.0
     Generated by new atomic code, or converted to UPF format
     Using radial grid of  811 points,  6 beta functions with:
                l(1) =   0
                l(2) =   0
                l(3) =   1
                l(4) =   1
                l(5) =   2
                l(6) =   2
     Q(r) pseudized with  8 coefficients,  rinner =    1.100   1.100   1.100
                                                       1.100   1.100

     atomic species   valence    mass     pseudopotential
        Mo             6.00    95.50000     Mo( 1.00)
        S              6.00    32.06500     S ( 1.00)

     No symmetry found

   Cartesian axes

     site n.     atom                  positions (alat units)
         1           Mo  tau(   1) = (   1.1316843   0.6890330   0.6142124  )
         2           Mo  tau(   2) = (   0.4144215   0.0768497   0.7124642  )
         3           Mo  tau(   3) = (   1.5421891  -0.0282784   1.8841950  )
         4           Mo  tau(   4) = (   1.2098876   0.8590158   1.0246765  )
         5           Mo  tau(   5) = (   1.3077765   0.5753776   1.8604607  )
         6           Mo  tau(   6) = (   0.8261526   0.7409310   0.9585663  )
         7           Mo  tau(   7) = (   0.7674406  -0.0656224   1.5557883  )
         8           Mo  tau(   8) = (   0.9838075  -0.0583371   1.9020843  )
         9           S   tau(   9) = (   1.5747469   0.6908035   1.6670968  )
        10           S   tau(  10) = (   1.2777792  -0.1546888   2.0575762  )
        11           S   tau(  11) = (   1.0515204   0.6887909   1.6580063  )
        12           S   tau(  12) = (   0.7804689   0.0770070   1.2635098  )
        13           S   tau(  13) = (   0.3838807   0.2378280   0.4073011  )
        14           S   tau(  14) = (   1.1623637   0.7013061   0.3011722  )
        15           S   tau(  15) = (   1.1703152   0.2987981   2.0168149  )
        16           S   tau(  16) = (   1.2673775   0.2006583   1.7473338  )
        17           S   tau(  17) = (   1.4251119   0.4737355   0.6159368  )
        18           S   tau(  18) = (   0.7855754   0.7657494   0.6224037  )
        19           S   tau(  19) = (   0.7590931   0.1822814   1.7858541  )
        20           S   tau(  20) = (   2.3151683   0.7887644   2.1409034  )
        21           S   tau(  21) = (   1.3663221   0.1213921   1.0431436  )
        22           S   tau(  22) = (   1.5353196   0.6955075   1.0581573  )
        23           S   tau(  23) = (   1.0938837   0.5366952   0.9534262  )
        24           S   tau(  24) = (   0.7468249   0.0121168   0.6802393  )

     number of k points=     5  Marzari-Vanderbilt smearing, width (Ry)=  0.0200
                       cart. coord. in units 2pi/alat
        k(    1) = (   0.0000000   0.0000000   0.0000000), wk =   0.2222222
        k(    2) = (  -0.0146966   0.3545511   0.0246329), wk =   0.4444444
        k(    3) = (   0.3397021  -0.1893545  -0.1308131), wk =   0.4444444
        k(    4) = (   0.3250056   0.1651966  -0.1061802), wk =   0.4444444
        k(    5) = (   0.3543987  -0.5439056  -0.1554460), wk =   0.4444444

     Initial potential from superposition of free atoms

     starting charge  143.98738, renormalised to  144.00000
     Starting wfcs are  136 randomized atomic wfcs

     Self-consistent Calculation

     iteration #  1     ecut=    45.00 Ry     beta= 0.70
     Davidson diagonalization with overlap
     ethr =  1.00E-02,  avg # of iterations =  2.0

     total energy              =    -562.17733031 Ry
     Harris-Foulkes estimate   =    -563.65610607 Ry
     estimated scf accuracy    <       3.92430835 Ry

[...]

     total energy              =    -562.84934832 Ry
     Harris-Foulkes estimate   =    -562.84934858 Ry
     estimated scf accuracy    <       0.00000129 Ry

     iteration # 14     ecut=    45.00 Ry     beta= 0.70
     Davidson diagonalization with overlap
     ethr =  8.93E-10,  avg # of iterations =  2.8

     End of self-consistent calculation

          k = 0.0000 0.0000 0.0000 ( 24143 PWs)   bands (ev):

   -12.0979 -11.7160 -10.1436 -10.0879  -9.7745  -9.7690  -9.6727  -9.6551
    -9.5999  -9.4964  -9.0461  -8.6596  -8.6140  -8.4213  -7.9397  -7.4717
    -2.4977  -2.2032  -2.1747  -2.1620  -1.9640  -1.7972  -1.6901  -1.5175
    -1.4015  -1.3872  -1.3158  -1.1699  -1.0871  -1.0034  -0.8936  -0.8185
    -0.7574  -0.6915  -0.6403  -0.5984  -0.5373  -0.4772  -0.4532  -0.4185
    -0.2472  -0.2059  -0.1932  -0.1133  -0.0468   0.0300   0.1016   0.1217
     0.2938   0.4801   0.6234   0.8049   0.8280   0.9691   1.1049   1.1193
     1.3229   1.4846   1.6510   1.6803   1.7417   1.9743   2.0662   2.1372
     2.2479   2.4113   2.6857   2.7981   2.9403   3.0526   3.2106   3.3551
     3.5569   3.9595   4.0897   4.1717   4.2644   4.3237   4.5674   4.6768
     4.7679   4.8835   5.0362   5.1151   5.1855   5.2886

          k =-0.0147 0.3546 0.0246 ( 24109 PWs)   bands (ev):

[...]

          k = 0.3544-0.5439-0.1554 ( 24163 PWs)   bands (ev):

   -12.0561 -11.6855 -10.0626 -10.0244  -9.8596  -9.8036  -9.6935  -9.6428
    -9.6200  -9.5504  -9.0776  -8.6949  -8.6604  -8.4280  -7.9128  -7.4708
    -2.4163  -2.2080  -2.1536  -1.9508  -1.8118  -1.7829  -1.6638  -1.6227
    -1.5069  -1.4084  -1.2731  -1.2314  -1.1465  -1.0590  -0.9692  -0.9475
    -0.8994  -0.7690  -0.7092  -0.6325  -0.5655  -0.4405  -0.3900  -0.3285
    -0.2640  -0.2104  -0.1813   0.0295   0.0532   0.1123   0.1947   0.3272
     0.4117   0.5936   0.6503   0.7889   0.8662   1.0732   1.1160   1.1628
     1.3213   1.4054   1.5128   1.6481   1.7811   1.9200   1.9973   2.0688
     2.1942   2.3763   2.5578   2.8357   2.8656   2.9579   3.1528   3.2732
     3.4516   3.7521   3.9577   4.0610   4.1987   4.3743   4.4788   4.6251
     4.8186   4.8963   5.0245   5.1330   5.1729   5.2234

     the Fermi energy is     3.3956 ev

!    total energy              =    -562.84934826 Ry
     Harris-Foulkes estimate   =    -562.84934854 Ry
     estimated scf accuracy    <       0.00000033 Ry

     The total energy is the sum of the following terms:

     one-electron contribution =    -243.71907058 Ry
     hartree contribution      =     186.11252770 Ry
     xc contribution           =    -222.12611828 Ry
     ewald contribution        =    -283.12259890 Ry
     smearing contrib. (-TS)   =       0.00591180 Ry

     convergence has been achieved in  14 iterations

     Forces acting on atoms (cartesian axes, Ry/au):

     atom    1 type  1   force =    -0.00931749    0.00568367   -0.00235560
     atom    2 type  1   force =     0.00268895    0.00642105    0.00289947
     atom    3 type  1   force =    -0.00338803    0.00308631    0.00029241
     atom    4 type  1   force =     0.00208823   -0.00076218   -0.00323777
     atom    5 type  1   force =    -0.00029637    0.00162741   -0.00010083
     atom    6 type  1   force =    -0.00525230   -0.00198393   -0.00266891
     atom    7 type  1   force =    -0.00170040    0.00162434   -0.00226526
     atom    8 type  1   force =    -0.00186096   -0.00039993    0.00063499
     atom    9 type  2   force =     0.00066927    0.00126290   -0.00136294
     atom   10 type  2   force =    -0.00539574    0.00150875    0.00029040
     atom   11 type  2   force =    -0.00002125   -0.00446516   -0.00204472
     atom   12 type  2   force =     0.00077804    0.00554061   -0.00497147
     atom   13 type  2   force =    -0.00057824   -0.00200213    0.00626246
     atom   14 type  2   force =    -0.00509279    0.00264871    0.00223039
     atom   15 type  2   force =     0.00428077   -0.00223273    0.00459274
     atom   16 type  2   force =     0.00110428   -0.00880500    0.00716109
     atom   17 type  2   force =     0.00749835   -0.00283336    0.00252459
     atom   18 type  2   force =     0.01031625   -0.00555305   -0.00451954
     atom   19 type  2   force =     0.00195978    0.00053515   -0.00221646
     atom   20 type  2   force =     0.00336724    0.00411106    0.00312068
     atom   21 type  2   force =    -0.00101633   -0.00413518   -0.00757465
     atom   22 type  2   force =    -0.00648515   -0.00001080    0.00042622
     atom   23 type  2   force =     0.00063576    0.00505531    0.00162606
     atom   24 type  2   force =     0.00501813   -0.00592182    0.00125665

     Total force =     0.033602     Total SCF correction =     0.001124

     General routines

     Parallel routines

   This run was terminated on:  10: 0: 6  28Nov2021

   JOB DONE.