     Program PWSCF v.6.4 starts on 24Dec2021 at 22: 9:43

     R & G space division:  proc/nbgrp/npool/nimage =      40
     Waiting for input...
     Reading input from standard input
Warning: card    &IONS ignored
Warning: card      ION_DYNAMICS = 'BFGS' ignored
Warning: card   / ignored
Warning: card    &CELL ignored
Warning: card      CELL_DYNAMICS = 'BFGS', ignored
Warning: card    / ignored

     Current dimensions of program PWSCF are:
     Max number of different atomic species (ntypx) = 10
     Max number of k-points (npk) =  40000
     Max angular momentum in pseudopotentials (lmaxx) =  3

     bravais-lattice index     =            0
     lattice parameter (alat)  =      19.3804  a.u.
     unit-cell volume          =    7724.4356 (a.u.)^3
     number of atoms/cell      =           48
     number of atomic types    =            2
     number of electrons       =       288.00
     number of Kohn-Sham states=          173
     kinetic-energy cutoff     =      45.0000  Ry
     charge density cutoff     =     360.0000  Ry
     convergence threshold     =      1.0E-06
     mixing beta               =       0.7000
     number of iterations used =            8  local-TF  mixing
     Exchange-correlation      = SLA PW GGX GGC ( 1  4  2  2 0 0)

     celldm(1)=  19.380352  celldm(2)=   0.000000  celldm(3)=   0.000000
     celldm(4)=   0.000000  celldm(5)=   0.000000  celldm(6)=   0.000000

     crystal axes: (cart. coord. in units of alat)
               a(1) = (   1.000000   0.000000   0.000000 )
               a(2) = (   0.082241   0.963968   0.000000 )
               a(3) = (   0.164404  -0.024789   1.100827 )

     reciprocal axes: (cart. coord. in units 2 pi/alat)
               b(1) = (  1.000000 -0.085315 -0.151267 )
               b(2) = (  0.000000  1.037378  0.023360 )
               b(3) = (  0.000000  0.000000  0.908408 )

     PseudoPot. # 1 for Mo read from file:
     ~/pseudo/Mo.pw91-n-van.UPF
     MD5 check sum: Not computed, couldn't open file
     Pseudo is Ultrasoft + core correction, Zval =  6.0
     Generated by new atomic code, or converted to UPF format
     Using radial grid of  965 points,  3 beta functions with:
                l(1) =   1
                l(2) =   2
                l(3) =   2
     Q(r) pseudized with  8 coefficients,  rinner =    1.000   1.000   1.000
                                                       1.200   1.200

     PseudoPot. # 2 for S  read from file:
     ~/pseudo/S.pw91-van_ak.UPF
     MD5 check sum: Not computed, couldn't open file
     Pseudo is Ultrasoft, Zval =  6.0
     Generated by new atomic code, or converted to UPF format
     Using radial grid of  811 points,  6 beta functions with:
                l(1) =   0
                l(2) =   0
                l(3) =   1
                l(4) =   1
                l(5) =   2
                l(6) =   2
     Q(r) pseudized with  8 coefficients,  rinner =    1.100   1.100   1.100
                                                       1.100   1.100

     atomic species   valence    mass     pseudopotential
        Mo             6.00    95.50000     Mo( 1.00)
        S              6.00    32.06500     S ( 1.00)

     No symmetry found

   Cartesian axes

     site n.     atom                  positions (alat units)
         1           Mo  tau(   1) = (   0.1770912   0.3656218   0.4284080  )
         2           Mo  tau(   2) = (   0.3969717   0.3417740   0.0715826  )
         3           Mo  tau(   3) = (   0.1901506   0.0821414   0.1909615  )
         4           Mo  tau(   4) = (   0.4649329   0.1189888   0.4391162  )
         5           Mo  tau(   5) = (   0.7718523   0.8946386   0.4423310  )
         6           Mo  tau(   6) = (   1.0610255   0.8697758   0.2196937  )
         7           Mo  tau(   7) = (   0.5868814   0.5158537   0.0194696  )
         8           Mo  tau(   8) = (   1.0059135   0.6133126   0.4676090  )
         9           Mo  tau(   9) = (   0.2759243   0.8043803   0.0443384  )
        10           Mo  tau(  10) = (   0.5488577   0.8774155   0.6176301  )
        11           Mo  tau(  11) = (   0.2359030   0.5613381   0.6182471  )
        12           Mo  tau(  12) = (   0.5160346   0.5362898   0.9818748  )
        13           Mo  tau(  13) = (   0.6967645   0.3208536   0.9239337  )
        14           Mo  tau(  14) = (   0.9804429   0.3911567   0.6249979  )
        15           Mo  tau(  15) = (   0.6769223   0.1120913   0.6518445  )
        16           Mo  tau(  16) = (   0.1765032   0.0061971   1.0932828  )
        17           S   tau(  17) = (   0.1840138   0.3298277   0.1916503  )
        18           S   tau(  18) = (   0.3066702   0.5441926   0.8592405  )
        19           S   tau(  19) = (   0.4340562   0.3578255   0.4124507  )
        20           S   tau(  20) = (   0.5466488   0.8484432   0.3950453  )
        21           S   tau(  21) = (   0.2805227   0.8239140   0.2832678  )
        22           S   tau(  22) = (   0.3768722   0.5780097   0.1099334  )
        23           S   tau(  23) = (   0.2186690   0.5885589   0.3755000  )
        24           S   tau(  24) = (   0.4697732   0.4951952   0.5624819  )
        25           S   tau(  25) = (   0.8124618   0.8764102   0.2062810  )
        26           S   tau(  26) = (   0.7302400   0.0858411   0.8880702  )
        27           S   tau(  27) = (   1.0102156   0.8560537   0.4560053  )
        28           S   tau(  28) = (   0.9489195   0.3948216   0.3973087  )
        29           S   tau(  29) = (   0.6325481   0.2937026   0.0275180  )
        30           S   tau(  30) = (   0.9519084   0.1302557   0.1875410  )
        31           S   tau(  31) = (   0.7001405   0.1567567   0.4184771  )
        32           S   tau(  32) = (   0.9296579   0.1503410   0.6351667  )
        33           S   tau(  33) = (   0.3382835   0.7775809   0.6529926  )
        34           S   tau(  34) = (   0.2130315   0.1263712   0.4316963  )
        35           S   tau(  35) = (   0.5290060   0.7704112   0.9215089  )
        36           S   tau(  36) = (   0.4670421   0.3039071   0.9646461  )
        37           S   tau(  37) = (   0.1990910   0.3317132   0.6661758  )
        38           S   tau(  38) = (   0.4466468   0.1362483   0.6681930  )
        39           S   tau(  39) = (   0.3935319   0.0304264   1.0602288  )
        40           S   tau(  40) = (   0.4280713   0.1310620   0.1960689  )
        41           S   tau(  41) = (   0.7503118   0.3505499   0.6891561  )
        42           S   tau(  42) = (   0.7772617   0.6446913   0.4178774  )
        43           S   tau(  43) = (   1.0647695   0.0907466   0.9129036  )
        44           S   tau(  44) = (   1.0487481   0.7707121   0.0107328  )
        45           S   tau(  45) = (   0.7692493   0.8379292   0.6697670  )
        46           S   tau(  46) = (   1.0171641   0.6117218   0.6998390  )
        47           S   tau(  47) = (   0.7369194   0.5545852   0.8995460  )
        48           S   tau(  48) = (   0.8018925   0.5659415   0.0955055  )

     number of k points=     8  Marzari-Vanderbilt smearing, width (Ry)=  0.0200
                       cart. coord. in units 2pi/alat
        k(    1) = (   0.0000000   0.0000000   0.0000000), wk =   0.2500000
        k(    2) = (   0.0000000   0.0000000  -0.4542040), wk =   0.2500000
        k(    3) = (   0.0000000  -0.5186892  -0.0116800), wk =   0.2500000
        k(    4) = (   0.0000000  -0.5186892  -0.4658841), wk =   0.2500000
        k(    5) = (  -0.5000000   0.0426574   0.0756335), wk =   0.2500000
        k(    6) = (  -0.5000000   0.0426574  -0.3785706), wk =   0.2500000
        k(    7) = (  -0.5000000  -0.4760318   0.0639534), wk =   0.2500000
        k(    8) = (  -0.5000000  -0.4760318  -0.3902506), wk =   0.2500000

     Initial potential from superposition of free atoms

     starting charge  287.97477, renormalised to  288.00000
     Starting wfcs are  272 randomized atomic wfcs

     Self-consistent Calculation

     iteration #  1     ecut=    45.00 Ry     beta= 0.70
     Davidson diagonalization with overlap
     ethr =  1.00E-02,  avg # of iterations =  2.0

     total energy              =   -1123.46935518 Ry
     Harris-Foulkes estimate   =   -1127.54594308 Ry
     estimated scf accuracy    <      11.46897543 Ry

[...]

     total energy              =   -1125.62001143 Ry
     Harris-Foulkes estimate   =   -1125.62001177 Ry
     estimated scf accuracy    <       0.00000178 Ry

     iteration # 14     ecut=    45.00 Ry     beta= 0.70
     Davidson diagonalization with overlap
     ethr =  6.20E-10,  avg # of iterations =  3.8

     End of self-consistent calculation

          k = 0.0000 0.0000 0.0000 ( 39353 PWs)   bands (ev):

    -9.5077  -9.0037  -8.6538  -8.6113  -8.4852  -8.3076  -8.2535  -8.2389
    -8.1613  -8.1134  -8.0978  -7.9931  -7.9600  -7.9322  -7.8773  -7.7306
    -7.6817  -7.5772  -7.5298  -7.4072  -7.1536  -7.0581  -7.0022  -6.8677
    -6.8114  -6.6656  -6.6182  -6.5086  -6.4725  -6.0690  -5.9739  -5.7645
    -0.9535  -0.8535  -0.6305  -0.5901  -0.4686  -0.4304  -0.3326  -0.2935
    -0.2209  -0.1409  -0.0772  -0.0608   0.0046   0.0438   0.1200   0.1462
     0.2042   0.2453   0.2953   0.3585   0.4066   0.4180   0.4985   0.5012
     0.5998   0.6576   0.6832   0.7350   0.7738   0.8212   0.8992   0.9226
     0.9557   0.9726   1.0371   1.1286   1.1352   1.1635   1.1991   1.2590
     1.2689   1.2828   1.3158   1.3477   1.4344   1.4821   1.5326   1.5831
     1.5873   1.6150   1.6698   1.7473   1.8029   1.8219   1.8713   1.9012
     1.9797   2.0176   2.0572   2.0600   2.1463   2.1802   2.2022   2.2661
     2.3211   2.4315   2.4434   2.4798   2.5105   2.5670   2.6643   2.7648
     2.7806   2.8493   2.9055   2.9928   3.0223   3.0747   3.1779   3.2139
     3.3016   3.3434   3.3985   3.4560   3.5331   3.5868   3.6151   3.6869
     3.7313   3.7737   3.8137   3.8489   3.9811   4.0877   4.1230   4.1504
     4.1708   4.2311   4.2493   4.3481   4.3836   4.4013   4.4932   4.5031
     4.5401   4.6487   4.7332   4.7986   4.8262   4.8753   4.9530   5.0023
     5.0277   5.0959   5.1437   5.1842   5.2294   5.3086   5.4687   5.5095
     5.7771   5.8870   6.1072   6.1971   6.2534   6.3160   6.3616   6.4100
     6.5036   6.5597   6.5698   6.6920   6.7423   6.8592   6.8708   6.9323
     6.9770   6.9901   7.0534   7.0865   7.0966

[...]

          k = 0.0000-0.5187-0.4659 ( 39406 PWs)   bands (ev):

[...]

          k =-0.5000 0.0427 0.0756 ( 39330 PWs)   bands (ev):

[...]

          k =-0.5000-0.4760-0.3903 ( 39376 PWs)   bands (ev):

    -9.4805  -8.9287  -8.7144  -8.5506  -8.5001  -8.4430  -8.3862  -8.2028
    -8.1569  -8.1147  -8.0538  -8.0499  -7.9645  -7.9115  -7.8622  -7.7326
    -7.6938  -7.6141  -7.4290  -7.3815  -7.1382  -7.0491  -6.9634  -6.8503
    -6.7965  -6.6726  -6.6276  -6.5108  -6.4665  -6.0674  -5.9720  -5.7652
    -1.0203  -0.7072  -0.5919  -0.5749  -0.4539  -0.3867  -0.3612  -0.2927
    -0.2113  -0.1942  -0.1257  -0.1017  -0.0165   0.0355   0.1202   0.1344
     0.1996   0.2315   0.2570   0.2971   0.3110   0.3955   0.4596   0.4842
     0.5320   0.5518   0.6695   0.6862   0.6946   0.7783   0.8603   0.9138
     0.9729   1.0160   1.0588   1.0769   1.1393   1.1723   1.2175   1.2593
     1.2815   1.3170   1.3812   1.3999   1.4060   1.4680   1.4965   1.5512
     1.6002   1.6375   1.6546   1.6984   1.7681   1.8325   1.8844   1.9206
     1.9638   2.0258   2.0616   2.1013   2.1711   2.1874   2.2489   2.2765
     2.3836   2.4791   2.5428   2.5735   2.6294   2.6843   2.7201   2.8315
     2.8747   2.9232   2.9517   3.0195   3.1079   3.1517   3.1968   3.2661
     3.3123   3.3285   3.4124   3.4679   3.5395   3.5580   3.6124   3.6519
     3.7002   3.7640   3.7914   3.8484   3.8813   3.9332   4.0736   4.0830
     4.0947   4.1997   4.2916   4.3052   4.3425   4.4130   4.4920   4.5462
     4.5839   4.6713   4.7525   4.7781   4.8696   4.9422   4.9747   5.0027
     5.0557   5.1096   5.1588   5.1940   5.3222   5.3984   5.4086   5.5323
     5.7125   5.8205   5.9557   6.0393   6.2322   6.2671   6.3383   6.4228
     6.5026   6.5365   6.6200   6.6435   6.7578   6.7961   6.8661   6.8899
     6.8990   7.0088   7.0507   7.0648   7.1176

     the Fermi energy is     5.0261 ev

!    total energy              =   -1125.62001117 Ry
     Harris-Foulkes estimate   =   -1125.62001182 Ry
     estimated scf accuracy    <       0.00000077 Ry

     The total energy is the sum of the following terms:

     one-electron contribution =    -245.97595167 Ry
     hartree contribution      =     271.22556241 Ry
     xc contribution           =    -444.00192598 Ry
     ewald contribution        =    -706.86347917 Ry
     smearing contrib. (-TS)   =      -0.00421676 Ry

     convergence has been achieved in  14 iterations

     Forces acting on atoms (cartesian axes, Ry/au):

     atom    1 type  1   force =     0.02124112   -0.01262003    0.05388962
     atom    2 type  1   force =    -0.01015391   -0.01149698    0.05356799
     atom    3 type  1   force =    -0.01568119    0.01391929    0.03123100
     atom    4 type  1   force =     0.02800973   -0.03211893   -0.01774821
     atom    5 type  1   force =    -0.02331168   -0.04646493   -0.01645331
     atom    6 type  1   force =    -0.06949073   -0.02535537    0.05203898
     atom    7 type  1   force =     0.13527569    0.05350255    0.05200391
     atom    8 type  1   force =    -0.04788038    0.00790889    0.00321334
     atom    9 type  1   force =     0.01985725   -0.02407864   -0.03324675
     atom   10 type  1   force =    -0.03302358   -0.00967299    0.03078008
     atom   11 type  1   force =     0.03352204   -0.00885152   -0.01070824
     atom   12 type  1   force =    -0.05388291    0.07449616   -0.07568353
     atom   13 type  1   force =    -0.00874898   -0.06118481   -0.04569352
     atom   14 type  1   force =    -0.00177428   -0.03932232   -0.01751721
     atom   15 type  1   force =     0.05314859   -0.01099919    0.03181616
     atom   16 type  1   force =    -0.11295122    0.05759917   -0.13828446
     atom   17 type  2   force =     0.02077363   -0.00956906   -0.03179263
     atom   18 type  2   force =     0.03762625   -0.00493003    0.01671275
     atom   19 type  2   force =    -0.01419122    0.03177443    0.00840956
     atom   20 type  2   force =    -0.01173233    0.01202207   -0.01650169
     atom   21 type  2   force =     0.01390164    0.04961751   -0.04492803
     atom   22 type  2   force =     0.00953224   -0.02652618    0.00500199
     atom   23 type  2   force =     0.00128739   -0.00008115    0.03446416
     atom   24 type  2   force =    -0.01814401   -0.01607467   -0.00899577
     atom   25 type  2   force =     0.02522400   -0.01024149    0.00630610
     atom   26 type  2   force =    -0.00321925    0.03936341   -0.02380805
     atom   27 type  2   force =     0.01894514    0.00396900   -0.00551527
     atom   28 type  2   force =    -0.01530449   -0.01101291    0.00643122
     atom   29 type  2   force =    -0.03647607    0.00635578   -0.00530734
     atom   30 type  2   force =     0.02216477    0.00732848    0.02045871
     atom   31 type  2   force =    -0.00318415    0.02730774    0.00546168
     atom   32 type  2   force =    -0.01143038    0.01845418    0.00474004
     atom   33 type  2   force =     0.02857652    0.00501793   -0.00891726
     atom   34 type  2   force =     0.00599936    0.01155365   -0.00690947
     atom   35 type  2   force =    -0.00259775   -0.03986372    0.02545105
     atom   36 type  2   force =     0.03024038    0.00245888   -0.01310220
     atom   37 type  2   force =     0.00114346    0.00025261   -0.01827705
     atom   38 type  2   force =    -0.02746667    0.01006407    0.02078631
     atom   39 type  2   force =     0.04091453    0.01709879    0.01153586
     atom   40 type  2   force =     0.00363070    0.01205234   -0.00048604
     atom   41 type  2   force =    -0.00403440   -0.01557199    0.00595958
     atom   42 type  2   force =     0.04095685   -0.00669808    0.00388934
     atom   43 type  2   force =     0.04029557   -0.02907343    0.07118567
     atom   44 type  2   force =     0.01062675   -0.02061042   -0.01333898
     atom   45 type  2   force =     0.00617729    0.01584056    0.00348548
     atom   46 type  2   force =    -0.01063783    0.01063882   -0.00256025
     atom   47 type  2   force =    -0.02465003   -0.01310901    0.01800421
     atom   48 type  2   force =    -0.08910344   -0.00306846   -0.02104952

     Total force =     0.403288     Total SCF correction =     0.001889

     General routines

     Parallel routines

   This run was terminated on:  22:14: 2  24Dec2021

   JOB DONE.