     Program PWSCF v.6.4 starts on 18Oct2021 at 16:16:45

     R & G space division:  proc/nbgrp/npool/nimage =      40
     Waiting for input...
     Reading input from standard input
Warning: card    &IONS ignored
Warning: card      ION_DYNAMICS = 'BFGS' ignored
Warning: card   / ignored
Warning: card    &CELL ignored
Warning: card      CELL_DYNAMICS = 'BFGS', ignored
Warning: card    / ignored

     Current dimensions of program PWSCF are:
     Max number of different atomic species (ntypx) = 10
     Max number of k-points (npk) =  40000
     Max angular momentum in pseudopotentials (lmaxx) =  3

     bravais-lattice index     =            0
     lattice parameter (alat)  =      12.2247  a.u.
     unit-cell volume          =    2462.9467 (a.u.)^3
     number of atoms/cell      =           12
     number of atomic types    =            2
     number of electrons       =        72.00
     number of Kohn-Sham states=           43
     kinetic-energy cutoff     =      45.0000  Ry
     charge density cutoff     =     360.0000  Ry
     convergence threshold     =      1.0E-06
     mixing beta               =       0.7000
     number of iterations used =            8  local-TF  mixing
     Exchange-correlation      = SLA PW GGX GGC ( 1  4  2  2 0 0)

     celldm(1)=  12.224652  celldm(2)=   0.000000  celldm(3)=   0.000000
     celldm(4)=   0.000000  celldm(5)=   0.000000  celldm(6)=   0.000000

     crystal axes: (cart. coord. in units of alat)
               a(1) = (   0.998491   0.054716  -0.004585 )
               a(2) = (   0.432621   0.903607  -0.006145 )
               a(3) = (   0.089083   0.434390   1.532064 )

     reciprocal axes: (cart. coord. in units 2 pi/alat)
               b(1) = (  1.028840 -0.492036  0.079686 )
               b(2) = ( -0.063657  1.134989 -0.318105 )
               b(3) = (  0.002824  0.003080  0.651677 )

     PseudoPot. # 1 for Mo read from file:
     ~/pseudo/Mo.pw91-n-van.UPF
     MD5 check sum: Not computed, couldn't open file
     Pseudo is Ultrasoft + core correction, Zval =  6.0
     Generated by new atomic code, or converted to UPF format
     Using radial grid of  965 points,  3 beta functions with:
                l(1) =   1
                l(2) =   2
                l(3) =   2
     Q(r) pseudized with  8 coefficients,  rinner =    1.000   1.000   1.000
                                                       1.200   1.200

     PseudoPot. # 2 for S  read from file:
     ~/pseudo/S.pw91-van_ak.UPF
     MD5 check sum: Not computed, couldn't open file
     Pseudo is Ultrasoft, Zval =  6.0
     Generated by new atomic code, or converted to UPF format
     Using radial grid of  811 points,  6 beta functions with:
                l(1) =   0
                l(2) =   0
                l(3) =   1
                l(4) =   1
                l(5) =   2
                l(6) =   2
     Q(r) pseudized with  8 coefficients,  rinner =    1.100   1.100   1.100
                                                       1.100   1.100

     atomic species   valence    mass     pseudopotential
        Mo             6.00    95.50000     Mo( 1.00)
        S              6.00    32.06500     S ( 1.00)

     No symmetry found

   Cartesian axes

     site n.     atom                  positions (alat units)
         1           Mo  tau(   1) = (   1.0947252   0.5039014   1.5198649  )
         2           Mo  tau(   2) = (   0.8145857   0.9130808   1.5202020  )
         3           Mo  tau(   3) = (   0.9359563   0.9322160  -0.0124808  )
         4           Mo  tau(   4) = (   1.3176676   0.9552375   1.5201582  )
         5           S   tau(   5) = (   0.4768628   0.6315421   0.2251310  )
         6           S   tau(   6) = (   0.7444718   0.1897080   0.2336555  )
         7           S   tau(   7) = (   0.9651425   0.6400452   0.2287156  )
         8           S   tau(   8) = (   0.2494389   0.1774639   0.2313460  )
         9           S   tau(   9) = (   0.5613077   1.0614526   1.2831113  )
        10           S   tau(  10) = (   0.8285146   0.6204171   1.2781937  )
        11           S   tau(  11) = (   1.0541872   1.0760019   1.2795558  )
        12           S   tau(  12) = (   0.3414198   0.6108768   1.2880637  )

     number of k points=    10  Marzari-Vanderbilt smearing, width (Ry)=  0.0200
                       cart. coord. in units 2pi/alat
        k(    1) = (   0.0000000   0.0000000   0.0000000), wk =   0.1111111
        k(    2) = (  -0.0014119  -0.0015399  -0.3258384), wk =   0.1111111
        k(    3) = (  -0.0212189   0.3783297  -0.1060350), wk =   0.2222222
        k(    4) = (  -0.0226308   0.3767898  -0.4318735), wk =   0.2222222
        k(    5) = (   0.3429466  -0.1640121   0.0265620), wk =   0.2222222
        k(    6) = (   0.3415347  -0.1655520  -0.2992765), wk =   0.2222222
        k(    7) = (   0.3217277   0.2143176  -0.0794731), wk =   0.2222222
        k(    8) = (   0.3203158   0.2127778  -0.4053115), wk =   0.2222222
        k(    9) = (   0.3641655  -0.5423418   0.1325970), wk =   0.2222222
        k(   10) = (   0.3627536  -0.5438817  -0.1932414), wk =   0.2222222

     Initial potential from superposition of free atoms

     starting charge   71.99369, renormalised to   72.00000
     Starting wfcs are   68 randomized atomic wfcs

     Self-consistent Calculation

     iteration #  1     ecut=    45.00 Ry     beta= 0.70
     Davidson diagonalization with overlap
     ethr =  1.00E-02,  avg # of iterations =  2.0

     total energy              =    -281.37584955 Ry
     Harris-Foulkes estimate   =    -282.28450599 Ry
     estimated scf accuracy    <       2.32167896 Ry

[...]

     total energy              =    -281.83077659 Ry
     Harris-Foulkes estimate   =    -281.83078114 Ry
     estimated scf accuracy    <       0.00002221 Ry

     iteration # 11     ecut=    45.00 Ry     beta= 0.70
     Davidson diagonalization with overlap
     ethr =  1.05E-08,  avg # of iterations =  3.0

     End of self-consistent calculation

          k = 0.0000 0.0000 0.0000 ( 12527 PWs)   bands (ev):

   -11.5982 -10.3355 -10.0201  -9.9925  -9.9182  -9.6607  -9.6479  -9.5404
    -3.2346  -3.2075  -3.1518  -3.0600  -2.2519  -2.1962  -2.1896  -1.6396
    -1.6159  -1.5901  -1.0092  -0.7286  -0.7166  -0.4893  -0.2703   0.5537
     0.5827   0.6409   0.7621   0.8301   0.8979   1.0682   1.3016   1.3226
     1.6814   1.7014   1.8658   2.4708   4.1487   4.1875   4.2661   4.7250
     4.7438   4.7863   4.9550

          k =-0.0014-0.0015-0.3258 ( 12506 PWs)   bands (ev):

[...]

          k =-0.0226 0.3768-0.4319 ( 12546 PWs)   bands (ev):

[...]

          k = 0.3628-0.5439-0.1932 ( 12559 PWs)   bands (ev):

   -10.7138 -10.6790 -10.6369  -9.9517  -9.9183  -9.8905  -9.7516  -9.4535
    -2.8398  -2.4691  -2.4572  -2.4243  -2.0635  -1.6369  -1.4812  -1.4109
    -1.4048  -1.2568  -1.2381  -1.1948  -1.1452  -0.7954  -0.7212  -0.6495
    -0.3360   0.2584   0.3306   0.3399   0.3611   1.2955   1.3661   1.3923
     1.5466   1.5693   1.6044   2.2466   3.7144   4.1309   4.2230   4.2885
     4.5998   4.6590   4.6971

     the Fermi energy is     2.4925 ev

!    total energy              =    -281.83077780 Ry
     Harris-Foulkes estimate   =    -281.83077849 Ry
     estimated scf accuracy    <       0.00000080 Ry

     The total energy is the sum of the following terms:

     one-electron contribution =    -356.41319519 Ry
     hartree contribution      =     208.76479862 Ry
     xc contribution           =    -111.29934643 Ry
     ewald contribution        =     -22.88900366 Ry
     smearing contrib. (-TS)   =       0.00596886 Ry

     convergence has been achieved in  11 iterations

     Forces acting on atoms (cartesian axes, Ry/au):

     atom    1 type  1   force =     0.01322302   -0.00268004    0.00203239
     atom    2 type  1   force =     0.00639717    0.01446000   -0.00173080
     atom    3 type  1   force =     0.01386867    0.01117103    0.00305892
     atom    4 type  1   force =     0.00392180   -0.00030500   -0.00259536
     atom    5 type  2   force =    -0.01358188   -0.01149354    0.01788584
     atom    6 type  2   force =    -0.00020062    0.00313577   -0.00246075
     atom    7 type  2   force =    -0.00157455    0.00704044    0.00615378
     atom    8 type  2   force =    -0.00198529   -0.00824981    0.01273789
     atom    9 type  2   force =    -0.00941964   -0.00884330   -0.01345604
     atom   10 type  2   force =     0.00444382    0.00627983    0.00217371
     atom   11 type  2   force =    -0.00426880   -0.00122655   -0.00658169
     atom   12 type  2   force =    -0.01082370   -0.00928883   -0.01721789

     Total force =     0.052338     Total SCF correction =     0.002339

     General routines

     Parallel routines

   This run was terminated on:  16:17: 6  18Oct2021

   JOB DONE.