     Program PWSCF v.6.4 starts on 14Oct2021 at 10:14:45

     R & G space division:  proc/nbgrp/npool/nimage =      40
     Waiting for input...
     Reading input from standard input
Warning: card    &IONS ignored
Warning: card      ION_DYNAMICS = 'BFGS' ignored
Warning: card   / ignored
Warning: card    &CELL ignored
Warning: card      CELL_DYNAMICS = 'BFGS', ignored
Warning: card    / ignored

     Current dimensions of program PWSCF are:
     Max number of different atomic species (ntypx) = 10
     Max number of k-points (npk) =  40000
     Max angular momentum in pseudopotentials (lmaxx) =  3

     bravais-lattice index     =            0
     lattice parameter (alat)  =      12.1554  a.u.
     unit-cell volume          =    5335.4657 (a.u.)^3
     number of atoms/cell      =           24
     number of atomic types    =            2
     number of electrons       =       144.00
     number of Kohn-Sham states=           86
     kinetic-energy cutoff     =      45.0000  Ry
     charge density cutoff     =     360.0000  Ry
     convergence threshold     =      1.0E-06
     mixing beta               =       0.7000
     number of iterations used =            8  local-TF  mixing
     Exchange-correlation      = SLA PW GGX GGC ( 1  4  2  2 0 0)

     celldm(1)=  12.155351  celldm(2)=   0.000000  celldm(3)=   0.000000
     celldm(4)=   0.000000  celldm(5)=   0.000000  celldm(6)=   0.000000

     crystal axes: (cart. coord. in units of alat)
               a(1) = (   1.000000   0.000000   0.000000 )
               a(2) = (  -0.483712   0.886997   0.000000 )
               a(3) = (  -0.486495  -0.758882   3.349250 )

     reciprocal axes: (cart. coord. in units 2 pi/alat)
               b(1) = (  1.000000  0.545337  0.268819 )
               b(2) = (  0.000000  1.127399  0.255449 )
               b(3) = (  0.000000  0.000000  0.298574 )

     PseudoPot. # 1 for Mo read from file:
     ~/pseudo/Mo.pw91-n-van.UPF
     MD5 check sum: Not computed, couldn't open file
     Pseudo is Ultrasoft + core correction, Zval =  6.0
     Generated by new atomic code, or converted to UPF format
     Using radial grid of  965 points,  3 beta functions with:
                l(1) =   1
                l(2) =   2
                l(3) =   2
     Q(r) pseudized with  8 coefficients,  rinner =    1.000   1.000   1.000
                                                       1.200   1.200

     PseudoPot. # 2 for S  read from file:
     ~/pseudo/S.pw91-van_ak.UPF
     MD5 check sum: Not computed, couldn't open file
     Pseudo is Ultrasoft, Zval =  6.0
     Generated by new atomic code, or converted to UPF format
     Using radial grid of  811 points,  6 beta functions with:
                l(1) =   0
                l(2) =   0
                l(3) =   1
                l(4) =   1
                l(5) =   2
                l(6) =   2
     Q(r) pseudized with  8 coefficients,  rinner =    1.100   1.100   1.100
                                                       1.100   1.100

     atomic species   valence    mass     pseudopotential
        Mo             6.00    95.50000     Mo( 1.00)
        S              6.00    32.06500     S ( 1.00)

     No symmetry found

   Cartesian axes

     site n.     atom                  positions (alat units)
         1           Mo  tau(   1) = (   0.3301324   0.8641346   0.4363317  )
         2           Mo  tau(   2) = (   0.0641847   0.4233673   0.4288068  )
         3           Mo  tau(   3) = (  -0.1831232   0.8633616   0.4338551  )
         4           Mo  tau(   4) = (   0.5692316   0.4407114   0.4388107  )
         5           Mo  tau(   5) = (  -0.2935701  -0.7521572   2.9256691  )
         6           Mo  tau(   6) = (  -0.0367782  -0.3017603   2.9267579  )
         7           Mo  tau(   7) = (   0.2026485  -0.7393008   2.9246917  )
         8           Mo  tau(   8) = (  -0.5424035  -0.3084602   2.9227430  )
         9           S   tau(   9) = (   0.5527582   0.1293048   0.1991887  )
        10           S   tau(  10) = (  -0.1902785   0.5731749   0.1898997  )
        11           S   tau(  11) = (   0.0500191   0.1213340   0.1899511  )
        12           S   tau(  12) = (   0.3127657   0.5701630   0.1908517  )
        13           S   tau(  13) = (  -0.2793957  -0.4455446   3.1636741  )
        14           S   tau(  14) = (  -0.0262341   0.0025282   3.1661430  )
        15           S   tau(  15) = (   0.2128804  -0.4413687   3.1699814  )
        16           S   tau(  16) = (  -0.5282857  -0.0017252   3.1703841  )
        17           S   tau(  17) = (  -0.2850473  -0.4626423   2.6864903  )
        18           S   tau(  18) = (  -0.0306912  -0.0133191   2.6888869  )
        19           S   tau(  19) = (   0.1997379  -0.4563660   2.6752975  )
        20           S   tau(  20) = (  -0.5250061  -0.0146150   2.6854309  )
        21           S   tau(  21) = (   0.5614865   0.1366890   0.6663272  )
        22           S   tau(  22) = (  -0.1749034   0.5774639   0.6785777  )
        23           S   tau(  23) = (   0.0609654   0.1350551   0.6757388  )
        24           S   tau(  24) = (   0.3171114   0.5759369   0.6774401  )

     number of k points=     5  Marzari-Vanderbilt smearing, width (Ry)=  0.0200
                       cart. coord. in units 2pi/alat
        k(    1) = (   0.0000000   0.0000000   0.0000000), wk =   0.2222222
        k(    2) = (   0.0000000   0.3757997   0.0851497), wk =   0.4444444
        k(    3) = (   0.3333333   0.1817789   0.0896063), wk =   0.4444444
        k(    4) = (   0.3333333   0.5575786   0.1747560), wk =   0.4444444
        k(    5) = (   0.3333333  -0.1940209   0.0044565), wk =   0.4444444

     Initial potential from superposition of free atoms

     starting charge  143.98738, renormalised to  144.00000

     negative rho (up, down):  6.423E-04 0.000E+00
     Starting wfcs are  136 randomized atomic wfcs

     Self-consistent Calculation

     iteration #  1     ecut=    45.00 Ry     beta= 0.70
     Davidson diagonalization with overlap
     ethr =  1.00E-02,  avg # of iterations =  2.2

     negative rho (up, down):  4.024E-05 0.000E+00

     total energy              =    -562.67474870 Ry
     Harris-Foulkes estimate   =    -564.43163178 Ry
     estimated scf accuracy    <       4.47989804 Ry

[...]

     End of self-consistent calculation

          k = 0.0000 0.0000 0.0000 ( 27135 PWs)   bands (ev):

   -12.6668 -12.1298 -11.3328 -11.0160 -10.8536 -10.7581 -10.7418 -10.7187
   -10.6805 -10.5046 -10.4378 -10.3896 -10.3775 -10.3539 -10.2453 -10.0067
    -4.3935  -4.2018  -4.1786  -4.1281  -3.9944  -3.9496  -3.8859  -3.4116
    -3.3558  -3.2656  -3.1377  -2.8547  -2.7835  -2.7600  -2.6915  -2.3460
    -2.3149  -2.0813  -2.0026  -1.8647  -1.8352  -1.5905  -1.4524  -1.4343
    -1.4089  -1.3375  -1.2427  -1.1403  -0.9120  -0.8958  -0.7477  -0.7043
    -0.4944  -0.4309  -0.1123   0.0023   0.1436   0.1886   0.2345   0.2558
     0.3510   0.4462   0.5128   0.6057   0.6741   0.7128   0.7527   0.9587
     1.0061   1.0633   1.1457   1.1658   1.4075   1.4089   1.6801   2.7818
     3.4589   3.4887   3.5282   3.5631   3.6236   3.6799   3.7169   4.0540
     4.0814   4.1037   4.1375   4.1535   4.1960   4.2228

[...]

          k = 0.3333-0.1940 0.0045 ( 27232 PWs)   bands (ev):

   -12.3174 -11.7793 -11.5021 -11.1299 -10.9731 -10.9076 -10.8579 -10.7030
   -10.6674 -10.6510 -10.5779 -10.4263 -10.3803 -10.3293 -10.2762 -10.1728
    -4.0371  -3.8372  -3.7889  -3.7720  -3.5832  -3.5364  -3.3264  -3.1825
    -3.1464  -3.0083  -2.9684  -2.9115  -2.5785  -2.4649  -2.2392  -2.1808
    -2.1282  -2.0134  -1.9288  -1.8578  -1.7072  -1.6943  -1.6167  -1.5932
    -1.4911  -1.3713  -1.3050  -1.1299  -1.0665  -0.9104  -0.8538  -0.8046
    -0.7290  -0.6618  -0.6208  -0.5607  -0.5213  -0.4694  -0.3555  -0.3000
    -0.1861  -0.0601   0.1449   0.2310   0.2692   0.3808   0.7267   0.8362
     1.0457   1.1536   1.2138   1.2470   1.2855   1.4485   1.5019   2.0692
     3.3279   3.4163   3.4832   3.5205   3.5574   3.6183   3.6809   3.7367
     3.7995   3.8797   3.9054   4.0336   4.1197   4.1789

     the Fermi energy is     2.8588 ev

!    total energy              =    -563.55495688 Ry
     Harris-Foulkes estimate   =    -563.55495649 Ry
     estimated scf accuracy    <       0.00000082 Ry

     The total energy is the sum of the following terms:

     one-electron contribution =   -3329.43811374 Ry
     hartree contribution      =    1722.34133469 Ry
     xc contribution           =    -222.96940430 Ry
     ewald contribution        =    1266.51340664 Ry
     smearing contrib. (-TS)   =      -0.00218017 Ry

     convergence has been achieved in  15 iterations

[...]

     Forces acting on atoms (cartesian axes, Ry/au):

     atom    1 type  1   force =    -0.04975402    0.01641750   -0.00930473
     atom    2 type  1   force =    -0.00232875    0.00112810    0.01654331
     atom    3 type  1   force =     0.02646238    0.02691650   -0.00098796
     atom    4 type  1   force =    -0.02269059   -0.06955890   -0.01819643
     atom    5 type  1   force =     0.01592501    0.02648950   -0.00025782
     atom    6 type  1   force =     0.00885388    0.00533062   -0.00954497
     atom    7 type  1   force =     0.01264376   -0.01731793    0.01107509
     atom    8 type  1   force =     0.03059173    0.01967435   -0.00012648
     atom    9 type  2   force =     0.00953539    0.00869451    0.02028182
     atom   10 type  2   force =     0.01279935    0.00254127    0.01672760
     atom   11 type  2   force =     0.01462526    0.01533267    0.01499346
     atom   12 type  2   force =     0.00666222    0.00724946    0.01990835
     atom   13 type  2   force =    -0.02743845   -0.01880538   -0.00891706
     atom   14 type  2   force =    -0.01309382   -0.01592073   -0.01455709
     atom   15 type  2   force =    -0.00137993   -0.01772392   -0.02238642
     atom   16 type  2   force =     0.00937321   -0.01820524   -0.03240080
     atom   17 type  2   force =    -0.01254599    0.01558235   -0.01469977
     atom   18 type  2   force =    -0.00381974    0.01615797   -0.02508532
     atom   19 type  2   force =     0.02012621    0.01370565    0.00597673
     atom   20 type  2   force =    -0.01085549    0.00328083   -0.01382443
     atom   21 type  2   force =    -0.00620731   -0.00680061    0.02605913
     atom   22 type  2   force =    -0.00527493   -0.00258655    0.01235724
     atom   23 type  2   force =    -0.00370518   -0.00838720    0.01269723
     atom   24 type  2   force =    -0.00850420   -0.00319483    0.01366930

     Total force =     0.153363     Total SCF correction =     0.001983

     General routines

     Parallel routines

   This run was terminated on:  10:15:40  14Oct2021

   JOB DONE.

     Program PWSCF v.6.4 starts on 14Oct2021 at 11: 0: 9

     R & G space division:  proc/nbgrp/npool/nimage =      40
     Waiting for input...
     Reading input from standard input
Warning: card    &IONS ignored
Warning: card      ION_DYNAMICS = 'BFGS' ignored
Warning: card   / ignored
Warning: card    &CELL ignored
Warning: card      CELL_DYNAMICS = 'BFGS', ignored
Warning: card    / ignored

     Current dimensions of program PWSCF are:
     Max number of different atomic species (ntypx) = 10
     Max number of k-points (npk) =  40000
     Max angular momentum in pseudopotentials (lmaxx) =  3

     bravais-lattice index     =            0
     lattice parameter (alat)  =      12.1554  a.u.
     unit-cell volume          =    5335.4657 (a.u.)^3
     number of atoms/cell      =           24
     number of atomic types    =            2
     number of electrons       =       144.00
     number of Kohn-Sham states=           86
     kinetic-energy cutoff     =      45.0000  Ry
     charge density cutoff     =     360.0000  Ry
     convergence threshold     =      1.0E-06
     mixing beta               =       0.7000
     number of iterations used =            8  local-TF  mixing
     Exchange-correlation      = SLA PW GGX GGC ( 1  4  2  2 0 0)

     celldm(1)=  12.155351  celldm(2)=   0.000000  celldm(3)=   0.000000
     celldm(4)=   0.000000  celldm(5)=   0.000000  celldm(6)=   0.000000

     crystal axes: (cart. coord. in units of alat)
               a(1) = (   1.000000   0.000000   0.000000 )
               a(2) = (  -0.483712   0.886997   0.000000 )
               a(3) = (  -0.486495  -0.758882   3.349250 )

     reciprocal axes: (cart. coord. in units 2 pi/alat)
               b(1) = (  1.000000  0.545337  0.268819 )
               b(2) = (  0.000000  1.127399  0.255449 )
               b(3) = (  0.000000  0.000000  0.298574 )

     PseudoPot. # 1 for Mo read from file:
     ~/pseudo/Mo.pw91-n-van.UPF
     MD5 check sum: Not computed, couldn't open file
     Pseudo is Ultrasoft + core correction, Zval =  6.0
     Generated by new atomic code, or converted to UPF format
     Using radial grid of  965 points,  3 beta functions with:
                l(1) =   1
                l(2) =   2
                l(3) =   2
     Q(r) pseudized with  8 coefficients,  rinner =    1.000   1.000   1.000
                                                       1.200   1.200

     PseudoPot. # 2 for S  read from file:
     ~/pseudo/S.pw91-van_ak.UPF
     MD5 check sum: Not computed, couldn't open file
     Pseudo is Ultrasoft, Zval =  6.0
     Generated by new atomic code, or converted to UPF format
     Using radial grid of  811 points,  6 beta functions with:
                l(1) =   0
                l(2) =   0
                l(3) =   1
                l(4) =   1
                l(5) =   2
                l(6) =   2
     Q(r) pseudized with  8 coefficients,  rinner =    1.100   1.100   1.100
                                                       1.100   1.100

     atomic species   valence    mass     pseudopotential
        Mo             6.00    95.50000     Mo( 1.00)
        S              6.00    32.06500     S ( 1.00)

     No symmetry found

   Cartesian axes

     site n.     atom                  positions (alat units)
         1           Mo  tau(   1) = (   0.3301324   0.8641346   0.4363317  )
         2           Mo  tau(   2) = (   0.0641847   0.4233673   0.4288068  )
         3           Mo  tau(   3) = (  -0.1831232   0.8633616   0.4338551  )
         4           Mo  tau(   4) = (   0.5692316   0.4407114   0.4388107  )
         5           Mo  tau(   5) = (  -0.2935701  -0.7521572   2.9256691  )
         6           Mo  tau(   6) = (  -0.0367782  -0.3017603   2.9267579  )
         7           Mo  tau(   7) = (   0.2026485  -0.7393008   2.9246917  )
         8           Mo  tau(   8) = (  -0.5424035  -0.3084602   2.9227430  )
         9           S   tau(   9) = (   0.5527582   0.1293048   0.1991887  )
        10           S   tau(  10) = (  -0.1902785   0.5731749   0.1898997  )
        11           S   tau(  11) = (   0.0500191   0.1213340   0.1899511  )
        12           S   tau(  12) = (   0.3127657   0.5701630   0.1908517  )
        13           S   tau(  13) = (  -0.2793957  -0.4455446   3.1636741  )
        14           S   tau(  14) = (  -0.0262341   0.0025282   3.1661430  )
        15           S   tau(  15) = (   0.2128804  -0.4413687   3.1699814  )
        16           S   tau(  16) = (  -0.5282857  -0.0017252   3.1703841  )
        17           S   tau(  17) = (  -0.2850473  -0.4626423   2.6864903  )
        18           S   tau(  18) = (  -0.0306912  -0.0133191   2.6888869  )
        19           S   tau(  19) = (   0.1997379  -0.4563660   2.6752975  )
        20           S   tau(  20) = (  -0.5250061  -0.0146150   2.6854309  )
        21           S   tau(  21) = (   0.5614865   0.1366890   0.6663272  )
        22           S   tau(  22) = (  -0.1749034   0.5774639   0.6785777  )
        23           S   tau(  23) = (   0.0609654   0.1350551   0.6757388  )
        24           S   tau(  24) = (   0.3171114   0.5759369   0.6774401  )

     number of k points=     5  Marzari-Vanderbilt smearing, width (Ry)=  0.0200
                       cart. coord. in units 2pi/alat
        k(    1) = (   0.0000000   0.0000000   0.0000000), wk =   0.2222222
        k(    2) = (   0.0000000   0.3757997   0.0851497), wk =   0.4444444
        k(    3) = (   0.3333333   0.1817789   0.0896063), wk =   0.4444444
        k(    4) = (   0.3333333   0.5575786   0.1747560), wk =   0.4444444
        k(    5) = (   0.3333333  -0.1940209   0.0044565), wk =   0.4444444

     Initial potential from superposition of free atoms

     starting charge  143.98738, renormalised to  144.00000

     negative rho (up, down):  6.423E-04 0.000E+00
     Starting wfcs are  136 randomized atomic wfcs

     Self-consistent Calculation

[...]

     negative rho (up, down):  3.793E-08 0.000E+00

[...]

     total energy              =    -563.55404734 Ry
     Harris-Foulkes estimate   =    -563.55431690 Ry
     estimated scf accuracy    <       0.00838557 Ry

     iteration #  8     ecut=    45.00 Ry     beta= 0.70
     Davidson diagonalization with overlap
     ethr =  5.82E-06,  avg # of iterations =  1.0