     Program PWSCF v.6.4 starts on 19Nov2021 at 21: 9:50

     R & G space division:  proc/nbgrp/npool/nimage =      40
     Waiting for input...
     Reading input from standard input
Warning: card    &IONS ignored
Warning: card      ION_DYNAMICS = 'BFGS' ignored
Warning: card   / ignored
Warning: card    &CELL ignored
Warning: card      CELL_DYNAMICS = 'BFGS', ignored
Warning: card    / ignored

     Current dimensions of program PWSCF are:
     Max number of different atomic species (ntypx) = 10
     Max number of k-points (npk) =  40000
     Max angular momentum in pseudopotentials (lmaxx) =  3

     bravais-lattice index     =            0
     lattice parameter (alat)  =      12.1221  a.u.
     unit-cell volume          =    6448.7433 (a.u.)^3
     number of atoms/cell      =           36
     number of atomic types    =            2
     number of electrons       =       216.00
     number of Kohn-Sham states=          130
     kinetic-energy cutoff     =      45.0000  Ry
     charge density cutoff     =     360.0000  Ry
     convergence threshold     =      1.0E-06
     mixing beta               =       0.7000
     number of iterations used =            8  local-TF  mixing
     Exchange-correlation      = SLA PW GGX GGC ( 1  4  2  2 0 0)

     celldm(1)=  12.122096  celldm(2)=   0.000000  celldm(3)=   0.000000
     celldm(4)=   0.000000  celldm(5)=   0.000000  celldm(6)=   0.000000

     crystal axes: (cart. coord. in units of alat)
               a(1) = (   1.000000   0.000000   0.000000 )
               a(2) = (  -0.008509   1.705952   0.000000 )
               a(3) = (   0.067096   0.266450   2.122146 )

     reciprocal axes: (cart. coord. in units 2 pi/alat)
               b(1) = (  1.000000  0.004988 -0.032243 )
               b(2) = (  0.000000  0.586183 -0.073599 )
               b(3) = (  0.000000  0.000000  0.471221 )

     PseudoPot. # 1 for Mo read from file:
     ~/pseudo/Mo.pw91-n-van.UPF
     MD5 check sum: Not computed, couldn't open file
     Pseudo is Ultrasoft + core correction, Zval =  6.0
     Generated by new atomic code, or converted to UPF format
     Using radial grid of  965 points,  3 beta functions with:
                l(1) =   1
                l(2) =   2
                l(3) =   2
     Q(r) pseudized with  8 coefficients,  rinner =    1.000   1.000   1.000
                                                       1.200   1.200

     PseudoPot. # 2 for S  read from file:
     ~/pseudo/S.pw91-van_ak.UPF
     MD5 check sum: Not computed, couldn't open file
     Pseudo is Ultrasoft, Zval =  6.0
     Generated by new atomic code, or converted to UPF format
     Using radial grid of  811 points,  6 beta functions with:
                l(1) =   0
                l(2) =   0
                l(3) =   1
                l(4) =   1
                l(5) =   2
                l(6) =   2
     Q(r) pseudized with  8 coefficients,  rinner =    1.100   1.100   1.100
                                                       1.100   1.100

     atomic species   valence    mass     pseudopotential
        Mo             6.00    95.50000     Mo( 1.00)
        S              6.00    32.06500     S ( 1.00)

     No symmetry found

   Cartesian axes

     site n.     atom                  positions (alat units)
         1           Mo  tau(   1) = (   0.5995363   0.4432654   1.4131788  )
         2           Mo  tau(   2) = (   0.3459700   0.8703094   1.4134769  )
         3           Mo  tau(   3) = (   0.0990427   0.4441773   1.4149623  )
         4           Mo  tau(   4) = (   0.8458851   0.8703413   1.4146909  )
         5           Mo  tau(   5) = (   0.0968841   1.2961450   1.4076446  )
         6           Mo  tau(   6) = (   0.5956166   1.2964247   1.4077407  )
         7           Mo  tau(   7) = (   0.8465942   1.7229942   1.4086734  )
         8           Mo  tau(   8) = (   0.3456467   1.7226818   1.4079504  )
         9           Mo  tau(   9) = (   0.7369219   1.0224265   0.3487018  )
        10           Mo  tau(  10) = (   0.2802127   1.0165871   0.3461343  )
        11           Mo  tau(  11) = (   0.2287851   0.5908451   0.4111910  )
        12           Mo  tau(  12) = (   0.7692887   0.5944536   0.4166168  )
        13           S   tau(  13) = (   0.3486160   0.5862152   1.6627390  )
        14           S   tau(  14) = (   0.5954029   1.8631434   1.6576143  )
        15           S   tau(  15) = (   0.8480032   0.5860373   1.6639179  )
        16           S   tau(  16) = (   0.0965415   1.8642508   1.6596187  )
        17           S   tau(  17) = (   0.4987041   0.3877714   0.5397447  )
        18           S   tau(  18) = (   1.0009458   0.5674393   0.6987134  )
        19           S   tau(  19) = (   0.3485035   0.5828211   1.1686175  )
        20           S   tau(  20) = (   0.6045343   0.1568817   1.1616671  )
        21           S   tau(  21) = (   0.8484984   0.5835164   1.1679374  )
        22           S   tau(  22) = (   0.1040587   0.1598243   1.1630403  )
        23           S   tau(  23) = (   0.5006853   0.7309574   0.1622844  )
        24           S   tau(  24) = (   0.9940772   0.4092701   0.2091027  )
        25           S   tau(  25) = (   0.0956111   1.0146497   1.6598248  )
        26           S   tau(  26) = (   0.5954622   1.0145485   1.6608602  )
        27           S   tau(  27) = (   0.0952751   1.0064209   1.1637434  )
        28           S   tau(  28) = (   0.5954248   1.0075232   1.1638596  )
        29           S   tau(  29) = (   0.8460570   1.4358577   1.1596085  )
        30           S   tau(  30) = (   0.3459091   1.4356398   1.1579004  )
        31           S   tau(  31) = (   1.0090613   0.8729636   0.5952798  )
        32           S   tau(  32) = (   0.5037695   1.1715012   0.5748216  )
        33           S   tau(  33) = (   0.8470231   1.4382212   1.6552352  )
        34           S   tau(  34) = (   0.3471919   1.4385701   1.6557331  )
        35           S   tau(  35) = (   0.0118326   1.2515817   0.2722405  )
        36           S   tau(  36) = (   0.5153097   1.0365023   0.0578684  )

     number of k points=     8  Marzari-Vanderbilt smearing, width (Ry)=  0.0200
                       cart. coord. in units 2pi/alat
        k(    1) = (   0.0000000   0.0000000   0.0000000), wk =   0.1666667
        k(    2) = (   0.0000000   0.0000000  -0.2356106), wk =   0.1666667
        k(    3) = (   0.0000000  -0.2930916   0.0367997), wk =   0.1666667
        k(    4) = (   0.0000000  -0.2930916  -0.1988109), wk =   0.1666667
        k(    5) = (   0.3333333   0.0016627  -0.0107477), wk =   0.3333333
        k(    6) = (   0.3333333   0.0016627  -0.2463583), wk =   0.3333333
        k(    7) = (   0.3333333  -0.2914289   0.0260519), wk =   0.3333333
        k(    8) = (   0.3333333  -0.2914289  -0.2095587), wk =   0.3333333

     Initial potential from superposition of free atoms

     starting charge  215.98107, renormalised to  216.00000
     Starting wfcs are  204 randomized atomic wfcs

     Self-consistent Calculation

     iteration #  1     ecut=    45.00 Ry     beta= 0.70
     Davidson diagonalization with overlap
     ethr =  1.00E-02,  avg # of iterations =  2.2

     total energy              =    -843.80515457 Ry
     Harris-Foulkes estimate   =    -846.01365901 Ry
     estimated scf accuracy    <       5.71946129 Ry

[...]

     iteration # 11     ecut=    45.00 Ry     beta= 0.70
     Davidson diagonalization with overlap
     c_bands:  1 eigenvalues not converged
     ethr =  3.29E-07,  avg # of iterations =  8.9

[...]

     total energy              =    -844.86505460 Ry
     Harris-Foulkes estimate   =    -844.86505526 Ry
     estimated scf accuracy    <       0.00000262 Ry

     iteration # 17     ecut=    45.00 Ry     beta= 0.70
     Davidson diagonalization with overlap
     ethr =  1.21E-09,  avg # of iterations =  2.8

     End of self-consistent calculation

          k = 0.0000 0.0000 0.0000 ( 32813 PWs)   bands (ev):

   -12.1616 -11.8571 -10.5341  -9.7232  -9.7142  -9.3585  -8.9522  -8.9473
    -8.7673  -8.7472  -8.7134  -8.7004  -8.6629  -8.5208  -8.5001  -8.4782
    -8.4715  -8.4589  -8.4259  -8.3064  -8.0085  -7.9748  -7.8621  -7.5308
    -2.2680  -2.2223  -2.1807  -2.1753  -2.1533  -2.0243  -1.8469  -1.4854
    -1.4710  -1.3939  -1.3599  -1.2881  -1.2677  -1.2628  -1.2437  -1.2341
    -1.2105  -1.0475  -0.9542  -0.5115  -0.5040  -0.4885  -0.2415  -0.1654
    -0.1055  -0.0504  -0.0198  -0.0098   0.0743   0.1062   0.1465   0.3252
     0.3319   0.3576   0.4287   0.4976   0.5580   0.6199   0.6418   0.6501
     0.6710   0.8060   0.8808   0.8901   0.9519   1.0678   1.0782   1.0951
     1.1164   1.3664   1.3756   1.4724   1.5994   1.6193   1.6674   1.6965
     1.8111   1.8167   1.8184   1.8360   1.8991   2.0928   2.1983   2.2237
     2.2283   2.4617   2.4980   2.6023   2.7189   2.7728   2.7916   2.8035
     2.8321   2.8624   2.9260   3.1015   3.1045   3.3114   3.5155   3.6331
     3.6704   4.0080   4.2706   4.2975   4.5398   4.6698   5.0991   5.4150
     5.5946   5.6201   5.6284   5.6512   5.6760   5.6788   5.7066   5.7563
     5.7599   5.8350   5.9143   5.9792   5.9985   6.1091   6.1692   6.1789
     6.1835   6.1980

[...]

          k = 0.3333-0.2914-0.2096 ( 32925 PWs)   bands (ev):

   -12.0990 -11.9106 -10.0538 -10.0324  -9.3864  -9.3632  -9.1297  -9.1108
    -8.8677  -8.8505  -8.8153  -8.7932  -8.6153  -8.5938  -8.5292  -8.5124
    -8.4154  -8.3943  -8.3191  -8.2344  -8.0762  -8.0555  -7.8059  -7.6366
    -2.1754  -2.1043  -1.8153  -1.6479  -1.6107  -1.6048  -1.5931  -1.5778
    -1.5011  -1.4889  -1.4754  -1.4567  -1.4337  -1.3176  -1.1623  -1.0957
    -1.0593  -1.0453  -0.4557  -0.4432  -0.3415  -0.3281  -0.2580  -0.2251
    -0.1933  -0.1509   0.0028   0.0831   0.1102   0.1845   0.2567   0.2827
     0.3126   0.3882   0.4131   0.4580   0.4669   0.5329   0.5440   0.6863
     0.7736   0.8186   0.8268   0.8303   0.8757   0.9489   0.9928   1.0070
     1.2356   1.2638   1.3677   1.4098   1.4487   1.4670   1.4960   1.5661
     1.6065   1.6367   1.6629   1.7684   1.8837   1.9527   1.9714   1.9769
     2.0244   2.1004   2.1126   2.1422   2.4610   2.4767   2.6134   2.6314
     2.9216   2.9480   3.0275   3.0451   3.1848   3.1972   3.2984   3.4039
     3.7538   3.8984   4.0513   4.4786   4.9052   5.1070   5.2341   5.3652
     5.4804   5.5806   5.5972   5.6040   5.6186   5.6248   5.6379   5.6509
     5.6664   5.7600   5.7846   5.8338   5.8963   5.9905   6.0187   6.0429
     6.0820   6.1100

     the Fermi energy is     4.5502 ev

!    total energy              =    -844.86505465 Ry
     Harris-Foulkes estimate   =    -844.86505496 Ry
     estimated scf accuracy    <       0.00000039 Ry

     The total energy is the sum of the following terms:

     one-electron contribution =    -716.24332517 Ry
     hartree contribution      =     459.84698760 Ry
     xc contribution           =    -334.21483776 Ry
     ewald contribution        =    -254.25393130 Ry
     smearing contrib. (-TS)   =       0.00005198 Ry

     convergence has been achieved in  17 iterations

     Forces acting on atoms (cartesian axes, Ry/au):

     atom    1 type  1   force =     0.00261380   -0.00342174    0.00787567
     atom    2 type  1   force =     0.00356629   -0.00187346    0.00264146
     atom    3 type  1   force =     0.00008015   -0.00272103    0.00047458
     atom    4 type  1   force =    -0.00093943   -0.00235947   -0.00193415
     atom    5 type  1   force =    -0.00267879   -0.00137054    0.00100133
     atom    6 type  1   force =     0.00356115   -0.00177272    0.00258835
     atom    7 type  1   force =    -0.00197470   -0.00268270    0.00388224
     atom    8 type  1   force =    -0.00086789   -0.00311620    0.00449510
     atom    9 type  1   force =     0.01314531   -0.04908182    0.02763127
     atom   10 type  1   force =    -0.00667030   -0.04953710    0.01587817
     atom   11 type  1   force =    -0.00304323    0.05996636   -0.02530980
     atom   12 type  1   force =    -0.00436016    0.06306459   -0.03116868
     atom   13 type  2   force =     0.00144947   -0.00232117   -0.00130617
     atom   14 type  2   force =    -0.00079817   -0.00361082    0.00038730
     atom   15 type  2   force =    -0.00070211   -0.00256751   -0.00354144
     atom   16 type  2   force =    -0.00288689   -0.00580988   -0.00311796
     atom   17 type  2   force =     0.00103810   -0.02283670    0.02007524
     atom   18 type  2   force =     0.00827479   -0.04581193    0.09282205
     atom   19 type  2   force =     0.00001711    0.00501546   -0.00881744
     atom   20 type  2   force =    -0.00125195    0.00763629    0.00027727
     atom   21 type  2   force =    -0.00375295    0.00487907    0.00533480
     atom   22 type  2   force =    -0.00177777    0.00380294   -0.00281261
     atom   23 type  2   force =     0.00653816   -0.04879281   -0.01030895
     atom   24 type  2   force =     0.00169897   -0.00900549   -0.04476341
     atom   25 type  2   force =     0.00186814   -0.00158795    0.00129668
     atom   26 type  2   force =    -0.00005946   -0.00108560   -0.00301046
     atom   27 type  2   force =     0.00134622    0.00622988    0.00107941
     atom   28 type  2   force =     0.00147711    0.00308492    0.00054705
     atom   29 type  2   force =     0.00074096    0.00456055    0.00117557
     atom   30 type  2   force =     0.00030584    0.00525372    0.00380810
     atom   31 type  2   force =    -0.00444266    0.03738657   -0.00120204
     atom   32 type  2   force =     0.00518277    0.00890539    0.03676643
     atom   33 type  2   force =    -0.00135057   -0.00144749    0.00087678
     atom   34 type  2   force =    -0.00336311   -0.00107955   -0.00038757
     atom   35 type  2   force =    -0.00447310    0.00748102   -0.01148181
     atom   36 type  2   force =    -0.00751113    0.04662688   -0.08175238

     Total force =     0.210590     Total SCF correction =     0.001159

     General routines

     Parallel routines

   This run was terminated on:  21:13: 8  19Nov2021

   JOB DONE.