     Program PWSCF v.6.4 starts on  3Dec2021 at 17:59:59

     R & G space division:  proc/nbgrp/npool/nimage =      40
     Waiting for input...
     Reading input from standard input
Warning: card    &IONS ignored
Warning: card      ION_DYNAMICS = 'BFGS' ignored
Warning: card   / ignored
Warning: card    &CELL ignored
Warning: card      CELL_DYNAMICS = 'BFGS', ignored
Warning: card    / ignored

     Current dimensions of program PWSCF are:
     Max number of different atomic species (ntypx) = 10
     Max number of k-points (npk) =  40000
     Max angular momentum in pseudopotentials (lmaxx) =  3

     bravais-lattice index     =            0
     lattice parameter (alat)  =      12.1482  a.u.
     unit-cell volume          =   17608.2565 (a.u.)^3
     number of atoms/cell      =           36
     number of atomic types    =            2
     number of electrons       =       216.00
     number of Kohn-Sham states=          130
     kinetic-energy cutoff     =      45.0000  Ry
     charge density cutoff     =     360.0000  Ry
     convergence threshold     =      1.0E-06
     mixing beta               =       0.7000
     number of iterations used =            8  local-TF  mixing
     Exchange-correlation      = SLA PW GGX GGC ( 1  4  2  2 0 0)

     celldm(1)=  12.148176  celldm(2)=   0.000000  celldm(3)=   0.000000
     celldm(4)=   0.000000  celldm(5)=   0.000000  celldm(6)=   0.000000

     crystal axes: (cart. coord. in units of alat)
               a(1) = (   1.000000   0.000000   0.000000 )
               a(2) = (   0.000778   1.729254   0.000000 )
               a(3) = (  -0.100788  -0.061352   5.679686 )

     reciprocal axes: (cart. coord. in units 2 pi/alat)
               b(1) = (  1.000000 -0.000450  0.017740 )
               b(2) = (  0.000000  0.578284  0.006247 )
               b(3) = (  0.000000  0.000000  0.176066 )

     PseudoPot. # 1 for Mo read from file:
     ~/pseudo/Mo.pw91-n-van.UPF
     MD5 check sum: Not computed, couldn't open file
     Pseudo is Ultrasoft + core correction, Zval =  6.0
     Generated by new atomic code, or converted to UPF format
     Using radial grid of  965 points,  3 beta functions with:
                l(1) =   1
                l(2) =   2
                l(3) =   2
     Q(r) pseudized with  8 coefficients,  rinner =    1.000   1.000   1.000
                                                       1.200   1.200

     PseudoPot. # 2 for S  read from file:
     ~/pseudo/S.pw91-van_ak.UPF
     MD5 check sum: Not computed, couldn't open file
     Pseudo is Ultrasoft, Zval =  6.0
     Generated by new atomic code, or converted to UPF format
     Using radial grid of  811 points,  6 beta functions with:
                l(1) =   0
                l(2) =   0
                l(3) =   1
                l(4) =   1
                l(5) =   2
                l(6) =   2
     Q(r) pseudized with  8 coefficients,  rinner =    1.100   1.100   1.100
                                                       1.100   1.100

     atomic species   valence    mass     pseudopotential
        Mo             6.00    95.50000     Mo( 1.00)
        S              6.00    32.06500     S ( 1.00)

     No symmetry found

   Cartesian axes

     site n.     atom                  positions (alat units)
         1           Mo  tau(   1) = (   0.2143025   0.3515849   2.4804758  )
         2           Mo  tau(   2) = (   0.4655411   0.7860312   2.4915185  )
         3           Mo  tau(   3) = (   0.7151712   0.3548624   2.4797631  )
         4           Mo  tau(   4) = (  -0.0347441   0.7867189   2.4900893  )
         5           Mo  tau(   5) = (   0.7146971   1.2177192   2.4903785  )
         6           Mo  tau(   6) = (   0.2132543   1.2179570   2.4915017  )
         7           Mo  tau(   7) = (   0.9663756   1.6504536   2.4788346  )
         8           Mo  tau(   8) = (   0.4582306   1.6495864   2.4763074  )
         9           Mo  tau(   9) = (   0.7832050   0.6091220   3.5831667  )
        10           Mo  tau(  10) = (   0.3162222   0.6299388   3.5387840  )
        11           Mo  tau(  11) = (   0.9531399   0.1931999   3.4502254  )
        12           Mo  tau(  12) = (   0.5869671   0.3720520   3.2886422  )
        13           S   tau(  13) = (   0.4635701   0.5011102   2.2370148  )
        14           S   tau(  14) = (   0.2108233   0.0667207   2.2284118  )
        15           S   tau(  15) = (  -0.0341722   0.5012335   2.2360650  )
        16           S   tau(  16) = (   0.7125192   0.0650014   2.2321554  )
        17           S   tau(  17) = (   0.5951020   0.7278765   3.2737142  )
        18           S   tau(  18) = (   0.6235962   0.2634134   3.6224358  )
        19           S   tau(  19) = (   0.4661921   0.4922656   2.7277982  )
        20           S   tau(  20) = (   0.2114590   0.0651279   2.7251066  )
        21           S   tau(  21) = (  -0.0345171   0.4936429   2.7281412  )
        22           S   tau(  22) = (   0.7103028   0.0635859   2.7156886  )
        23           S   tau(  23) = (   0.8073912   0.1689040   3.1076816  )
        24           S   tau(  24) = (   0.0817974   0.4121833   3.7464050  )
        25           S   tau(  25) = (   0.7145193   0.9287358   2.2450492  )
        26           S   tau(  26) = (   0.2154547   0.9290166   2.2462944  )
        27           S   tau(  27) = (   0.7149987   0.9307477   2.7384285  )
        28           S   tau(  28) = (   0.2160797   0.9301115   2.7389721  )
        29           S   tau(  29) = (  -0.0364493   1.3676517   2.7341174  )
        30           S   tau(  30) = (   0.4640969   1.3665538   2.7325135  )
        31           S   tau(  31) = (   0.5484571   0.7500181   3.8083790  )
        32           S   tau(  32) = (   0.2251332   0.3678378   3.2607228  )
        33           S   tau(  33) = (  -0.0353302   1.3578065   2.2417130  )
        34           S   tau(  34) = (   0.4626520   1.3558024   2.2415270  )
        35           S   tau(  35) = (   0.9644848   1.5938265   3.5042844  )
        36           S   tau(  36) = (   0.0477026   0.8706135   3.4944254  )

     number of k points=     4  Marzari-Vanderbilt smearing, width (Ry)=  0.0200
                       cart. coord. in units 2pi/alat
        k(    1) = (   0.0000000   0.0000000   0.0000000), wk =   0.3333333
        k(    2) = (   0.0000000  -0.2891421  -0.0031233), wk =   0.3333333
        k(    3) = (   0.3333333  -0.0001499   0.0059135), wk =   0.6666667
        k(    4) = (   0.3333333  -0.2892920   0.0027902), wk =   0.6666667

     Initial potential from superposition of free atoms

     starting charge  215.98107, renormalised to  216.00000

     negative rho (up, down):  2.988E-03 0.000E+00
     Starting wfcs are  204 randomized atomic wfcs

     Self-consistent Calculation

     iteration #  1     ecut=    45.00 Ry     beta= 0.70
     Davidson diagonalization with overlap
     ethr =  1.00E-02,  avg # of iterations =  2.0

     negative rho (up, down):  1.251E-03 0.000E+00

     total energy              =    -843.60505952 Ry
     Harris-Foulkes estimate   =    -846.34416101 Ry
     estimated scf accuracy    <       7.07801698 Ry

[...]

     iteration #  6     ecut=    45.00 Ry     beta= 0.70
     Davidson diagonalization with overlap
     c_bands:  2 eigenvalues not converged
     ethr =  2.58E-05,  avg # of iterations =  6.5

[...]

     total energy              =    -845.00060000 Ry
     Harris-Foulkes estimate   =    -845.00059809 Ry
     estimated scf accuracy    <       0.00000104 Ry

     iteration # 20     ecut=    45.00 Ry     beta= 0.70
     Davidson diagonalization with overlap
     ethr =  4.82E-10,  avg # of iterations =  1.0

[...]

     End of self-consistent calculation

          k = 0.0000 0.0000 0.0000 ( 89635 PWs)   bands (ev):

   -16.5461 -15.8219 -15.7506 -15.6121 -15.3489 -15.0795 -14.9774 -14.9394
   -14.8893 -14.8230 -14.7873 -14.7664 -14.7602 -14.7513 -14.5507 -14.5278
   -14.5044 -14.4900 -14.4779 -14.4596 -14.3815 -14.2054 -14.0579 -13.8230
    -8.2023  -8.1683  -8.1526  -8.0677  -7.6009  -7.5580  -7.4749  -7.4644
    -7.4110  -7.2941  -7.2883  -7.2343  -7.2188  -7.2023  -7.1180  -7.0127
    -6.7702  -6.6498  -6.5277  -6.5180  -6.4500  -6.3210  -6.3074  -6.2647
    -6.1880  -6.0968  -6.0886  -6.0085  -5.9724  -5.9231  -5.8261  -5.7303
    -5.6980  -5.6425  -5.6275  -5.6135  -5.5964  -5.4769  -5.4577  -5.3971
    -5.3623  -5.3253  -5.1872  -5.0976  -5.0919  -5.0752  -4.9495  -4.9297
    -4.9007  -4.7217  -4.5878  -4.4650  -4.4375  -4.3962  -4.3259  -4.2743
    -4.2635  -4.2478  -4.1769  -4.1737  -4.0684  -4.0101  -3.9709  -3.9565
    -3.9456  -3.7897  -3.6509  -3.5471  -3.4735  -3.4448  -3.4157  -3.3091
    -3.2479  -3.2136  -3.1706  -3.1610  -3.0914  -3.0177  -2.9981  -2.8796
    -2.5361  -2.3518  -2.2195  -1.9222  -1.6843  -1.6012  -1.2466  -0.8881
    -0.7314  -0.6154  -0.5062  -0.4891  -0.4759  -0.4589  -0.4478  -0.4388
    -0.3784  -0.3418  -0.2886  -0.2788  -0.2071  -0.1424   0.0389   0.0550
     0.0731   0.0930

[...]

          k = 0.3333-0.2893 0.0028 ( 89788 PWs)   bands (ev):

   -16.1183 -16.0339 -15.5064 -15.4171 -15.3854 -15.1820 -15.1029 -15.0476
   -14.9746 -14.9269 -14.8632 -14.8024 -14.7632 -14.7037 -14.6651 -14.5967
   -14.5580 -14.5007 -14.4599 -14.4285 -14.4175 -14.2564 -14.0714 -13.8192
    -7.8495  -7.6388  -7.6156  -7.5988  -7.5808  -7.5427  -7.5187  -7.5042
    -7.4632  -7.4476  -7.3537  -7.1171  -7.0702  -7.0380  -6.8563  -6.7482
    -6.7201  -6.4880  -6.4554  -6.4274  -6.3962  -6.3323  -6.3044  -6.2771
    -6.2557  -6.2034  -6.1659  -6.0002  -5.9671  -5.8868  -5.8146  -5.7658
    -5.7274  -5.6773  -5.6302  -5.5995  -5.5292  -5.5204  -5.4755  -5.4339
    -5.3298  -5.2888  -5.2677  -5.2449  -5.2103  -5.1184  -5.0586  -4.8375
    -4.8037  -4.7697  -4.7135  -4.6957  -4.6898  -4.6110  -4.5749  -4.5588
    -4.4266  -4.3813  -4.3537  -4.2739  -4.1653  -4.0868  -4.0600  -4.0342
    -4.0019  -3.9892  -3.9550  -3.8249  -3.6715  -3.5749  -3.4852  -3.4369
    -3.4077  -3.2879  -3.1405  -3.1299  -2.9563  -2.9231  -2.8757  -2.8452
    -2.7989  -2.6168  -2.1170  -1.7014  -1.5442  -1.4423  -1.2921  -1.0698
    -0.7953  -0.6358  -0.5642  -0.5504  -0.4952  -0.4700  -0.4545  -0.4330
    -0.4128  -0.3889  -0.3451  -0.2961  -0.2629  -0.1779  -0.1062  -0.0955
    -0.0855  -0.0723

     the Fermi energy is    -1.6872 ev

!    total energy              =    -845.00060113 Ry
     Harris-Foulkes estimate   =    -845.00060006 Ry
     estimated scf accuracy    <       0.00000045 Ry

     The total energy is the sum of the following terms:

     one-electron contribution =  -12990.13611373 Ry
     hartree contribution      =    6548.91917105 Ry
     xc contribution           =    -333.74053419 Ry
     ewald contribution        =    5929.96300386 Ry
     smearing contrib. (-TS)   =      -0.00612812 Ry

     convergence has been achieved in  20 iterations

     negative rho (up, down):  4.113E-03 0.000E+00

     Forces acting on atoms (cartesian axes, Ry/au):

     atom    1 type  1   force =    -0.00162437    0.00589509   -0.00289749
     atom    2 type  1   force =    -0.00371785   -0.00139482   -0.00740478
     atom    3 type  1   force =    -0.00045249   -0.00549206   -0.00696056
     atom    4 type  1   force =     0.00175869   -0.00567830   -0.00322626
     atom    5 type  1   force =    -0.00218830    0.00394427   -0.00609658
     atom    6 type  1   force =     0.00307463   -0.00505225   -0.00584769
     atom    7 type  1   force =    -0.01475475   -0.00165541   -0.00251421
     atom    8 type  1   force =     0.01546931    0.00057808   -0.00385383
     atom    9 type  1   force =     0.01720117    0.02548909    0.02204024
     atom   10 type  1   force =    -0.02459021    0.01507934    0.04257075
     atom   11 type  1   force =    -0.04007040   -0.01836116    0.01534635
     atom   12 type  1   force =    -0.01512348   -0.02494868   -0.04323005
     atom   13 type  2   force =     0.00269599    0.00270441    0.00330869
     atom   14 type  2   force =     0.00179509   -0.00134281    0.00571507
     atom   15 type  2   force =    -0.00134953    0.00335278    0.00442665
     atom   16 type  2   force =    -0.00042834   -0.00021251    0.00211535
     atom   17 type  2   force =     0.00272313    0.05263582   -0.01369105
     atom   18 type  2   force =     0.01160465   -0.02106995    0.05895891
     atom   19 type  2   force =    -0.00209151    0.00025091    0.00642642
     atom   20 type  2   force =     0.00437532   -0.00162829    0.00448132
     atom   21 type  2   force =     0.00028967    0.00287903    0.00181000
     atom   22 type  2   force =    -0.00919094   -0.01014847   -0.01265006
     atom   23 type  2   force =     0.02713997    0.00868488   -0.01100060
     atom   24 type  2   force =     0.00276931    0.00552695   -0.02012819
     atom   25 type  2   force =     0.00070761    0.00313879    0.00046168
     atom   26 type  2   force =    -0.00025294    0.00380776   -0.00172661
     atom   27 type  2   force =     0.00243903   -0.00109177   -0.00436715
     atom   28 type  2   force =    -0.00361906   -0.00103332   -0.00327466
     atom   29 type  2   force =     0.00081572   -0.00128041   -0.00152347
     atom   30 type  2   force =    -0.00125916    0.00215556    0.00000843
     atom   31 type  2   force =    -0.02328145   -0.01026802   -0.01692647
     atom   32 type  2   force =     0.02157116    0.00085654    0.00511259
     atom   33 type  2   force =    -0.00084599   -0.00188148   -0.00257147
     atom   34 type  2   force =     0.00093966   -0.00106498   -0.00326770
     atom   35 type  2   force =     0.01031100   -0.01499307    0.01166968
     atom   36 type  2   force =     0.01715966   -0.00838156   -0.01129322

     Total force =     0.145829     Total SCF correction =     0.001672

     General routines

     Parallel routines

   This run was terminated on:  18: 6: 7   3Dec2021

   JOB DONE.