     Program PWSCF v.6.4 starts on 28Nov2021 at 10:15: 2

     R & G space division:  proc/nbgrp/npool/nimage =      40
     Waiting for input...
     Reading input from standard input
Warning: card    &IONS ignored
Warning: card      ION_DYNAMICS = 'BFGS' ignored
Warning: card   / ignored
Warning: card    &CELL ignored
Warning: card      CELL_DYNAMICS = 'BFGS', ignored
Warning: card    / ignored

     Current dimensions of program PWSCF are:
     Max number of different atomic species (ntypx) = 10
     Max number of k-points (npk) =  40000
     Max angular momentum in pseudopotentials (lmaxx) =  3

     bravais-lattice index     =            0
     lattice parameter (alat)  =      11.1294  a.u.
     unit-cell volume          =    3507.9115 (a.u.)^3
     number of atoms/cell      =           27
     number of atomic types    =            2
     number of electrons       =       162.00
     number of Kohn-Sham states=           97
     kinetic-energy cutoff     =      45.0000  Ry
     charge density cutoff     =     360.0000  Ry
     convergence threshold     =      1.0E-06
     mixing beta               =       0.7000
     number of iterations used =            8  local-TF  mixing
     Exchange-correlation      = SLA PW GGX GGC ( 1  4  2  2 0 0)

     celldm(1)=  11.129393  celldm(2)=   0.000000  celldm(3)=   0.000000
     celldm(4)=   0.000000  celldm(5)=   0.000000  celldm(6)=   0.000000

     crystal axes: (cart. coord. in units of alat)
               a(1) = (   0.999582   0.028802  -0.002673 )
               a(2) = (   0.029610   1.546153  -0.000819 )
               a(3) = (  -0.035077   0.405617   1.647315 )

     reciprocal axes: (cart. coord. in units 2 pi/alat)
               b(1) = (  1.001040 -0.019157  0.026032 )
               b(2) = ( -0.019071  0.647047 -0.159728 )
               b(3) = (  0.001615  0.000290  0.607011 )

     PseudoPot. # 1 for Mo read from file:
     ~/pseudo/Mo.pw91-n-van.UPF
     MD5 check sum: Not computed, couldn't open file
     Pseudo is Ultrasoft + core correction, Zval =  6.0
     Generated by new atomic code, or converted to UPF format
     Using radial grid of  965 points,  3 beta functions with:
                l(1) =   1
                l(2) =   2
                l(3) =   2
     Q(r) pseudized with  8 coefficients,  rinner =    1.000   1.000   1.000
                                                       1.200   1.200

     PseudoPot. # 2 for S  read from file:
     ~/pseudo/S.pw91-van_ak.UPF
     MD5 check sum: Not computed, couldn't open file
     Pseudo is Ultrasoft, Zval =  6.0
     Generated by new atomic code, or converted to UPF format
     Using radial grid of  811 points,  6 beta functions with:
                l(1) =   0
                l(2) =   0
                l(3) =   1
                l(4) =   1
                l(5) =   2
                l(6) =   2
     Q(r) pseudized with  8 coefficients,  rinner =    1.100   1.100   1.100
                                                       1.100   1.100

     atomic species   valence    mass     pseudopotential
        Mo             6.00    95.50000     Mo( 1.00)
        S              6.00    32.06500     S ( 1.00)

     No symmetry found

   Cartesian axes

     site n.     atom                  positions (alat units)
         1           Mo  tau(   1) = (   1.0010395   1.0958049   0.6103560  )
         2           Mo  tau(   2) = (   0.9392698   0.9661367   0.1363281  )
         3           Mo  tau(   3) = (   0.9584413   0.6029674   0.4922036  )
         4           Mo  tau(   4) = (   0.9620837   1.8056185   1.3633531  )
         5           Mo  tau(   5) = (   0.9740334   0.6225748   1.0228611  )
         6           Mo  tau(   6) = (   0.0062139   1.6795518   0.8652533  )
         7           Mo  tau(   7) = (   0.4365278   0.8159411   1.5951081  )
         8           Mo  tau(   8) = (   0.4980496   1.1752064   1.1810817  )
         9           Mo  tau(   9) = (   0.5151194   1.5826108   0.2957735  )
        10           S   tau(  10) = (   0.6962055   0.4546408   0.7884995  )
        11           S   tau(  11) = (   0.2530720   1.3289032   0.9001686  )
        12           S   tau(  12) = (   0.6453407   1.1807923   1.5504275  )
        13           S   tau(  13) = (   0.2484289   0.3054404   1.1095387  )
        14           S   tau(  14) = (   0.7749788   1.0063616   0.9633576  )
        15           S   tau(  15) = (   0.8003020   1.4648793   0.5821222  )
        16           S   tau(  16) = (   0.7532073   1.3311081   0.0539753  )
        17           S   tau(  17) = (   0.2494853   0.8673111   1.2285598  )
        18           S   tau(  18) = (   0.1777607   0.6245584   0.1381831  )
        19           S   tau(  19) = (   0.2598898   1.2233477   0.3570536  )
        20           S   tau(  20) = (   0.2257841   0.2197543   0.5418534  )
        21           S   tau(  21) = (   0.2064525   1.5273653   1.5725260  )
        22           S   tau(  22) = (   0.6794762   0.8996967   0.4443338  )
        23           S   tau(  23) = (   0.7458110   1.5532159   1.1517519  )
        24           S   tau(  24) = (   0.2287313   0.4849256   1.6129316  )
        25           S   tau(  25) = (   0.2321752   0.7623534   0.7174680  )
        26           S   tau(  26) = (   0.7337823   0.5962837   1.3456226  )
        27           S   tau(  27) = (   0.7048675   0.3641686   0.2705469  )

     number of k points=     8  Marzari-Vanderbilt smearing, width (Ry)=  0.0200
                       cart. coord. in units 2pi/alat
        k(    1) = (   0.0000000   0.0000000   0.0000000), wk =   0.1666667
        k(    2) = (  -0.0008075  -0.0001452  -0.3035057), wk =   0.1666667
        k(    3) = (   0.0095357  -0.3235235   0.0798640), wk =   0.1666667
        k(    4) = (   0.0087282  -0.3236687  -0.2236417), wk =   0.1666667
        k(    5) = (   0.3336801  -0.0063857   0.0086775), wk =   0.3333333
        k(    6) = (   0.3328726  -0.0065309  -0.2948282), wk =   0.3333333
        k(    7) = (   0.3432157  -0.3299092   0.0885415), wk =   0.3333333
        k(    8) = (   0.3424083  -0.3300544  -0.2149642), wk =   0.3333333

     Initial potential from superposition of free atoms

     starting charge  161.98581, renormalised to  162.00000
     Starting wfcs are  153 randomized atomic wfcs

     Self-consistent Calculation

     iteration #  1     ecut=    45.00 Ry     beta= 0.70
     Davidson diagonalization with overlap
     ethr =  1.00E-02,  avg # of iterations =  2.0

     total energy              =    -632.05094564 Ry
     Harris-Foulkes estimate   =    -634.47593505 Ry
     estimated scf accuracy    <       6.16607522 Ry

[...]

     total energy              =    -633.36110289 Ry
     Harris-Foulkes estimate   =    -633.36110316 Ry
     estimated scf accuracy    <       0.00000235 Ry

     iteration # 13     ecut=    45.00 Ry     beta= 0.70
     Davidson diagonalization with overlap
     ethr =  1.45E-09,  avg # of iterations =  3.0

     End of self-consistent calculation

          k = 0.0000 0.0000 0.0000 ( 17873 PWs)   bands (ev):

    -6.7413  -5.9390  -5.7718  -5.7042  -5.5709  -5.4172  -5.2247  -5.1572
    -5.1002  -5.0114  -5.0002  -4.9667  -4.8513  -4.8073  -4.7057  -4.6722
    -4.4593  -4.2829   1.3052   1.9191   2.0434   2.0927   2.1088   2.3007
     2.3832   2.4337   2.5205   2.5822   2.6520   2.6950   2.7445   2.8318
     2.8962   2.9214   3.0790   3.1645   3.2831   3.3154   3.3522   3.4766
     3.5666   3.6150   3.6472   3.7545   3.8872   3.9895   4.0203   4.1425
     4.2733   4.3229   4.4320   4.4837   4.5062   4.6595   4.7359   4.8532
     4.9019   4.9952   5.0606   5.1501   5.2234   5.3912   5.4258   5.7419
     5.7964   5.9727   6.0633   6.2381   6.3807   6.4514   6.5568   6.7547
     6.8262   6.8909   6.9203   6.9791   7.1047   7.2893   7.4306   7.6134
     7.8076   8.0261   8.0996   8.1749   8.3249   8.4470   8.5216   8.5915
     8.6353   8.7794   8.9431   9.0439   9.0937   9.2049   9.2800   9.3018
     9.4404

          k =-0.0008-0.0001-0.3035 ( 17894 PWs)   bands (ev):

[...]

          k = 0.3424-0.3301-0.2150 ( 17896 PWs)   bands (ev):

    -6.2475  -6.0769  -5.8713  -5.6996  -5.5169  -5.4760  -5.3928  -5.2748
    -5.1667  -5.0868  -5.0499  -4.9599  -4.8461  -4.7943  -4.7158  -4.6000
    -4.4809  -4.2940   1.7132   1.7309   1.8645   1.9764   2.1033   2.1421
     2.2703   2.3583   2.3896   2.4241   2.5432   2.6461   2.7280   2.8089
     2.8924   3.0287   3.1257   3.1914   3.2973   3.4924   3.5070   3.6174
     3.7007   3.7862   3.9393   3.9767   4.0243   4.1156   4.1283   4.2056
     4.3129   4.4161   4.5118   4.6372   4.6897   4.7750   4.8520   4.9123
     4.9983   5.0789   5.1911   5.2452   5.3611   5.4545   5.4861   5.6005
     5.6889   5.7774   5.8692   5.8992   6.0433   6.2075   6.3794   6.4543
     6.5760   6.7366   6.8236   7.0029   7.2374   7.2592   7.4804   7.6655
     7.7984   7.9226   8.0081   8.0963   8.2825   8.3428   8.3890   8.5479
     8.7039   8.8211   8.9259   8.9834   9.0968   9.2127   9.3264   9.4200
     9.4554

     the Fermi energy is     7.8558 ev

!    total energy              =    -633.36110290 Ry
     Harris-Foulkes estimate   =    -633.36110324 Ry
     estimated scf accuracy    <       0.00000048 Ry

     The total energy is the sum of the following terms:

     one-electron contribution =      69.74028797 Ry
     hartree contribution      =      63.15409460 Ry
     xc contribution           =    -250.22754728 Ry
     ewald contribution        =    -516.02117112 Ry
     smearing contrib. (-TS)   =      -0.00676706 Ry

     convergence has been achieved in  13 iterations

     Forces acting on atoms (cartesian axes, Ry/au):

     atom    1 type  1   force =    -0.02324488    0.02475429   -0.01306438
     atom    2 type  1   force =     0.00814889    0.02514098    0.02311086
     atom    3 type  1   force =     0.01040952    0.00272256   -0.00603250
     atom    4 type  1   force =     0.01157986    0.00223663   -0.01025860
     atom    5 type  1   force =    -0.00961289    0.01062337    0.00230140
     atom    6 type  1   force =    -0.00838722    0.01887313    0.01179947
     atom    7 type  1   force =     0.00292310    0.01975833   -0.01821004
     atom    8 type  1   force =    -0.00234709   -0.00981717   -0.00723682
     atom    9 type  1   force =    -0.00649471   -0.01149479    0.00327485
     atom   10 type  2   force =     0.00087937   -0.00700866   -0.00327629
     atom   11 type  2   force =    -0.01925209   -0.01196848   -0.01040076
     atom   12 type  2   force =    -0.00735255   -0.01233645   -0.00683562
     atom   13 type  2   force =     0.01480126    0.00019086   -0.00967115
     atom   14 type  2   force =     0.00000391    0.00446212    0.00749925
     atom   15 type  2   force =    -0.01596360   -0.01407971    0.01685351
     atom   16 type  2   force =     0.01009560   -0.00853770    0.00389134
     atom   17 type  2   force =     0.01014686    0.02032235    0.01435089
     atom   18 type  2   force =     0.02127753   -0.02363663    0.01570217
     atom   19 type  2   force =    -0.00149469   -0.02018166    0.00911490
     atom   20 type  2   force =    -0.00798729    0.00083561    0.00325601
     atom   21 type  2   force =     0.01677639   -0.01651135   -0.04142575
     atom   22 type  2   force =     0.00746870    0.01865144    0.00290002
     atom   23 type  2   force =    -0.00418368   -0.00404512   -0.01561661
     atom   24 type  2   force =    -0.02679591   -0.00731314    0.01265744
     atom   25 type  2   force =     0.03111382   -0.02242333    0.03185328
     atom   26 type  2   force =    -0.01730327    0.02787163    0.00088656
     atom   27 type  2   force =     0.00479509   -0.00708911   -0.01742344

     Total force =     0.132020     Total SCF correction =     0.001279

     General routines

     Parallel routines

   This run was terminated on:  10:16: 6  28Nov2021

   JOB DONE.