     Program PWSCF v.6.4 starts on  5Aug2021 at 16:14:19

     R & G space division:  proc/nbgrp/npool/nimage =      40
     Waiting for input...
     Reading input from standard input
Warning: card    &IONS ignored
Warning: card      ION_DYNAMICS = 'BFGS' ignored
Warning: card   / ignored
Warning: card    &CELL ignored
Warning: card      CELL_DYNAMICS = 'BFGS', ignored
Warning: card    / ignored

     Current dimensions of program PWSCF are:
     Max number of different atomic species (ntypx) = 10
     Max number of k-points (npk) =  40000
     Max angular momentum in pseudopotentials (lmaxx) =  3

     bravais-lattice index     =            0
     lattice parameter (alat)  =      12.3783  a.u.
     unit-cell volume          =    6585.8093 (a.u.)^3
     number of atoms/cell      =           24
     number of atomic types    =            2
     number of electrons       =       144.00
     number of Kohn-Sham states=           86
     kinetic-energy cutoff     =      45.0000  Ry
     charge density cutoff     =     360.0000  Ry
     convergence threshold     =      1.0E-06
     mixing beta               =       0.7000
     number of iterations used =            8  local-TF  mixing
     Exchange-correlation      = SLA PW GGX GGC ( 1  4  2  2 0 0)

     celldm(1)=  12.378265  celldm(2)=   0.000000  celldm(3)=   0.000000
     celldm(4)=   0.000000  celldm(5)=   0.000000  celldm(6)=   0.000000

     crystal axes: (cart. coord. in units of alat)
               a(1) = (   0.999892  -0.003992   0.014128 )
               a(2) = (  -0.498967   0.861611   0.024696 )
               a(3) = (   0.056923   0.028073   4.041748 )

     reciprocal axes: (cart. coord. in units 2 pi/alat)
               b(1) = (  1.002684  0.581184 -0.018158 )
               b(2) = (  0.004760  1.163607 -0.008149 )
               b(3) = ( -0.003534 -0.009141  0.247531 )

     PseudoPot. # 1 for Mo read from file:
     ~/pseudo/Mo.pw91-n-van.UPF
     MD5 check sum: Not computed, couldn't open file
     Pseudo is Ultrasoft + core correction, Zval =  6.0
     Generated by new atomic code, or converted to UPF format
     Using radial grid of  965 points,  3 beta functions with:
                l(1) =   1
                l(2) =   2
                l(3) =   2
     Q(r) pseudized with  8 coefficients,  rinner =    1.000   1.000   1.000
                                                       1.200   1.200

     PseudoPot. # 2 for S  read from file:
     ~/pseudo/S.pw91-van_ak.UPF
     MD5 check sum: Not computed, couldn't open file
     Pseudo is Ultrasoft, Zval =  6.0
     Generated by new atomic code, or converted to UPF format
     Using radial grid of  811 points,  6 beta functions with:
                l(1) =   0
                l(2) =   0
                l(3) =   1
                l(4) =   1
                l(5) =   2
                l(6) =   2
     Q(r) pseudized with  8 coefficients,  rinner =    1.100   1.100   1.100
                                                       1.100   1.100

     atomic species   valence    mass     pseudopotential
        Mo             6.00    95.50000     Mo( 1.00)
        S              6.00    32.06500     S ( 1.00)

     No symmetry found

   Cartesian axes

     site n.     atom                  positions (alat units)
         1           Mo  tau(   1) = (   0.2872366   0.1448948   0.6327280  )
         2           Mo  tau(   2) = (   0.0263422   0.5613777   0.6274340  )
         3           Mo  tau(   3) = (   0.7752951   0.1356899   0.6252072  )
         4           Mo  tau(   4) = (   0.5296439   0.5803481   0.6613086  )
         5           Mo  tau(   5) = (   0.0237736   0.3150679   3.4408661  )
         6           Mo  tau(   6) = (  -0.2268891   0.7440680   3.4482224  )
         7           Mo  tau(   7) = (   0.5259994   0.3082777   3.4391662  )
         8           Mo  tau(   8) = (   0.2763036   0.7407365   3.4501927  )
         9           S   tau(   9) = (   0.0199704   0.2764321   0.8594212  )
        10           S   tau(  10) = (  -0.1942338   0.7137164   0.8893640  )
        11           S   tau(  11) = (   0.5441112   0.2731929   0.8902035  )
        12           S   tau(  12) = (   0.2569544   0.7113991   0.8823377  )
        13           S   tau(  13) = (   0.2801141   0.1653782   3.6814453  )
        14           S   tau(  14) = (   0.0277461   0.6053840   3.6917522  )
        15           S   tau(  15) = (   0.7671019   0.1582701   3.6802092  )
        16           S   tau(  16) = (   0.5190066   0.5923812   3.6880837  )
        17           S   tau(  17) = (   0.0397633   0.2809407   0.3707023  )
        18           S   tau(  18) = (  -0.2384879   0.7236620   0.4080022  )
        19           S   tau(  19) = (   0.5265636   0.3142884   0.4068129  )
        20           S   tau(  20) = (   0.2855623   0.7186608   0.3942857  )
        21           S   tau(  21) = (   0.2675533   0.1699864   3.1955282  )
        22           S   tau(  22) = (   0.0215711   0.5933326   3.2063778  )
        23           S   tau(  23) = (   0.7882551   0.1738086   3.1959627  )
        24           S   tau(  24) = (   0.5332320   0.5984892   3.2013711  )

     number of k points=     5  Marzari-Vanderbilt smearing, width (Ry)=  0.0200
                       cart. coord. in units 2pi/alat
        k(    1) = (   0.0000000   0.0000000   0.0000000), wk =   0.2222222
        k(    2) = (   0.0015868   0.3878689  -0.0027164), wk =   0.4444444
        k(    3) = (   0.3342282   0.1937280  -0.0060528), wk =   0.4444444
        k(    4) = (   0.3358149   0.5815969  -0.0087692), wk =   0.4444444
        k(    5) = (   0.3326414  -0.1941410  -0.0033364), wk =   0.4444444

     Initial potential from superposition of free atoms

     starting charge  143.98738, renormalised to  144.00000

     negative rho (up, down):  8.500E-04 0.000E+00
     Starting wfcs are  136 randomized atomic wfcs

     Self-consistent Calculation

     iteration #  1     ecut=    45.00 Ry     beta= 0.70
     Davidson diagonalization with overlap
     ethr =  1.00E-02,  avg # of iterations =  2.0

     negative rho (up, down):  1.217E-04 0.000E+00

     total energy              =    -562.63704371 Ry
     Harris-Foulkes estimate   =    -564.56261584 Ry
     estimated scf accuracy    <       4.98446369 Ry

[...]

     iteration #  6     ecut=    45.00 Ry     beta= 0.70
     Davidson diagonalization with overlap
     c_bands:  2 eigenvalues not converged
     c_bands:  1 eigenvalues not converged
     ethr =  2.53E-06,  avg # of iterations = 14.8

[...]

     total energy              =    -563.61556388 Ry
     Harris-Foulkes estimate   =    -563.61556380 Ry
     estimated scf accuracy    <       0.00000302 Ry

     iteration # 15     ecut=    45.00 Ry     beta= 0.70
     Davidson diagonalization with overlap
     ethr =  2.10E-09,  avg # of iterations =  3.0

[...]

     End of self-consistent calculation

          k = 0.0000 0.0000 0.0000 ( 33561 PWs)   bands (ev):

   -13.5785 -13.5428 -12.4992 -12.4266 -11.9904 -11.9662 -11.9622 -11.9275
   -11.9189 -11.8971 -11.6421 -11.6322 -11.6248 -11.6176 -11.6094 -11.5683
    -5.2098  -5.1773  -5.1658  -5.1621  -5.1565  -5.1419  -5.0707  -5.0319
    -4.3493  -4.3188  -4.2781  -4.2774  -4.2420  -4.2355  -3.6178  -3.6093
    -3.5943  -3.5609  -3.5495  -3.4914  -2.8092  -2.7904  -2.7694  -2.7419
    -2.7284  -2.7258  -2.3068  -2.3018  -2.2264  -2.1443  -1.5988  -1.5473
    -1.5448  -1.5349  -1.5240  -1.5052  -1.4500  -1.3606  -1.3076  -1.2548
    -1.2153  -1.1409  -0.7441  -0.7221  -0.7097  -0.6901  -0.6641  -0.5959
    -0.3498  -0.3438  -0.3387  -0.3266  -0.3201  -0.2827   0.2380   0.3262
     2.0798   2.1196   2.1272   2.1281   2.1391   2.1533   2.5675   2.5939
     2.6158   2.6232   2.6263   2.6377   2.7423   2.7431

[...]

          k = 0.3326-0.1941-0.0033 ( 33566 PWs)   bands (ev):

   -13.2541 -13.2081 -12.5795 -12.4353 -12.2685 -12.1456 -12.0113 -11.9880
   -11.9670 -11.9301 -11.8151 -11.8050 -11.6434 -11.6322 -11.6059 -11.5182
    -4.8469  -4.7501  -4.7254  -4.7135  -4.7029  -4.6719  -4.6520  -4.6326
    -4.3676  -4.3281  -4.3036  -4.2994  -3.7471  -3.7013  -3.5996  -3.5171
    -3.4528  -3.4279  -3.3706  -3.3448  -3.0211  -2.9436  -2.8450  -2.7995
    -2.7549  -2.6936  -2.5407  -2.4782  -2.4574  -2.3295  -2.1079  -2.0124
    -1.9718  -1.9017  -1.8399  -1.7646  -1.7397  -1.6556  -1.4234  -1.4081
    -1.3947  -1.3263  -1.2980  -1.2444  -1.0489  -0.9638  -0.8125  -0.7529
    -0.6174  -0.5878  -0.2697  -0.2466  -0.2288  -0.1668  -0.0242   0.0108
     2.0570   2.1480   2.1710   2.1794   2.1938   2.2034   2.3008   2.3276
     2.3625   2.4041   2.4935   2.5361   2.6239   2.6835

     the Fermi energy is     0.3346 ev

!    total energy              =    -563.61556315 Ry
     Harris-Foulkes estimate   =    -563.61556439 Ry
     estimated scf accuracy    <       0.00000035 Ry

     The total energy is the sum of the following terms:

     one-electron contribution =   -3394.12854083 Ry
     hartree contribution      =    1747.25515608 Ry
     xc contribution           =    -222.10637641 Ry
     ewald contribution        =    1305.34743980 Ry
     smearing contrib. (-TS)   =       0.01675820 Ry

     convergence has been achieved in  15 iterations

     negative rho (up, down):  1.161E-03 0.000E+00

     Forces acting on atoms (cartesian axes, Ry/au):

     atom    1 type  1   force =    -0.01880754   -0.00326716   -0.00729911
     atom    2 type  1   force =     0.00864772    0.03637218   -0.01603320
     atom    3 type  1   force =     0.01486945    0.02446647   -0.01021799
     atom    4 type  1   force =    -0.01308648   -0.02138352    0.01507396
     atom    5 type  1   force =     0.01049303   -0.01894083    0.02059785
     atom    6 type  1   force =     0.01011838   -0.01039551    0.00453150
     atom    7 type  1   force =    -0.00196607    0.00589127   -0.01192457
     atom    8 type  1   force =     0.00032673   -0.00028583   -0.01505471
     atom    9 type  2   force =     0.01140912   -0.01642515   -0.00329831
     atom   10 type  2   force =    -0.04809017   -0.01042778   -0.02438424
     atom   11 type  2   force =    -0.02629846    0.01688664   -0.03733575
     atom   12 type  2   force =     0.02497508   -0.01851851   -0.00509065
     atom   13 type  2   force =    -0.01985886   -0.00896117   -0.02919009
     atom   14 type  2   force =    -0.01476356   -0.02439859   -0.02413904
     atom   15 type  2   force =     0.00982521   -0.00263782   -0.01222571
     atom   16 type  2   force =     0.00452657   -0.01231534   -0.00569199
     atom   17 type  2   force =    -0.00967417    0.00710032    0.04532457
     atom   18 type  2   force =     0.05337059    0.01524045   -0.00006372
     atom   19 type  2   force =     0.01439986   -0.02906349   -0.00218073
     atom   20 type  2   force =    -0.01204819   -0.00073889    0.04425553
     atom   21 type  2   force =     0.01972090    0.01983475    0.00942398
     atom   22 type  2   force =     0.01211309    0.04021991    0.00875034
     atom   23 type  2   force =    -0.02003783    0.00115796    0.02173840
     atom   24 type  2   force =    -0.01016439    0.01058963    0.03443369

     Total force =     0.169656     Total SCF correction =     0.001402

     General routines

     Parallel routines

   This run was terminated on:  16:15:42   5Aug2021

   JOB DONE.