     Program PWSCF v.6.4 starts on  2Sep2021 at 21:53:11

     R & G space division:  proc/nbgrp/npool/nimage =      40
     Waiting for input...
     Reading input from standard input
Warning: card    &IONS ignored
Warning: card      ION_DYNAMICS = 'BFGS' ignored
Warning: card   / ignored
Warning: card    &CELL ignored
Warning: card      CELL_DYNAMICS = 'BFGS', ignored
Warning: card    / ignored

     Current dimensions of program PWSCF are:
     Max number of different atomic species (ntypx) = 10
     Max number of k-points (npk) =  40000
     Max angular momentum in pseudopotentials (lmaxx) =  3

     bravais-lattice index     =            0
     lattice parameter (alat)  =      12.2105  a.u.
     unit-cell volume          =    5969.9747 (a.u.)^3
     number of atoms/cell      =           36
     number of atomic types    =            2
     number of electrons       =       216.00
     number of Kohn-Sham states=          130
     kinetic-energy cutoff     =      45.0000  Ry
     charge density cutoff     =     360.0000  Ry
     convergence threshold     =      1.0E-06
     mixing beta               =       0.7000
     number of iterations used =            8  local-TF  mixing
     Exchange-correlation      = SLA PW GGX GGC ( 1  4  2  2 0 0)

     celldm(1)=  12.210478  celldm(2)=   0.000000  celldm(3)=   0.000000
     celldm(4)=   0.000000  celldm(5)=   0.000000  celldm(6)=   0.000000

     crystal axes: (cart. coord. in units of alat)
               a(1) = (   1.000000   0.000000   0.000000 )
               a(2) = (  -0.499088   0.866388   0.000000 )
               a(3) = (   0.289556  -0.540693   3.784967 )

     reciprocal axes: (cart. coord. in units 2 pi/alat)
               b(1) = (  1.000000  0.576056  0.005790 )
               b(2) = (  0.000000  1.154218  0.164883 )
               b(3) = (  0.000000  0.000000  0.264203 )

     PseudoPot. # 1 for Mo read from file:
     ~/pseudo/Mo.pw91-n-van.UPF
     MD5 check sum: Not computed, couldn't open file
     Pseudo is Ultrasoft + core correction, Zval =  6.0
     Generated by new atomic code, or converted to UPF format
     Using radial grid of  965 points,  3 beta functions with:
                l(1) =   1
                l(2) =   2
                l(3) =   2
     Q(r) pseudized with  8 coefficients,  rinner =    1.000   1.000   1.000
                                                       1.200   1.200

     PseudoPot. # 2 for S  read from file:
     ~/pseudo/S.pw91-van_ak.UPF
     MD5 check sum: Not computed, couldn't open file
     Pseudo is Ultrasoft, Zval =  6.0
     Generated by new atomic code, or converted to UPF format
     Using radial grid of  811 points,  6 beta functions with:
                l(1) =   0
                l(2) =   0
                l(3) =   1
                l(4) =   1
                l(5) =   2
                l(6) =   2
     Q(r) pseudized with  8 coefficients,  rinner =    1.100   1.100   1.100
                                                       1.100   1.100

     atomic species   valence    mass     pseudopotential
        Mo             6.00    95.50000     Mo( 1.00)
        S              6.00    32.06500     S ( 1.00)

     No symmetry found

   Cartesian axes

     site n.     atom                  positions (alat units)
         1           Mo  tau(   1) = (  -0.0311848   0.3265153   1.4641553  )
         2           Mo  tau(   2) = (   0.4887185   0.3453593   1.4685867  )
         3           Mo  tau(   3) = (   0.7119112  -0.0929253   1.4740215  )
         4           Mo  tau(   4) = (   0.2185747  -0.0916295   1.4691797  )
         5           Mo  tau(   5) = (   0.7566250  -0.0975752   2.5255872  )
         6           Mo  tau(   6) = (   0.2505099  -0.0980915   2.5242205  )
         7           Mo  tau(   7) = (   0.0112118   0.3297349   2.5110951  )
         8           Mo  tau(   8) = (   0.5189587   0.3247582   2.5134598  )
         9           Mo  tau(   9) = (   0.0938916  -0.0126211   3.5857367  )
        10           Mo  tau(  10) = (   0.6073516  -0.0183589   3.5773956  )
        11           Mo  tau(  11) = (   0.8548779  -0.4618577   3.5818052  )
        12           Mo  tau(  12) = (   0.3540466  -0.4481952   3.5780210  )
        13           S   tau(  13) = (   0.0591122   0.3855538   0.0337109  )
        14           S   tau(  14) = (   0.5567205   0.3683356   0.0388862  )
        15           S   tau(  15) = (   0.3204736   0.8082729   0.0376233  )
        16           S   tau(  16) = (  -0.1926832   0.8182866   0.0445690  )
        17           S   tau(  17) = (  -0.0348924   0.6193011   1.2294530  )
        18           S   tau(  18) = (   0.4642205   0.6372652   1.2280296  )
        19           S   tau(  19) = (   0.7220859   0.1839122   1.2162652  )
        20           S   tau(  20) = (   0.2379134   0.1985194   1.2283944  )
        21           S   tau(  21) = (   0.4607949  -0.2517198   1.7109047  )
        22           S   tau(  22) = (   0.9682694  -0.2314990   1.7157454  )
        23           S   tau(  23) = (   0.7256293   0.1927709   1.7249488  )
        24           S   tau(  24) = (   0.2326314   0.2037830   1.7072160  )
        25           S   tau(  25) = (   0.5030330  -0.2365980   2.2812849  )
        26           S   tau(  26) = (   1.0026739  -0.2464339   2.2790499  )
        27           S   tau(  27) = (   0.7661297   0.1780684   2.2637252  )
        28           S   tau(  28) = (   0.2640788   0.1835995   2.2713371  )
        29           S   tau(  29) = (   0.5011968  -0.2499414   2.7605923  )
        30           S   tau(  30) = (   1.0026804  -0.2551585   2.7636363  )
        31           S   tau(  31) = (   0.7687626   0.1926717   2.7681140  )
        32           S   tau(  32) = (   0.2633871   0.1959854   2.7614456  )
        33           S   tau(  33) = (   0.3489592  -0.1536906   3.3395950  )
        34           S   tau(  34) = (   0.8585651  -0.1742248   3.3371174  )
        35           S   tau(  35) = (   0.6117924   0.2683040   3.3298237  )
        36           S   tau(  36) = (   0.1047980   0.2688749   3.3340701  )

     number of k points=     5  Marzari-Vanderbilt smearing, width (Ry)=  0.0200
                       cart. coord. in units 2pi/alat
        k(    1) = (   0.0000000   0.0000000   0.0000000), wk =   0.2222222
        k(    2) = (   0.0000000   0.3847392   0.0549610), wk =   0.4444444
        k(    3) = (   0.3333333   0.1920187   0.0019299), wk =   0.4444444
        k(    4) = (   0.3333333   0.5767579   0.0568909), wk =   0.4444444
        k(    5) = (   0.3333333  -0.1927204  -0.0530311), wk =   0.4444444

     Initial potential from superposition of free atoms

     starting charge  215.98107, renormalised to  216.00000

     negative rho (up, down):  5.048E-08 0.000E+00
     Starting wfcs are  204 randomized atomic wfcs

     Self-consistent Calculation

     iteration #  1     ecut=    45.00 Ry     beta= 0.70
     Davidson diagonalization with overlap
     ethr =  1.00E-02,  avg # of iterations =  2.0

     total energy              =    -844.14823506 Ry
     Harris-Foulkes estimate   =    -846.83465600 Ry
     estimated scf accuracy    <       6.88732477 Ry

[...]

     iteration #  6     ecut=    45.00 Ry     beta= 0.70
     Davidson diagonalization with overlap
     c_bands:  2 eigenvalues not converged
     ethr =  1.61E-06,  avg # of iterations = 16.6

[...]

     negative rho (up, down):  4.522E-08 0.000E+00

[...]

     total energy              =    -845.49032320 Ry
     Harris-Foulkes estimate   =    -845.49032357 Ry
     estimated scf accuracy    <       0.00000188 Ry

     iteration # 16     ecut=    45.00 Ry     beta= 0.70
     Davidson diagonalization with overlap
     ethr =  8.70E-10,  avg # of iterations =  3.0

[...]

     End of self-consistent calculation

          k = 0.0000 0.0000 0.0000 ( 30369 PWs)   bands (ev):

    -9.6506  -9.5970  -9.5761  -8.4953  -8.4137  -8.3814  -7.9891  -7.9629
    -7.9378  -7.9238  -7.9223  -7.8954  -7.8820  -7.8592  -7.8330  -7.7092
    -7.6593  -7.6420  -7.6336  -7.6278  -7.6025  -7.5952  -7.5683  -7.5639
    -1.3068  -1.2691  -1.2621  -1.2553  -1.2355  -1.2161  -1.2101  -1.2043
    -1.1944  -1.1900  -1.0793  -0.9374  -0.3843  -0.3667  -0.3513  -0.3027
    -0.2843  -0.2774  -0.2670  -0.2403  -0.2303   0.2411   0.2495   0.3117
     0.3713   0.3954   0.4211   0.4337   0.4698   0.5294   1.2250   1.2426
     1.2498   1.2560   1.2651   1.2793   1.2817   1.2902   1.2910   1.7335
     1.7559   1.7617   1.7682   1.7791   1.7847   2.0386   2.2830   2.3189
     2.4157   2.4299   2.4921   2.5657   2.6146   2.7075   2.7328   2.7653
     2.8362   2.8601   2.8714   2.8893   2.8971   2.9038   3.1326   3.1829
     3.2309   3.2987   3.3470   3.3542   3.3745   3.4029   3.4511   3.4544
     3.5641   3.6558   3.6785   3.7197   3.7488   3.7680   3.7720   3.8195
     3.8481   4.1492   4.4312   4.6119   6.2162   6.2323   6.2344   6.2721
     6.2753   6.3364   6.3592   6.3644   6.3994   6.7315   6.7485   6.7653
     6.7869   6.8095   6.8216   6.8382   6.8460   6.8610   6.9536   6.9794
     6.9951   7.0006

[...]

          k = 0.3333-0.1927-0.0530 ( 30411 PWs)   bands (ev):

    -9.2941  -9.2405  -9.2205  -8.4644  -8.4134  -8.4011  -8.3222  -8.2442
    -8.2085  -8.0035  -7.9837  -7.9482  -7.9340  -7.8946  -7.8804  -7.8557
    -7.8404  -7.8246  -7.6896  -7.6508  -7.6176  -7.6125  -7.5450  -7.5037
    -0.8971  -0.8765  -0.8419  -0.8083  -0.8031  -0.7532  -0.7275  -0.7076
    -0.6865  -0.6722  -0.6471  -0.5486  -0.4093  -0.3925  -0.3568  -0.3500
    -0.3385  -0.3222   0.1940   0.2838   0.3381   0.4013   0.4503   0.4762
     0.5182   0.5781   0.5855   0.6111   0.6876   0.7193   1.0254   1.0559
     1.0709   1.0956   1.1479   1.2066   1.2281   1.3080   1.3301   1.4534
     1.5261   1.5544   1.5741   1.6543   1.7250   1.8363   1.9205   1.9632
     2.0057   2.0914   2.0991   2.1911   2.2371   2.2802   2.3166   2.3374
     2.3448   2.3820   2.5162   2.6255   2.6356   2.6716   2.7480   2.8194
     2.8514   2.9718   2.9915   3.0029   3.0156   3.0723   3.2901   3.3410
     3.4273   3.4482   3.5263   3.7058   3.7763   3.8022   3.8526   3.9208
     3.9429   3.9739   4.1083   4.1778   6.0444   6.1696   6.2128   6.2323
     6.2555   6.3408   6.3698   6.4055   6.4227   6.4503   6.4733   6.5129
     6.5629   6.6370   6.6811   6.7086   6.7218   6.7602   6.7991   6.8082
     6.8199   6.8426

     the Fermi energy is     4.4895 ev

!    total energy              =    -845.49032354 Ry
     Harris-Foulkes estimate   =    -845.49032350 Ry
     estimated scf accuracy    <       0.00000010 Ry

     The total energy is the sum of the following terms:

     one-electron contribution =   -1275.82464357 Ry
     hartree contribution      =     745.50581232 Ry
     xc contribution           =    -333.89072567 Ry
     ewald contribution        =      18.69981410 Ry
     smearing contrib. (-TS)   =       0.01941926 Ry

     convergence has been achieved in  16 iterations

     negative rho (up, down):  3.101E-06 0.000E+00

     Forces acting on atoms (cartesian axes, Ry/au):

     atom    1 type  1   force =     0.02335873    0.02652634    0.01767721
     atom    2 type  1   force =    -0.04177321   -0.00678928    0.00889817
     atom    3 type  1   force =     0.01094520   -0.01657896   -0.00046826
     atom    4 type  1   force =     0.00882588    0.00023228    0.00927430
     atom    5 type  1   force =    -0.00061695   -0.02054581   -0.01410183
     atom    6 type  1   force =     0.01485153   -0.01194020   -0.00908590
     atom    7 type  1   force =     0.00224266    0.01346192    0.01419692
     atom    8 type  1   force =    -0.02264420    0.01900058    0.01001343
     atom    9 type  1   force =     0.02059802   -0.01898499   -0.01758483
     atom   10 type  1   force =    -0.01154050   -0.00786166   -0.00551696
     atom   11 type  1   force =    -0.00096663    0.01971128   -0.01233624
     atom   12 type  1   force =    -0.00467751    0.00476759   -0.00663744
     atom   13 type  2   force =     0.00784970   -0.00573084    0.01058776
     atom   14 type  2   force =     0.00888015    0.00775392    0.00375842
     atom   15 type  2   force =    -0.00208327   -0.00015308    0.00112958
     atom   16 type  2   force =     0.00822428   -0.01013742   -0.00784430
     atom   17 type  2   force =     0.00207513    0.00736787   -0.00684004
     atom   18 type  2   force =     0.01130566   -0.00685153   -0.00029123
     atom   19 type  2   force =     0.00030644    0.01046027    0.01774175
     atom   20 type  2   force =    -0.01465582   -0.00427026   -0.00756302
     atom   21 type  2   force =     0.00507674    0.01034587   -0.00529374
     atom   22 type  2   force =     0.00379200   -0.00337087   -0.01064271
     atom   23 type  2   force =    -0.00378370   -0.00175437   -0.03388515
     atom   24 type  2   force =    -0.00630578   -0.01359917   -0.00134046
     atom   25 type  2   force =     0.00271862   -0.00973064   -0.00186046
     atom   26 type  2   force =     0.00665508    0.00080201    0.00461770
     atom   27 type  2   force =    -0.00238276    0.01014966    0.02715718
     atom   28 type  2   force =    -0.00279215    0.00262913    0.00823392
     atom   29 type  2   force =     0.00631544    0.00712125    0.00233885
     atom   30 type  2   force =     0.00808317    0.00908770   -0.00250275
     atom   31 type  2   force =    -0.00643287   -0.00966238   -0.02091250
     atom   32 type  2   force =    -0.00301559   -0.01303533   -0.00896044
     atom   33 type  2   force =    -0.00174100   -0.00503702    0.00025591
     atom   34 type  2   force =    -0.01084648    0.01204072    0.00776216
     atom   35 type  2   force =    -0.00897613    0.00085242    0.01757967
     atom   36 type  2   force =    -0.00686988    0.00372300    0.01244534

     Total force =     0.121627     Total SCF correction =     0.000450

     General routines

     Parallel routines

   This run was terminated on:  21:55:11   2Sep2021

   JOB DONE.