     Program PWSCF v.6.4 starts on  8Sep2021 at 12: 0:29

     R & G space division:  proc/nbgrp/npool/nimage =      40
     Waiting for input...
     Reading input from standard input
Warning: card    &IONS ignored
Warning: card      ION_DYNAMICS = 'BFGS' ignored
Warning: card   / ignored
Warning: card    &CELL ignored
Warning: card      CELL_DYNAMICS = 'BFGS', ignored
Warning: card    / ignored

     Current dimensions of program PWSCF are:
     Max number of different atomic species (ntypx) = 10
     Max number of k-points (npk) =  40000
     Max angular momentum in pseudopotentials (lmaxx) =  3

     bravais-lattice index     =            0
     lattice parameter (alat)  =      12.3094  a.u.
     unit-cell volume          =    3357.5768 (a.u.)^3
     number of atoms/cell      =           24
     number of atomic types    =            2
     number of electrons       =       144.00
     number of Kohn-Sham states=           86
     kinetic-energy cutoff     =      45.0000  Ry
     charge density cutoff     =     360.0000  Ry
     convergence threshold     =      1.0E-06
     mixing beta               =       0.7000
     number of iterations used =            8  local-TF  mixing
     Exchange-correlation      = SLA PW GGX GGC ( 1  4  2  2 0 0)

     celldm(1)=  12.309407  celldm(2)=   0.000000  celldm(3)=   0.000000
     celldm(4)=   0.000000  celldm(5)=   0.000000  celldm(6)=   0.000000

     crystal axes: (cart. coord. in units of alat)
               a(1) = (   0.999952  -0.001259   0.009749 )
               a(2) = (  -0.241177   0.429383  -0.000395 )
               a(3) = (  -0.389171   0.230565   4.192887 )

     reciprocal axes: (cart. coord. in units 2 pi/alat)
               b(1) = (  1.000152  0.561824  0.061936 )
               b(2) = (  0.004181  2.331151 -0.127801 )
               b(3) = ( -0.002325 -0.001087  0.238343 )

     PseudoPot. # 1 for Mo read from file:
     ~/pseudo/Mo.pw91-n-van.UPF
     MD5 check sum: Not computed, couldn't open file
     Pseudo is Ultrasoft + core correction, Zval =  6.0
     Generated by new atomic code, or converted to UPF format
     Using radial grid of  965 points,  3 beta functions with:
                l(1) =   1
                l(2) =   2
                l(3) =   2
     Q(r) pseudized with  8 coefficients,  rinner =    1.000   1.000   1.000
                                                       1.200   1.200

     PseudoPot. # 2 for S  read from file:
     ~/pseudo/S.pw91-van_ak.UPF
     MD5 check sum: Not computed, couldn't open file
     Pseudo is Ultrasoft, Zval =  6.0
     Generated by new atomic code, or converted to UPF format
     Using radial grid of  811 points,  6 beta functions with:
                l(1) =   0
                l(2) =   0
                l(3) =   1
                l(4) =   1
                l(5) =   2
                l(6) =   2
     Q(r) pseudized with  8 coefficients,  rinner =    1.100   1.100   1.100
                                                       1.100   1.100

     atomic species   valence    mass     pseudopotential
        Mo             6.00    95.50000     Mo( 1.00)
        S              6.00    32.06500     S ( 1.00)

     No symmetry found

   Cartesian axes

     site n.     atom                  positions (alat units)
         1           Mo  tau(   1) = (   0.0741701   0.2715285   1.5206852  )
         2           Mo  tau(   2) = (  -0.4294786   0.3250173   3.7322529  )
         3           Mo  tau(   3) = (   0.5387337   0.2306065   1.5040521  )
         4           Mo  tau(   4) = (   0.1310967   0.3754810   3.7396837  )
         5           Mo  tau(   5) = (  -0.0567182  -0.1213071   0.5507486  )
         6           Mo  tau(   6) = (  -0.3894875  -0.0351513   2.6111799  )
         7           Mo  tau(   7) = (   0.4064344  -0.1348759   0.5396358  )
         8           Mo  tau(   8) = (   0.1873800   0.0088032   2.5923837  )
         9           S   tau(   9) = (   0.3278728   0.3952373   1.7671722  )
        10           S   tau(  10) = (  -0.1454723   0.4988971   3.9634197  )
        11           S   tau(  11) = (   0.7990905   0.3984715   1.7564740  )
        12           S   tau(  12) = (   0.3773534   0.4995093   4.0049642  )
        13           S   tau(  13) = (  -0.0765493   0.1523348   0.2928840  )
        14           S   tau(  14) = (  -0.3437240   0.2723709   2.3860312  )
        15           S   tau(  15) = (   0.4359981   0.1641889   0.3097474  )
        16           S   tau(  16) = (   0.1657248   0.2789641   2.3311366  )
        17           S   tau(  17) = (  -0.0611955   0.4515067   0.7936649  )
        18           S   tau(  18) = (  -0.3424422   0.5578206   2.8164402  )
        19           S   tau(  19) = (   0.4286235   0.4384601   0.7917793  )
        20           S   tau(  20) = (   0.1496439   0.5512992   2.8814106  )
        21           S   tau(  21) = (   0.2895422   0.1125453   1.2593400  )
        22           S   tau(  22) = (  -0.1449861   0.2049544   3.5123585  )
        23           S   tau(  23) = (   0.8147403   0.1044088   1.2790357  )
        24           S   tau(  24) = (   0.3305425   0.2035207   3.4760320  )

     number of k points=     8  Marzari-Vanderbilt smearing, width (Ry)=  0.0200
                       cart. coord. in units 2pi/alat
        k(    1) = (   0.0000000   0.0000000   0.0000000), wk =   0.1333333
        k(    2) = (   0.0008361   0.4662302  -0.0255602), wk =   0.2666667
        k(    3) = (   0.0016723   0.9324604  -0.0511205), wk =   0.2666667
        k(    4) = (   0.3333839   0.1872746   0.0206455), wk =   0.2666667
        k(    5) = (   0.3342200   0.6535048  -0.0049147), wk =   0.2666667
        k(    6) = (   0.3350562   1.1197350  -0.0304750), wk =   0.2666667
        k(    7) = (   0.3317116  -0.7451858   0.0717660), wk =   0.2666667
        k(    8) = (   0.3325478  -0.2789556   0.0462057), wk =   0.2666667

     Initial potential from superposition of free atoms

     starting charge  143.98738, renormalised to  144.00000
     Starting wfcs are  136 randomized atomic wfcs

     Self-consistent Calculation

     iteration #  1     ecut=    45.00 Ry     beta= 0.70
     Davidson diagonalization with overlap
     ethr =  1.00E-02,  avg # of iterations =  2.0

     total energy              =    -562.24640720 Ry
     Harris-Foulkes estimate   =    -564.23634193 Ry
     estimated scf accuracy    <       5.86026970 Ry

[...]

     iteration # 12     ecut=    45.00 Ry     beta= 0.70
     Davidson diagonalization with overlap
     c_bands:  1 eigenvalues not converged
     ethr =  1.06E-07,  avg # of iterations =  3.6

[...]

     total energy              =    -563.28807757 Ry
     Harris-Foulkes estimate   =    -563.28807795 Ry
     estimated scf accuracy    <       0.00000229 Ry

     iteration # 15     ecut=    45.00 Ry     beta= 0.70
     Davidson diagonalization with overlap
     ethr =  1.59E-09,  avg # of iterations =  3.6

     End of self-consistent calculation

          k = 0.0000 0.0000 0.0000 ( 17187 PWs)   bands (ev):

    -7.8125  -7.6253  -7.5051  -7.2899  -6.8596  -6.6541  -6.5534  -6.3694
    -6.2597  -6.0963  -5.8931  -5.7418  -5.6226  -5.6025  -5.5052  -5.4278
     0.2636   0.4197   0.4853   0.5895   0.8057   0.9297   1.1367   1.3832
     1.6803   1.7999   1.8744   1.9861   2.1754   2.1848   2.2818   2.4109
     3.0258   3.1312   3.1531   3.1625   3.2172   3.2792   3.3460   3.4243
     3.4743   3.5801   3.6323   3.8503   4.0156   4.0872   4.1833   4.2426
     4.3440   4.4075   4.5710   4.8074   4.9332   5.0159   5.1733   5.3942
     5.4317   5.4457   5.5287   5.7350   5.8397   5.9893   6.1086   6.1129
     6.1333   6.1728   6.3090   6.3593   6.3904   6.4511   6.4838   6.5595
     6.5939   6.6289   6.6349   6.7533   6.7976   6.9630   7.1509   7.3043
     7.9816   8.2414   8.2830   8.4136   8.5306   8.6996

[...]

          k = 0.3325-0.2790 0.0462 ( 17153 PWs)   bands (ev):

    -7.3454  -7.1564  -7.0332  -6.8229  -6.6607  -6.4768  -6.3801  -6.1830
    -6.0414  -5.8913  -5.8136  -5.6863  -5.6686  -5.5813  -5.4810  -5.3952
     0.9095   1.0193   1.0682   1.1587   1.3935   1.4210   1.5416   1.6408
     1.6805   1.7283   1.7903   2.0038   2.1171   2.2582   2.3059   2.4532
     2.5065   2.6792   2.8473   2.9336   2.9872   3.0102   3.0720   3.1395
     3.2692   3.2844   3.3664   3.4046   3.4621   3.6351   3.7593   3.8451
     3.9028   3.9753   4.0391   4.1119   4.1459   4.1900   4.3201   4.4032
     4.5629   4.8839   4.9967   5.1027   5.2076   5.3019   5.4464   5.7140
     5.7865   5.9379   6.0192   6.0449   6.0927   6.3084   6.4903   6.6476
     6.7736   6.8939   6.9199   6.9905   7.3746   7.4822   7.7251   7.8245
     7.8807   8.1247   8.3414   8.5058   8.6603   8.8221

     the Fermi energy is     6.6085 ev

!    total energy              =    -563.28807733 Ry
     Harris-Foulkes estimate   =    -563.28807796 Ry
     estimated scf accuracy    <       0.00000074 Ry

     The total energy is the sum of the following terms:

     one-electron contribution =     -94.44415689 Ry
     hartree contribution      =     129.24784952 Ry
     xc contribution           =    -222.39127031 Ry
     ewald contribution        =    -375.70294669 Ry
     smearing contrib. (-TS)   =       0.00244705 Ry

     convergence has been achieved in  15 iterations

     Forces acting on atoms (cartesian axes, Ry/au):

     atom    1 type  1   force =     0.02313617    0.00587829   -0.01205490
     atom    2 type  1   force =    -0.01422227    0.00580072    0.01053198
     atom    3 type  1   force =    -0.01860135   -0.00262569    0.01727766
     atom    4 type  1   force =     0.02203748   -0.00003205   -0.00785755
     atom    5 type  1   force =     0.01451253    0.01376785   -0.00731966
     atom    6 type  1   force =     0.00782244    0.00506360    0.01693563
     atom    7 type  1   force =    -0.02141592   -0.01464990    0.00536148
     atom    8 type  1   force =    -0.01063273   -0.00830674   -0.01741581
     atom    9 type  2   force =    -0.01525060    0.00034830   -0.00355384
     atom   10 type  2   force =    -0.00455197   -0.00834097   -0.01563629
     atom   11 type  2   force =     0.01013587    0.00151248   -0.01850986
     atom   12 type  2   force =    -0.02109772   -0.00605867   -0.00314179
     atom   13 type  2   force =     0.00990646    0.00383983    0.00110001
     atom   14 type  2   force =     0.00806985    0.00608475    0.01582923
     atom   15 type  2   force =    -0.00594353   -0.00491296    0.01299332
     atom   16 type  2   force =    -0.01537125   -0.00968398    0.01485025
     atom   17 type  2   force =    -0.00527398   -0.00740834    0.00082360
     atom   18 type  2   force =    -0.00367552   -0.00268964   -0.01586176
     atom   19 type  2   force =     0.00567873    0.00358322   -0.02262723
     atom   20 type  2   force =     0.01367934    0.00892536   -0.01461925
     atom   21 type  2   force =     0.01199853   -0.00439677    0.00741617
     atom   22 type  2   force =    -0.00306239    0.00636877    0.01164336
     atom   23 type  2   force =    -0.00631668    0.00350898    0.02232303
     atom   24 type  2   force =     0.01843852    0.00442355    0.00151221

     Total force =     0.098743     Total SCF correction =     0.002706

     General routines

     Parallel routines

   This run was terminated on:  12: 1:21   8Sep2021

   JOB DONE.