     Program PWSCF v.6.4 starts on  6Oct2021 at 12:46:11

     R & G space division:  proc/nbgrp/npool/nimage =      40
     Waiting for input...
     Reading input from standard input
Warning: card    &IONS ignored
Warning: card      ION_DYNAMICS = 'BFGS' ignored
Warning: card   / ignored
Warning: card    &CELL ignored
Warning: card      CELL_DYNAMICS = 'BFGS', ignored
Warning: card    / ignored

     Current dimensions of program PWSCF are:
     Max number of different atomic species (ntypx) = 10
     Max number of k-points (npk) =  40000
     Max angular momentum in pseudopotentials (lmaxx) =  3

     bravais-lattice index     =            0
     lattice parameter (alat)  =      12.1307  a.u.
     unit-cell volume          =    4878.6146 (a.u.)^3
     number of atoms/cell      =           36
     number of atomic types    =            2
     number of electrons       =       216.00
     number of Kohn-Sham states=          130
     kinetic-energy cutoff     =      45.0000  Ry
     charge density cutoff     =     360.0000  Ry
     convergence threshold     =      1.0E-06
     mixing beta               =       0.7000
     number of iterations used =            8  local-TF  mixing
     Exchange-correlation      = SLA PW GGX GGC ( 1  4  2  2 0 0)

     celldm(1)=  12.130741  celldm(2)=   0.000000  celldm(3)=   0.000000
     celldm(4)=   0.000000  celldm(5)=   0.000000  celldm(6)=   0.000000

     crystal axes: (cart. coord. in units of alat)
               a(1) = (   1.000000   0.000000   0.000000 )
               a(2) = (   0.499870   0.879566   0.000000 )
               a(3) = (  -0.018450  -0.111325   3.107179 )

     reciprocal axes: (cart. coord. in units 2 pi/alat)
               b(1) = (  1.000000 -0.568315 -0.014424 )
               b(2) = (  0.000000  1.136925  0.040734 )
               b(3) = (  0.000000  0.000000  0.321835 )

     PseudoPot. # 1 for Mo read from file:
     ~/pseudo/Mo.pw91-n-van.UPF
     MD5 check sum: Not computed, couldn't open file
     Pseudo is Ultrasoft + core correction, Zval =  6.0
     Generated by new atomic code, or converted to UPF format
     Using radial grid of  965 points,  3 beta functions with:
                l(1) =   1
                l(2) =   2
                l(3) =   2
     Q(r) pseudized with  8 coefficients,  rinner =    1.000   1.000   1.000
                                                       1.200   1.200

     PseudoPot. # 2 for S  read from file:
     ~/pseudo/S.pw91-van_ak.UPF
     MD5 check sum: Not computed, couldn't open file
     Pseudo is Ultrasoft, Zval =  6.0
     Generated by new atomic code, or converted to UPF format
     Using radial grid of  811 points,  6 beta functions with:
                l(1) =   0
                l(2) =   0
                l(3) =   1
                l(4) =   1
                l(5) =   2
                l(6) =   2
     Q(r) pseudized with  8 coefficients,  rinner =    1.100   1.100   1.100
                                                       1.100   1.100

     atomic species   valence    mass     pseudopotential
        Mo             6.00    95.50000     Mo( 1.00)
        S              6.00    32.06500     S ( 1.00)

     No symmetry found

   Cartesian axes

     site n.     atom                  positions (alat units)
         1           Mo  tau(   1) = (   1.0007829   0.3084066  -0.0078422  )
         2           Mo  tau(   2) = (   0.7300447   0.5484240   3.1245492  )
         3           Mo  tau(   3) = (   0.4992138   0.3072644  -0.0084335  )
         4           Mo  tau(   4) = (   1.2309989   0.5497754   3.1246391  )
         5           Mo  tau(   5) = (   0.4849946   0.7274501   2.0952735  )
         6           Mo  tau(   6) = (   0.7346316   0.2867921   2.0951217  )
         7           Mo  tau(   7) = (   0.9842608   0.7275490   2.0949356  )
         8           Mo  tau(   8) = (   0.2344832   0.2882144   2.0957263  )
         9           Mo  tau(   9) = (   0.7526206   0.7243362   1.0100831  )
        10           Mo  tau(  10) = (   1.0020582   0.2851733   1.0118578  )
        11           Mo  tau(  11) = (   1.2524114   0.7241586   1.0098377  )
        12           Mo  tau(  12) = (   0.5022577   0.2856400   1.0099791  )
        13           S   tau(  13) = (   0.2491331   0.1132874   0.2177172  )
        14           S   tau(  14) = (   1.0001043   0.5600155   0.2785399  )
        15           S   tau(  15) = (   0.7494898   0.1134160   0.2191152  )
        16           S   tau(  16) = (   0.4984855   0.5565262   0.2784717  )
        17           S   tau(  17) = (   0.7344829  -0.0056213   2.3392197  )
        18           S   tau(  18) = (   0.4844628   0.4362075   2.3406845  )
        19           S   tau(  19) = (   0.7346237   0.8744084   2.3416706  )
        20           S   tau(  20) = (   0.9843636   0.4364828   2.3406577  )
        21           S   tau(  21) = (   0.0024703  -0.0080544   1.2557276  )
        22           S   tau(  22) = (   0.7511558   0.4334940   1.2565416  )
        23           S   tau(  23) = (   1.0026804   0.8730714   1.2529255  )
        24           S   tau(  24) = (   1.2534324   0.4331817   1.2567364  )
        25           S   tau(  25) = (   0.2320453   0.3003831   2.8373442  )
        26           S   tau(  26) = (   0.9806983   0.7429779   2.8963094  )
        27           S   tau(  27) = (   0.7306244   0.2962833   2.8373318  )
        28           S   tau(  28) = (   0.4819948   0.7433732   2.8983488  )
        29           S   tau(  29) = (   0.7351507  -0.0070076   1.8493179  )
        30           S   tau(  30) = (   0.4841515   0.4343786   1.8504609  )
        31           S   tau(  31) = (   0.2345383  -0.0015568   1.8512105  )
        32           S   tau(  32) = (   0.9852663   0.4343710   1.8503031  )
        33           S   tau(  33) = (   1.0026476  -0.0081100   0.7663296  )
        34           S   tau(  34) = (   0.7517732   0.4319069   0.7656977  )
        35           S   tau(  35) = (   0.5024699  -0.0063174   0.7643059  )
        36           S   tau(  36) = (   1.2521251   0.4312880   0.7659097  )

     number of k points=     5  Marzari-Vanderbilt smearing, width (Ry)=  0.0200
                       cart. coord. in units 2pi/alat
        k(    1) = (   0.0000000   0.0000000   0.0000000), wk =   0.2222222
        k(    2) = (   0.0000000   0.3789749   0.0135780), wk =   0.4444444
        k(    3) = (   0.3333333  -0.1894383  -0.0048080), wk =   0.4444444
        k(    4) = (   0.3333333   0.1895366   0.0087700), wk =   0.4444444
        k(    5) = (   0.3333333  -0.5684133  -0.0183859), wk =   0.4444444

     Initial potential from superposition of free atoms

     starting charge  215.98107, renormalised to  216.00000
     Starting wfcs are  204 randomized atomic wfcs

     Self-consistent Calculation

     iteration #  1     ecut=    45.00 Ry     beta= 0.70
     Davidson diagonalization with overlap
     ethr =  1.00E-02,  avg # of iterations =  2.0

     total energy              =    -844.00535963 Ry
     Harris-Foulkes estimate   =    -846.69866663 Ry
     estimated scf accuracy    <       7.05673366 Ry

[...]

     iteration #  6     ecut=    45.00 Ry     beta= 0.70
     Davidson diagonalization with overlap
     c_bands:  2 eigenvalues not converged
     c_bands:  1 eigenvalues not converged
     ethr =  2.09E-06,  avg # of iterations = 15.2

[...]

     iteration #  7     ecut=    45.00 Ry     beta= 0.70
     Davidson diagonalization with overlap
     c_bands:  3 eigenvalues not converged
     ethr =  2.09E-06,  avg # of iterations =  9.0

[...]

     total energy              =    -845.37040965 Ry
     Harris-Foulkes estimate   =    -845.37040994 Ry
     estimated scf accuracy    <       0.00000213 Ry

     iteration # 15     ecut=    45.00 Ry     beta= 0.70
     Davidson diagonalization with overlap
     ethr =  9.88E-10,  avg # of iterations =  1.0

     End of self-consistent calculation

          k = 0.0000 0.0000 0.0000 ( 24815 PWs)   bands (ev):

    -7.3664  -7.3244  -7.1683  -6.2479  -6.1541  -6.0577  -5.7113  -5.6995
    -5.6968  -5.6730  -5.6415  -5.6406  -5.6276  -5.6219  -5.4665  -5.4168
    -5.3805  -5.3493  -5.3382  -5.3315  -5.3302  -5.2510  -4.9932  -4.9864
     0.8567   0.8607   0.8988   0.9764   1.0038   1.0310   1.0403   1.0426
     1.0568   1.0597   1.2329   1.5831   1.9461   1.9512   1.9551   1.9636
     1.9803   2.0168   2.2846   2.2879   2.3013   2.4306   2.5870   2.6228
     2.6480   2.6506   2.6751   2.7051   2.9719   3.0102   3.4443   3.4453
     3.4602   3.4619   3.4749   3.6030   3.6211   3.6556   3.7922   3.8118
     3.9240   3.9406   4.0757   4.0898   4.0924   4.3492   4.3887   4.4229
     4.6030   4.7133   4.7677   4.7811   4.8195   4.8562   4.8759   4.9361
     5.0485   5.0625   5.1529   5.1689   5.1746   5.1880   5.4741   5.5630
     5.5790   5.5839   5.5899   5.6891   5.7234   5.8101   5.8479   5.8982
     5.9090   5.9463   5.9910   6.0072   6.0203   6.0352   6.0735   6.2051
     6.6439   6.6805   6.8501   6.9216   7.3515   7.6070   8.5025   8.5125
     8.5657   8.5751   8.5805   8.5821   8.5865   8.5877   8.8683   8.9956
     9.0458   9.0933   9.1066   9.1123   9.1159   9.1185   9.2389   9.2510
     9.2944   9.3172

[...]

          k = 0.3333-0.5684-0.0184 ( 24916 PWs)   bands (ev):

    -6.4275  -6.4106  -6.3935  -6.3833  -6.3782  -6.3553  -6.2374  -6.1583
    -6.1261  -5.9113  -5.8152  -5.7065  -5.7011  -5.6779  -5.6730  -5.6583
    -5.6308  -5.4283  -5.4112  -5.3837  -5.2410  -5.2116  -5.1958  -5.0072
     1.4041   1.4254   1.6186   1.6548   1.6706   1.7236   1.7799   1.8332
     1.8645   1.9128   1.9715   2.1540   2.1893   2.2164   2.2591   2.4503
     2.5794   2.6469   2.6827   2.7296   2.7613   2.7851   2.8301   2.8561
     2.8659   2.8806   2.9095   2.9841   3.0474   3.0789   3.0862   3.0998
     3.1048   3.1163   3.1270   3.1340   3.1616   3.3228   3.3876   3.5020
     3.5183   3.5227   3.5529   3.5899   3.6094   3.6421   3.7021   3.7879
     3.8321   3.9974   4.1466   4.3436   4.4502   4.5473   4.6103   4.6374
     4.6535   4.6606   4.6607   4.6695   4.6863   4.7984   5.0326   5.0649
     5.4582   5.4842   5.5106   5.5573   5.5958   5.6004   5.6223   5.8002
     5.8144   5.8207   5.8324   5.8528   5.8583   5.9858   6.0545   6.0827
     6.1413   6.2183   6.5600   6.5686   7.2456   7.6546   7.9333   8.1189
     8.1336   8.3174   8.3805   8.4185   8.4464   8.5330   8.5511   8.5665
     8.8340   8.8415   8.8653   8.9025   8.9145   8.9225   8.9710   9.0332
     9.0438   9.1800

     the Fermi energy is     6.8563 ev

!    total energy              =    -845.37040919 Ry
     Harris-Foulkes estimate   =    -845.37040975 Ry
     estimated scf accuracy    <       0.00000063 Ry

     The total energy is the sum of the following terms:

     one-electron contribution =     -46.23019039 Ry
     hartree contribution      =     149.02906185 Ry
     xc contribution           =    -334.04068727 Ry
     ewald contribution        =    -614.14227027 Ry
     smearing contrib. (-TS)   =       0.01367689 Ry

     convergence has been achieved in  15 iterations

     Forces acting on atoms (cartesian axes, Ry/au):

     atom    1 type  1   force =    -0.00425253    0.00070670    0.00212910
     atom    2 type  1   force =     0.00368866   -0.00058746   -0.00743112
     atom    3 type  1   force =     0.00226910    0.00153956    0.00423119
     atom    4 type  1   force =    -0.00063251   -0.00168929   -0.00790409
     atom    5 type  1   force =     0.00038733   -0.00017104   -0.00042492
     atom    6 type  1   force =    -0.00012025    0.00176838    0.00057525
     atom    7 type  1   force =    -0.00078339   -0.00002648   -0.00004308
     atom    8 type  1   force =     0.00050029    0.00061530    0.00736129
     atom    9 type  1   force =    -0.00083792    0.00227143   -0.00103666
     atom   10 type  1   force =     0.00062366   -0.00089676   -0.00155057
     atom   11 type  1   force =    -0.00041600    0.00156395   -0.00019596
     atom   12 type  1   force =    -0.00004484   -0.00100664    0.00262437
     atom   13 type  2   force =    -0.00022360    0.00143989   -0.00213962
     atom   14 type  2   force =    -0.00222288   -0.00328802   -0.00015443
     atom   15 type  2   force =     0.00067827    0.00382958   -0.00552021
     atom   16 type  2   force =     0.00225441    0.00033911    0.00059845
     atom   17 type  2   force =     0.00030840    0.00101784    0.00099388
     atom   18 type  2   force =     0.00174430   -0.00296014   -0.00422952
     atom   19 type  2   force =     0.00007260    0.00173521   -0.00513829
     atom   20 type  2   force =    -0.00122649   -0.00307712   -0.00432588
     atom   21 type  2   force =    -0.00017949    0.00030341   -0.00201572
     atom   22 type  2   force =     0.00236623   -0.00192461   -0.00294747
     atom   23 type  2   force =    -0.00015834   -0.00198519    0.00509650
     atom   24 type  2   force =    -0.00298254   -0.00144622   -0.00386572
     atom   25 type  2   force =    -0.00260167   -0.00043728   -0.00011846
     atom   26 type  2   force =    -0.00001451   -0.00299133    0.00678795
     atom   27 type  2   force =     0.00240411    0.00392221    0.00171947
     atom   28 type  2   force =    -0.00058119   -0.00131787    0.00264252
     atom   29 type  2   force =    -0.00086914    0.00445808    0.00293851
     atom   30 type  2   force =     0.00252086    0.00139455    0.00134424
     atom   31 type  2   force =     0.00046482   -0.00681698   -0.00175495
     atom   32 type  2   force =    -0.00313510    0.00162307    0.00144595
     atom   33 type  2   force =    -0.00029681    0.00387105    0.00014030
     atom   34 type  2   force =     0.00356351   -0.00026911    0.00337986
     atom   35 type  2   force =     0.00034699   -0.00228063    0.00399997
     atom   36 type  2   force =    -0.00261436    0.00077286    0.00278787

     Total force =     0.027948     Total SCF correction =     0.002076

     General routines

     Parallel routines

   This run was terminated on:  12:47:36   6Oct2021

   JOB DONE.