     Program PWSCF v.6.4 starts on 24Dec2021 at 20: 2:35

     R & G space division:  proc/nbgrp/npool/nimage =      40
     Waiting for input...
     Reading input from standard input
Warning: card    &IONS ignored
Warning: card      ION_DYNAMICS = 'BFGS' ignored
Warning: card   / ignored
Warning: card    &CELL ignored
Warning: card      CELL_DYNAMICS = 'BFGS', ignored
Warning: card    / ignored

     Current dimensions of program PWSCF are:
     Max number of different atomic species (ntypx) = 10
     Max number of k-points (npk) =  40000
     Max angular momentum in pseudopotentials (lmaxx) =  3

     bravais-lattice index     =            0
     lattice parameter (alat)  =      18.5484  a.u.
     unit-cell volume          =    7600.8362 (a.u.)^3
     number of atoms/cell      =           48
     number of atomic types    =            2
     number of electrons       =       288.00
     number of Kohn-Sham states=          173
     kinetic-energy cutoff     =      45.0000  Ry
     charge density cutoff     =     360.0000  Ry
     convergence threshold     =      1.0E-06
     mixing beta               =       0.7000
     number of iterations used =            8  local-TF  mixing
     Exchange-correlation      = SLA PW GGX GGC ( 1  4  2  2 0 0)

     celldm(1)=  18.548358  celldm(2)=   0.000000  celldm(3)=   0.000000
     celldm(4)=   0.000000  celldm(5)=   0.000000  celldm(6)=   0.000000

     crystal axes: (cart. coord. in units of alat)
               a(1) = (   1.000000   0.000000   0.000000 )
               a(2) = (  -0.017494   1.044919   0.000000 )
               a(3) = (   0.152503   0.127369   1.139888 )

     reciprocal axes: (cart. coord. in units 2 pi/alat)
               b(1) = (  1.000000  0.016742 -0.135658 )
               b(2) = (  0.000000  0.957012 -0.106935 )
               b(3) = (  0.000000  0.000000  0.877279 )

     PseudoPot. # 1 for Mo read from file:
     ~/pseudo/Mo.pw91-n-van.UPF
     MD5 check sum: Not computed, couldn't open file
     Pseudo is Ultrasoft + core correction, Zval =  6.0
     Generated by new atomic code, or converted to UPF format
     Using radial grid of  965 points,  3 beta functions with:
                l(1) =   1
                l(2) =   2
                l(3) =   2
     Q(r) pseudized with  8 coefficients,  rinner =    1.000   1.000   1.000
                                                       1.200   1.200

     PseudoPot. # 2 for S  read from file:
     ~/pseudo/S.pw91-van_ak.UPF
     MD5 check sum: Not computed, couldn't open file
     Pseudo is Ultrasoft, Zval =  6.0
     Generated by new atomic code, or converted to UPF format
     Using radial grid of  811 points,  6 beta functions with:
                l(1) =   0
                l(2) =   0
                l(3) =   1
                l(4) =   1
                l(5) =   2
                l(6) =   2
     Q(r) pseudized with  8 coefficients,  rinner =    1.100   1.100   1.100
                                                       1.100   1.100

     atomic species   valence    mass     pseudopotential
        Mo             6.00    95.50000     Mo( 1.00)
        S              6.00    32.06500     S ( 1.00)

     No symmetry found

   Cartesian axes

     site n.     atom                  positions (alat units)
         1           Mo  tau(   1) = (   0.4092354   0.9818292   0.5961983  )
         2           Mo  tau(   2) = (   0.0993621   0.6840795   0.6691734  )
         3           Mo  tau(   3) = (   0.3482970   1.0603296   1.0955979  )
         4           Mo  tau(   4) = (   0.4283374   0.6916170   0.0091551  )
         5           Mo  tau(   5) = (   0.4300514   0.4467202   0.1823845  )
         6           Mo  tau(   6) = (   0.1753460   0.1437271   0.0920403  )
         7           Mo  tau(   7) = (   0.1294192   0.4418693   0.5061753  )
         8           Mo  tau(   8) = (   0.4398849   0.1688761   0.4161481  )
         9           Mo  tau(   9) = (   0.9349911   0.9786766   0.0917704  )
        10           Mo  tau(  10) = (   0.6432096   0.6661573   0.2226198  )
        11           Mo  tau(  11) = (   0.6487000   0.9204380   0.4524924  )
        12           Mo  tau(  12) = (   0.8875488   0.6541012   0.4885509  )
        13           Mo  tau(  13) = (   0.9267080   0.4570056   0.7278387  )
        14           Mo  tau(  14) = (   0.6435651   0.1235350   0.6403932  )
        15           Mo  tau(  15) = (   0.6394572   0.4807173   0.0037400  )
        16           Mo  tau(  16) = (   0.1530434   0.2039404   0.9931286  )
        17           S   tau(  17) = (   0.1562285   0.9402743   0.6465483  )
        18           S   tau(  18) = (   0.8987289   0.9093298   0.4555559  )
        19           S   tau(  19) = (   0.2917063   0.8224063   0.7560178  )
        20           S   tau(  20) = (   0.3952306   0.6819745   0.2408332  )
        21           S   tau(  21) = (   0.1568906   0.9659973   0.1903353  )
        22           S   tau(  22) = (   0.1380590   0.6733604   0.4406804  )
        23           S   tau(  23) = (   0.4276658   0.9697532   0.3545079  )
        24           S   tau(  24) = (   0.6352529   0.6707485   0.4704857  )
        25           S   tau(  25) = (   0.1859925   0.3856038   0.1487706  )
        26           S   tau(  26) = (   0.9137986   0.4809542   0.9794713  )
        27           S   tau(  27) = (   0.4192871   0.1867111   0.1665016  )
        28           S   tau(  28) = (   0.4098058   0.1606942   0.6709245  )
        29           S   tau(  29) = (   0.1767516   0.4687337   0.7430872  )
        30           S   tau(  30) = (   0.3861862   0.2469889   1.0017081  )
        31           S   tau(  31) = (   0.5669807   0.5825737   1.0734482  )
        32           S   tau(  32) = (   0.8436001   1.1114203   0.7643699  )
        33           S   tau(  33) = (   0.7270481   0.9051815   0.2052008  )
        34           S   tau(  34) = (   0.5953676   1.0543475   1.0930575  )
        35           S   tau(  35) = (   0.8976307   0.6587689   0.2382065  )
        36           S   tau(  36) = (   0.8709364   0.6943516   0.7353697  )
        37           S   tau(  37) = (   0.6190386   0.9247269   0.6997971  )
        38           S   tau(  38) = (   0.8279209   0.8384954   1.1096125  )
        39           S   tau(  39) = (   1.1090120   1.0105944   1.0140661  )
        40           S   tau(  40) = (   0.3464060   0.8123806   1.0936735  )
        41           S   tau(  41) = (   0.6982972   0.3418625   0.7387877  )
        42           S   tau(  42) = (   0.3796137   0.4224406   0.4323269  )
        43           S   tau(  43) = (   1.0113682   0.2140941   0.7832740  )
        44           S   tau(  44) = (   0.9283027   0.1670967   0.0642375  )
        45           S   tau(  45) = (   0.6704198   0.4200995   0.2242077  )
        46           S   tau(  46) = (   0.6873819   0.1280222   0.4111959  )
        47           S   tau(  47) = (   0.8900521   0.4064939   0.4866670  )
        48           S   tau(  48) = (   0.1809418   0.2157096   0.4217518  )

     number of k points=     8  Marzari-Vanderbilt smearing, width (Ry)=  0.0200
                       cart. coord. in units 2pi/alat
        k(    1) = (   0.0000000   0.0000000   0.0000000), wk =   0.2500000
        k(    2) = (   0.0000000   0.0000000  -0.4386395), wk =   0.2500000
        k(    3) = (   0.0000000  -0.4785059   0.0534675), wk =   0.2500000
        k(    4) = (   0.0000000  -0.4785059  -0.3851719), wk =   0.2500000
        k(    5) = (  -0.5000000  -0.0083709   0.0678292), wk =   0.2500000
        k(    6) = (  -0.5000000  -0.0083709  -0.3708103), wk =   0.2500000
        k(    7) = (  -0.5000000  -0.4868768   0.1212968), wk =   0.2500000
        k(    8) = (  -0.5000000  -0.4868768  -0.3173427), wk =   0.2500000

     Initial potential from superposition of free atoms

     starting charge  287.97477, renormalised to  288.00000
     Starting wfcs are  272 randomized atomic wfcs

     Self-consistent Calculation

     iteration #  1     ecut=    45.00 Ry     beta= 0.70
     Davidson diagonalization with overlap
     ethr =  1.00E-02,  avg # of iterations =  2.0

     total energy              =   -1123.84641396 Ry
     Harris-Foulkes estimate   =   -1127.60832478 Ry
     estimated scf accuracy    <      10.05500338 Ry

[...]

     iteration #  6     ecut=    45.00 Ry     beta= 0.70
     Davidson diagonalization with overlap
     c_bands:  1 eigenvalues not converged
     ethr =  1.90E-05,  avg # of iterations = 11.0

[...]

     iteration #  8     ecut=    45.00 Ry     beta= 0.70
     Davidson diagonalization with overlap
     c_bands:  1 eigenvalues not converged
     c_bands:  1 eigenvalues not converged
     ethr =  1.38E-06,  avg # of iterations = 14.1

[...]

     total energy              =   -1125.75818010 Ry
     Harris-Foulkes estimate   =   -1125.75818039 Ry
     estimated scf accuracy    <       0.00000159 Ry

     iteration # 14     ecut=    45.00 Ry     beta= 0.70
     Davidson diagonalization with overlap
     ethr =  5.53E-10,  avg # of iterations =  2.0

     End of self-consistent calculation

          k = 0.0000 0.0000 0.0000 ( 38753 PWs)   bands (ev):

   -10.3813  -9.4514  -8.6122  -8.1688  -8.1070  -8.0707  -7.9775  -7.9670
    -7.8794  -7.8454  -7.7836  -7.7413  -7.7376  -7.6974  -7.6711  -7.6073
    -7.5471  -7.4307  -7.3962  -7.3675  -7.2246  -6.9403  -6.7540  -6.6657
    -6.6435  -6.5748  -6.4362  -6.4018  -6.3516  -6.2443  -5.8136  -5.5744
    -0.6060  -0.5537  -0.4403  -0.3597  -0.2565  -0.2044  -0.1487  -0.0747
     0.0391   0.1011   0.1185   0.2163   0.2582   0.3228   0.3905   0.4147
     0.4429   0.4773   0.5379   0.6271   0.6962   0.7177   0.7523   0.8064
     0.8598   0.9195   0.9614   1.0194   1.0546   1.0832   1.0992   1.1933
     1.2016   1.2454   1.2607   1.2896   1.3285   1.3610   1.4257   1.4721
     1.4884   1.5145   1.5266   1.5619   1.6074   1.6379   1.6545   1.6586
     1.7173   1.7481   1.7637   1.7786   1.7931   1.8624   1.9010   2.0294
     2.0475   2.0617   2.1097   2.1335   2.2008   2.2573   2.3322   2.3672
     2.4123   2.4552   2.4923   2.5229   2.5636   2.6750   2.7112   2.8404
     2.8803   2.9626   2.9903   3.0454   3.1304   3.1895   3.2425   3.3443
     3.4031   3.4171   3.5400   3.5665   3.6745   3.7436   3.8009   3.8814
     3.9095   3.9323   4.0152   4.0842   4.1467   4.2240   4.2580   4.3231
     4.4474   4.4918   4.5815   4.6096   4.6890   4.7428   4.7673   4.8234
     4.9148   5.0097   5.0653   5.1742   5.2367   5.2762   5.3024   5.3772
     5.4144   5.4366   5.6231   5.7129   5.7587   5.8447   5.9069   6.0089
     6.0249   6.0815   6.1818   6.2774   6.4914   6.5397   6.5885   6.6661
     6.7436   6.7688   6.8104   6.9006   6.9654   7.0054   7.0437   7.1295
     7.1525   7.1961   7.2525   7.3056   7.3898

[...]

          k = 0.0000-0.4785-0.3852 ( 38766 PWs)   bands (ev):

[...]

          k =-0.5000-0.0084 0.0678 ( 38742 PWs)   bands (ev):

[...]

          k =-0.5000-0.4869-0.3173 ( 38776 PWs)   bands (ev):

   -10.3789  -9.4490  -8.4310  -8.3049  -8.2605  -8.1352  -7.9841  -7.8869
    -7.8548  -7.8381  -7.8156  -7.7436  -7.7374  -7.6905  -7.6752  -7.6199
    -7.5435  -7.4400  -7.4040  -7.2967  -7.1922  -6.9439  -6.7485  -6.6520
    -6.6302  -6.5619  -6.4455  -6.3995  -6.3445  -6.2480  -5.8158  -5.5726
    -0.6365  -0.5714  -0.3369  -0.2084  -0.1320  -0.0871  -0.0258  -0.0099
     0.0092   0.0603   0.1358   0.1624   0.2219   0.3026   0.3154   0.3724
     0.4034   0.5008   0.5393   0.5479   0.6241   0.6381   0.6580   0.7318
     0.7860   0.8117   0.8760   0.9170   0.9648   0.9817   1.0504   1.1182
     1.1232   1.1952   1.2447   1.2541   1.3285   1.3717   1.3850   1.4430
     1.4746   1.5162   1.5302   1.5594   1.5887   1.6133   1.6219   1.6792
     1.7225   1.7731   1.7994   1.8497   1.8851   1.8958   1.9609   2.0355
     2.0617   2.1229   2.1445   2.1628   2.2399   2.2558   2.3358   2.4026
     2.4314   2.5444   2.5595   2.6133   2.6439   2.6872   2.7638   2.8477
     2.9552   3.0196   3.0966   3.1530   3.1879   3.2384   3.3185   3.3401
     3.4193   3.4429   3.4841   3.5660   3.5860   3.6277   3.8090   3.8339
     3.8703   3.9772   4.0732   4.0859   4.1580   4.2361   4.3292   4.4031
     4.4839   4.5126   4.5266   4.5934   4.6587   4.7833   4.8910   4.9303
     4.9629   4.9874   5.0674   5.1103   5.1495   5.1814   5.2686   5.3552
     5.3819   5.4258   5.5054   5.6268   5.7273   5.7732   5.8439   5.9739
     6.0137   6.0846   6.2418   6.3025   6.4600   6.5230   6.6124   6.6428
     6.6975   6.7368   6.8019   6.8496   6.9296   6.9679   7.0541   7.1111
     7.1904   7.2062   7.2632   7.3022   7.3367

     the Fermi energy is     5.3968 ev

!    total energy              =   -1125.75817998 Ry
     Harris-Foulkes estimate   =   -1125.75818027 Ry
     estimated scf accuracy    <       0.00000044 Ry

     The total energy is the sum of the following terms:

     one-electron contribution =    -187.61020084 Ry
     hartree contribution      =     244.13785335 Ry
     xc contribution           =    -444.32712851 Ry
     ewald contribution        =    -737.95932629 Ry
     smearing contrib. (-TS)   =       0.00062231 Ry

     convergence has been achieved in  14 iterations

     Forces acting on atoms (cartesian axes, Ry/au):

     atom    1 type  1   force =    -0.02179662   -0.02597081   -0.01373006
     atom    2 type  1   force =     0.03867962    0.01344830    0.03465663
     atom    3 type  1   force =     0.01084147   -0.04722257    0.00213865
     atom    4 type  1   force =    -0.03221915    0.02709963   -0.01055821
     atom    5 type  1   force =    -0.03743225   -0.02290716    0.03054682
     atom    6 type  1   force =    -0.03669488    0.02801262    0.03383210
     atom    7 type  1   force =     0.00071996    0.00369791   -0.00389916
     atom    8 type  1   force =    -0.01469859    0.01607718    0.04793608
     atom    9 type  1   force =     0.02017232   -0.02299983    0.04504124
     atom   10 type  1   force =     0.02358319    0.01426443   -0.01082932
     atom   11 type  1   force =     0.04148159   -0.02969667   -0.01682483
     atom   12 type  1   force =     0.04062411    0.03624554   -0.02579516
     atom   13 type  1   force =     0.01457516   -0.02494044   -0.02664297
     atom   14 type  1   force =     0.06059822   -0.00743472    0.02726984
     atom   15 type  1   force =     0.04523211   -0.02952237   -0.11535827
     atom   16 type  1   force =    -0.01694032    0.00421680    0.00253708
     atom   17 type  2   force =    -0.02409134    0.02267691   -0.00608557
     atom   18 type  2   force =    -0.02049332   -0.00001798    0.00320498
     atom   19 type  2   force =     0.02129607   -0.01534986    0.02062871
     atom   20 type  2   force =    -0.00608705    0.01535142    0.00001916
     atom   21 type  2   force =     0.00721655   -0.01088068   -0.00412840
     atom   22 type  2   force =    -0.01263318   -0.00101910   -0.03458278
     atom   23 type  2   force =    -0.02843760   -0.00554228    0.03198867
     atom   24 type  2   force =    -0.01416463   -0.01283960    0.01605685
     atom   25 type  2   force =    -0.00552394   -0.00218776    0.00270753
     atom   26 type  2   force =    -0.02283899    0.02426708    0.03809985
     atom   27 type  2   force =    -0.00152515    0.00887914   -0.01142865
     atom   28 type  2   force =    -0.02794860    0.03310396   -0.01781900
     atom   29 type  2   force =    -0.00217600   -0.01899532   -0.00031882
     atom   30 type  2   force =     0.02203519   -0.00654941   -0.01154080
     atom   31 type  2   force =     0.01273439    0.00354822   -0.00516025
     atom   32 type  2   force =    -0.00923641   -0.01506667   -0.01335588
     atom   33 type  2   force =    -0.00141193    0.02123858   -0.00984104
     atom   34 type  2   force =    -0.01676327    0.00879297   -0.00077528
     atom   35 type  2   force =    -0.01424587    0.00645208   -0.00977447
     atom   36 type  2   force =    -0.02061085    0.01349381   -0.00434137
     atom   37 type  2   force =     0.00651901    0.00793124   -0.01646408
     atom   38 type  2   force =    -0.00633703   -0.02405056    0.00603599
     atom   39 type  2   force =     0.01525830    0.01401663   -0.00998449
     atom   40 type  2   force =    -0.00374992    0.00327737   -0.00234978
     atom   41 type  2   force =    -0.01071070    0.00190095   -0.01301818
     atom   42 type  2   force =     0.01363897   -0.02150791   -0.00184264
     atom   43 type  2   force =    -0.01476590    0.00154455    0.01541013
     atom   44 type  2   force =    -0.00615487    0.02582337    0.00066345
     atom   45 type  2   force =     0.01496026   -0.01157957    0.04077644
     atom   46 type  2   force =     0.01910133    0.03130986   -0.01090744
     atom   47 type  2   force =     0.00489870   -0.00911642    0.00813843
     atom   48 type  2   force =    -0.00447815   -0.02127290   -0.00033172

     Total force =     0.271489     Total SCF correction =     0.001267

     General routines

     Parallel routines

   This run was terminated on:  20: 7: 9  24Dec2021

   JOB DONE.