     Program PWSCF v.6.4 starts on 18Oct2021 at 16: 5:43

     R & G space division:  proc/nbgrp/npool/nimage =      40
     Waiting for input...
     Reading input from standard input
Warning: card    &IONS ignored
Warning: card      ION_DYNAMICS = 'BFGS' ignored
Warning: card   / ignored
Warning: card    &CELL ignored
Warning: card      CELL_DYNAMICS = 'BFGS', ignored
Warning: card    / ignored

     Current dimensions of program PWSCF are:
     Max number of different atomic species (ntypx) = 10
     Max number of k-points (npk) =  40000
     Max angular momentum in pseudopotentials (lmaxx) =  3

     bravais-lattice index     =            0
     lattice parameter (alat)  =      11.8390  a.u.
     unit-cell volume          =    6374.8847 (a.u.)^3
     number of atoms/cell      =           24
     number of atomic types    =            2
     number of electrons       =       144.00
     number of Kohn-Sham states=           86
     kinetic-energy cutoff     =      45.0000  Ry
     charge density cutoff     =     360.0000  Ry
     convergence threshold     =      1.0E-06
     mixing beta               =       0.7000
     number of iterations used =            8  local-TF  mixing
     Exchange-correlation      = SLA PW GGX GGC ( 1  4  2  2 0 0)

     celldm(1)=  11.838974  celldm(2)=   0.000000  celldm(3)=   0.000000
     celldm(4)=   0.000000  celldm(5)=   0.000000  celldm(6)=   0.000000

     crystal axes: (cart. coord. in units of alat)
               a(1) = (   0.999638  -0.026765   0.002696 )
               a(2) = (  -0.285368   0.930733  -0.005285 )
               a(3) = (  -0.027918  -0.265795   4.164570 )

     reciprocal axes: (cart. coord. in units 2 pi/alat)
               b(1) = (  1.008574  0.309385  0.026507 )
               b(2) = (  0.028827  1.083654  0.069355 )
               b(3) = ( -0.000616  0.001175  0.240192 )

     PseudoPot. # 1 for Mo read from file:
     ~/pseudo/Mo.pw91-n-van.UPF
     MD5 check sum: Not computed, couldn't open file
     Pseudo is Ultrasoft + core correction, Zval =  6.0
     Generated by new atomic code, or converted to UPF format
     Using radial grid of  965 points,  3 beta functions with:
                l(1) =   1
                l(2) =   2
                l(3) =   2
     Q(r) pseudized with  8 coefficients,  rinner =    1.000   1.000   1.000
                                                       1.200   1.200

     PseudoPot. # 2 for S  read from file:
     ~/pseudo/S.pw91-van_ak.UPF
     MD5 check sum: Not computed, couldn't open file
     Pseudo is Ultrasoft, Zval =  6.0
     Generated by new atomic code, or converted to UPF format
     Using radial grid of  811 points,  6 beta functions with:
                l(1) =   0
                l(2) =   0
                l(3) =   1
                l(4) =   1
                l(5) =   2
                l(6) =   2
     Q(r) pseudized with  8 coefficients,  rinner =    1.100   1.100   1.100
                                                       1.100   1.100

     atomic species   valence    mass     pseudopotential
        Mo             6.00    95.50000     Mo( 1.00)
        S              6.00    32.06500     S ( 1.00)

     No symmetry found

   Cartesian axes

     site n.     atom                  positions (alat units)
         1           Mo  tau(   1) = (   0.0472113   0.1304042   0.6079576  )
         2           Mo  tau(   2) = (  -0.0236181   0.5972293   0.6055315  )
         3           Mo  tau(   3) = (   0.4788930   0.5854103   0.6042773  )
         4           Mo  tau(   4) = (   0.5469018   0.1209294   0.6071295  )
         5           Mo  tau(   5) = (   0.6343253   0.4994076   3.5774150  )
         6           Mo  tau(   6) = (   0.6937117   0.0272573   3.5548575  )
         7           Mo  tau(   7) = (   0.1957992   0.0161914   3.5571819  )
         8           Mo  tau(   8) = (   0.1963449   0.4831758   3.5619029  )
         9           S   tau(   9) = (   0.4906947   0.8784337   0.3573833  )
        10           S   tau(  10) = (   0.7182914   0.4148516   0.3665724  )
        11           S   tau(  11) = (   0.2164042   0.4324251   0.3598701  )
        12           S   tau(  12) = (  -0.0036153   0.8913978   0.3572342  )
        13           S   tau(  13) = (   0.6763433  -0.2465411   3.8225694  )
        14           S   tau(  14) = (   0.4495002   0.2107564   3.7997797  )
        15           S   tau(  15) = (  -0.0487414   0.2358324   3.7645645  )
        16           S   tau(  16) = (   0.1702062  -0.2311675   3.8386577  )
        17           S   tau(  17) = (   0.4214464   0.6668874   3.3014679  )
        18           S   tau(  18) = (   0.4418464   0.2214518   3.3286801  )
        19           S   tau(  19) = (  -0.0397696   0.1389102   3.2855400  )
        20           S   tau(  20) = (  -0.0772433   0.6229488   3.3336349  )
        21           S   tau(  21) = (   0.4959368   0.8781123   0.8506460  )
        22           S   tau(  22) = (   0.7167394   0.4184671   0.8520357  )
        23           S   tau(  23) = (   0.2176302   0.4288311   0.8452925  )
        24           S   tau(  24) = (   0.2770339  -0.0373106   0.8556741  )

     number of k points=     5  Marzari-Vanderbilt smearing, width (Ry)=  0.0200
                       cart. coord. in units 2pi/alat
        k(    1) = (   0.0000000   0.0000000   0.0000000), wk =   0.2222222
        k(    2) = (   0.0096091   0.3612180   0.0231184), wk =   0.4444444
        k(    3) = (   0.3361914   0.1031283   0.0088356), wk =   0.4444444
        k(    4) = (   0.3458005   0.4643463   0.0319540), wk =   0.4444444
        k(    5) = (   0.3265823  -0.2580898  -0.0142828), wk =   0.4444444

     Initial potential from superposition of free atoms

     starting charge  143.98738, renormalised to  144.00000

     negative rho (up, down):  8.646E-04 0.000E+00
     Starting wfcs are  136 randomized atomic wfcs

     Self-consistent Calculation

     iteration #  1     ecut=    45.00 Ry     beta= 0.70
     Davidson diagonalization with overlap
     ethr =  1.00E-02,  avg # of iterations =  2.8

     negative rho (up, down):  8.856E-05 0.000E+00

     total energy              =    -562.31726219 Ry
     Harris-Foulkes estimate   =    -564.03481186 Ry
     estimated scf accuracy    <       4.43135746 Ry

[...]

     iteration # 15     ecut=    45.00 Ry     beta= 0.70
     Davidson diagonalization with overlap
     c_bands:  2 eigenvalues not converged
     ethr =  2.08E-06,  avg # of iterations = 16.6

[...]

     iteration # 25     ecut=    45.00 Ry     beta= 0.70
     Davidson diagonalization with overlap

     Program PWSCF v.6.4 starts on 18Oct2021 at 16:58:28

     R & G space division:  proc/nbgrp/npool/nimage =      40
     Waiting for input...
     Reading input from standard input
Warning: card    &IONS ignored
Warning: card      ION_DYNAMICS = 'BFGS' ignored
Warning: card   / ignored
Warning: card    &CELL ignored
Warning: card      CELL_DYNAMICS = 'BFGS', ignored
Warning: card    / ignored

     Current dimensions of program PWSCF are:
     Max number of different atomic species (ntypx) = 10
     Max number of k-points (npk) =  40000
     Max angular momentum in pseudopotentials (lmaxx) =  3

     bravais-lattice index     =            0
     lattice parameter (alat)  =      11.8390  a.u.
     unit-cell volume          =    6374.8847 (a.u.)^3
     number of atoms/cell      =           24
     number of atomic types    =            2
     number of electrons       =       144.00
     number of Kohn-Sham states=           86
     kinetic-energy cutoff     =      45.0000  Ry
     charge density cutoff     =     360.0000  Ry
     convergence threshold     =      1.0E-06
     mixing beta               =       0.7000
     number of iterations used =            8  local-TF  mixing
     Exchange-correlation      = SLA PW GGX GGC ( 1  4  2  2 0 0)

     celldm(1)=  11.838974  celldm(2)=   0.000000  celldm(3)=   0.000000
     celldm(4)=   0.000000  celldm(5)=   0.000000  celldm(6)=   0.000000

     crystal axes: (cart. coord. in units of alat)
               a(1) = (   0.999638  -0.026765   0.002696 )
               a(2) = (  -0.285368   0.930733  -0.005285 )
               a(3) = (  -0.027918  -0.265795   4.164570 )

     reciprocal axes: (cart. coord. in units 2 pi/alat)
               b(1) = (  1.008574  0.309385  0.026507 )
               b(2) = (  0.028827  1.083654  0.069355 )
               b(3) = ( -0.000616  0.001175  0.240192 )

     PseudoPot. # 1 for Mo read from file:
     ~/pseudo/Mo.pw91-n-van.UPF
     MD5 check sum: Not computed, couldn't open file
     Pseudo is Ultrasoft + core correction, Zval =  6.0
     Generated by new atomic code, or converted to UPF format
     Using radial grid of  965 points,  3 beta functions with:
                l(1) =   1
                l(2) =   2
                l(3) =   2
     Q(r) pseudized with  8 coefficients,  rinner =    1.000   1.000   1.000
                                                       1.200   1.200

     PseudoPot. # 2 for S  read from file:
     ~/pseudo/S.pw91-van_ak.UPF
     MD5 check sum: Not computed, couldn't open file
     Pseudo is Ultrasoft, Zval =  6.0
     Generated by new atomic code, or converted to UPF format
     Using radial grid of  811 points,  6 beta functions with:
                l(1) =   0
                l(2) =   0
                l(3) =   1
                l(4) =   1
                l(5) =   2
                l(6) =   2
     Q(r) pseudized with  8 coefficients,  rinner =    1.100   1.100   1.100
                                                       1.100   1.100

     atomic species   valence    mass     pseudopotential
        Mo             6.00    95.50000     Mo( 1.00)
        S              6.00    32.06500     S ( 1.00)

     No symmetry found

   Cartesian axes

     site n.     atom                  positions (alat units)
         1           Mo  tau(   1) = (   0.0472113   0.1304042   0.6079576  )
         2           Mo  tau(   2) = (  -0.0236181   0.5972293   0.6055315  )
         3           Mo  tau(   3) = (   0.4788930   0.5854103   0.6042773  )
         4           Mo  tau(   4) = (   0.5469018   0.1209294   0.6071295  )
         5           Mo  tau(   5) = (   0.6343253   0.4994076   3.5774150  )
         6           Mo  tau(   6) = (   0.6937117   0.0272573   3.5548575  )
         7           Mo  tau(   7) = (   0.1957992   0.0161914   3.5571819  )
         8           Mo  tau(   8) = (   0.1963449   0.4831758   3.5619029  )
         9           S   tau(   9) = (   0.4906947   0.8784337   0.3573833  )
        10           S   tau(  10) = (   0.7182914   0.4148516   0.3665724  )
        11           S   tau(  11) = (   0.2164042   0.4324251   0.3598701  )
        12           S   tau(  12) = (  -0.0036153   0.8913978   0.3572342  )
        13           S   tau(  13) = (   0.6763433  -0.2465411   3.8225694  )
        14           S   tau(  14) = (   0.4495002   0.2107564   3.7997797  )
        15           S   tau(  15) = (  -0.0487414   0.2358324   3.7645645  )
        16           S   tau(  16) = (   0.1702062  -0.2311675   3.8386577  )
        17           S   tau(  17) = (   0.4214464   0.6668874   3.3014679  )
        18           S   tau(  18) = (   0.4418464   0.2214518   3.3286801  )
        19           S   tau(  19) = (  -0.0397696   0.1389102   3.2855400  )
        20           S   tau(  20) = (  -0.0772433   0.6229488   3.3336349  )
        21           S   tau(  21) = (   0.4959368   0.8781123   0.8506460  )
        22           S   tau(  22) = (   0.7167394   0.4184671   0.8520357  )
        23           S   tau(  23) = (   0.2176302   0.4288311   0.8452925  )
        24           S   tau(  24) = (   0.2770339  -0.0373106   0.8556741  )

     number of k points=     5  Marzari-Vanderbilt smearing, width (Ry)=  0.0200
                       cart. coord. in units 2pi/alat
        k(    1) = (   0.0000000   0.0000000   0.0000000), wk =   0.2222222
        k(    2) = (   0.0096091   0.3612180   0.0231184), wk =   0.4444444
        k(    3) = (   0.3361914   0.1031283   0.0088356), wk =   0.4444444
        k(    4) = (   0.3458005   0.4643463   0.0319540), wk =   0.4444444
        k(    5) = (   0.3265823  -0.2580898  -0.0142828), wk =   0.4444444

     Initial potential from superposition of free atoms

     starting charge  143.98738, renormalised to  144.00000

     negative rho (up, down):  8.646E-04 0.000E+00
     Starting wfcs are  136 randomized atomic wfcs

     Self-consistent Calculation

[...]

     iteration # 19     ecut=    45.00 Ry     beta= 0.70
     Davidson diagonalization with overlap
     c_bands:  1 eigenvalues not converged
     ethr =  2.03E-06,  avg # of iterations =  4.8

[...]

     total energy              =    -563.20046352 Ry
     Harris-Foulkes estimate   =    -563.20046465 Ry
     estimated scf accuracy    <       0.00002742 Ry

     iteration # 26     ecut=    45.00 Ry     beta= 0.70
     Davidson diagonalization with overlap
     ethr =  4.47E-09,  avg # of iterations =  1.0

[...]

     End of self-consistent calculation

          k = 0.0000 0.0000 0.0000 ( 32549 PWs)   bands (ev):

   -13.9034 -13.5022 -12.6995 -12.3329 -12.2369 -12.1790 -11.9418 -11.9283
   -11.8284 -11.7991 -11.6386 -11.5318 -11.4839 -11.4358 -11.2157 -10.8826
    -5.7771  -5.5063  -5.3714  -5.1892  -5.1861  -4.9107  -4.8595  -4.7344
    -4.5984  -4.4491  -4.3189  -4.2738  -4.0774  -4.0109  -3.9213  -3.7430
    -3.5434  -3.4974  -3.3371  -3.2774  -3.1982  -3.0991  -2.7002  -2.5468
    -2.5189  -2.1887  -2.0866  -1.9660  -1.9306  -1.8910  -1.8764  -1.8592
    -1.6920  -1.5748  -1.4256  -1.3524  -1.1916  -1.1536  -1.1221  -1.0909
    -1.0665  -1.0227  -0.7486  -0.6452  -0.6297  -0.5197  -0.5092  -0.3567
    -0.2388  -0.1640  -0.1259   0.1288   0.3554   0.5159   0.7086   0.7744
     1.5572   1.7387   2.1286   2.2907   2.5405   2.5663   2.6864   2.8778
     2.9258   2.9350   3.0230   3.0801   3.1008   3.1904

[...]

          k = 0.3266-0.2581-0.0143 ( 32483 PWs)   bands (ev):

   -13.4846 -13.0484 -12.6585 -12.4679 -12.3111 -12.1405 -12.0941 -12.0075
   -11.9427 -11.9150 -11.8408 -11.6857 -11.6683 -11.4251 -11.4205 -11.2090
    -5.1566  -4.9432  -4.7661  -4.6850  -4.6199  -4.5961  -4.3758  -4.3208
    -4.3003  -4.2158  -3.9534  -3.9161  -3.8713  -3.6517  -3.5495  -3.4393
    -3.4045  -3.3692  -3.3312  -3.2652  -3.2485  -2.8511  -2.7937  -2.6935
    -2.6676  -2.5000  -2.4716  -2.4554  -2.3037  -2.1778  -2.1459  -2.1213
    -2.0841  -1.9271  -1.7821  -1.7534  -1.6495  -1.5950  -1.5051  -1.4683
    -1.3927  -1.1897  -1.1411  -1.0758  -0.8967  -0.5831  -0.5517  -0.3492
    -0.0977  -0.0706   0.0778   0.1460   0.1982   0.5481   0.6320   0.6802
     1.2663   1.5756   1.7770   1.8293   1.9243   2.1626   2.4531   2.4998
     2.5491   2.5644   2.6935   2.7227   2.7867   2.9151

     the Fermi energy is     0.8528 ev

!    total energy              =    -563.20046922 Ry
     Harris-Foulkes estimate   =    -563.20046449 Ry
     estimated scf accuracy    <       0.00000038 Ry

     The total energy is the sum of the following terms:

     one-electron contribution =   -3730.61335079 Ry
     hartree contribution      =    1916.62363820 Ry
     xc contribution           =    -222.96423967 Ry
     ewald contribution        =    1473.74109712 Ry
     smearing contrib. (-TS)   =       0.01238593 Ry

     convergence has been achieved in  26 iterations

     negative rho (up, down):  1.194E-03 0.000E+00

     Forces acting on atoms (cartesian axes, Ry/au):

     atom    1 type  1   force =     0.01376839    0.00783463   -0.01290992
     atom    2 type  1   force =     0.00451649    0.01252923   -0.00202673
     atom    3 type  1   force =    -0.01797853    0.00318867    0.00405265
     atom    4 type  1   force =     0.01908352   -0.01059176    0.01759965
     atom    5 type  1   force =     0.00386128   -0.01592631    0.01627426
     atom    6 type  1   force =    -0.00973843   -0.00131977   -0.01299443
     atom    7 type  1   force =    -0.00201450    0.02267857   -0.00080937
     atom    8 type  1   force =    -0.03278611    0.02243203    0.02405995
     atom    9 type  2   force =     0.02224940    0.00366607   -0.01649522
     atom   10 type  2   force =    -0.01630762   -0.00779899   -0.01517189
     atom   11 type  2   force =    -0.01422870   -0.01215657   -0.00146865
     atom   12 type  2   force =     0.00400859    0.00309436   -0.01275554
     atom   13 type  2   force =     0.01444232    0.00084197    0.01344526
     atom   14 type  2   force =    -0.00113684   -0.00020977    0.01432654
     atom   15 type  2   force =     0.00616197   -0.01358487    0.02748237
     atom   16 type  2   force =     0.02158754   -0.03556670   -0.01032523
     atom   17 type  2   force =    -0.00729836    0.00591823   -0.00704955
     atom   18 type  2   force =     0.00699402   -0.01144596   -0.01699663
     atom   19 type  2   force =     0.00087684    0.01579299   -0.01111410
     atom   20 type  2   force =    -0.00022223    0.01030277   -0.03766890
     atom   21 type  2   force =     0.00048110    0.01225042    0.01116013
     atom   22 type  2   force =    -0.01939187   -0.00816662    0.00490784
     atom   23 type  2   force =    -0.01623998   -0.00503611    0.01013893
     atom   24 type  2   force =     0.01931169    0.00127349    0.01433860

     Total force =     0.121325     Total SCF correction =     0.001099

     General routines

     Parallel routines

   This run was terminated on:  17: 0:14  18Oct2021

   JOB DONE.