     Program PWSCF v.6.4 starts on  8Sep2021 at 12: 4: 1

     R & G space division:  proc/nbgrp/npool/nimage =      40
     Waiting for input...
     Reading input from standard input
Warning: card    &IONS ignored
Warning: card      ION_DYNAMICS = 'BFGS' ignored
Warning: card   / ignored
Warning: card    &CELL ignored
Warning: card      CELL_DYNAMICS = 'BFGS', ignored
Warning: card    / ignored

     Current dimensions of program PWSCF are:
     Max number of different atomic species (ntypx) = 10
     Max number of k-points (npk) =  40000
     Max angular momentum in pseudopotentials (lmaxx) =  3

     bravais-lattice index     =            0
     lattice parameter (alat)  =       6.1500  a.u.
     unit-cell volume          =    1840.6430 (a.u.)^3
     number of atoms/cell      =           15
     number of atomic types    =            2
     number of electrons       =        90.00
     number of Kohn-Sham states=           54
     kinetic-energy cutoff     =      45.0000  Ry
     charge density cutoff     =     360.0000  Ry
     convergence threshold     =      1.0E-06
     mixing beta               =       0.7000
     number of iterations used =            8  local-TF  mixing
     Exchange-correlation      = SLA PW GGX GGC ( 1  4  2  2 0 0)

     celldm(1)=   6.150009  celldm(2)=   0.000000  celldm(3)=   0.000000
     celldm(4)=   0.000000  celldm(5)=   0.000000  celldm(6)=   0.000000

     crystal axes: (cart. coord. in units of alat)
               a(1) = (   0.999912   0.001311  -0.013199 )
               a(2) = (  -0.278795   2.254251  -0.130405 )
               a(3) = (  -0.066334  -0.974163   3.568812 )

     reciprocal axes: (cart. coord. in units 2 pi/alat)
               b(1) = (  1.000624  0.126831  0.053219 )
               b(2) = (  0.001034  0.450855  0.123087 )
               b(3) = (  0.003738  0.016943  0.284900 )

     PseudoPot. # 1 for Mo read from file:
     ~/pseudo/Mo.pw91-n-van.UPF
     MD5 check sum: Not computed, couldn't open file
     Pseudo is Ultrasoft + core correction, Zval =  6.0
     Generated by new atomic code, or converted to UPF format
     Using radial grid of  965 points,  3 beta functions with:
                l(1) =   1
                l(2) =   2
                l(3) =   2
     Q(r) pseudized with  8 coefficients,  rinner =    1.000   1.000   1.000
                                                       1.200   1.200

     PseudoPot. # 2 for S  read from file:
     ~/pseudo/S.pw91-van_ak.UPF
     MD5 check sum: Not computed, couldn't open file
     Pseudo is Ultrasoft, Zval =  6.0
     Generated by new atomic code, or converted to UPF format
     Using radial grid of  811 points,  6 beta functions with:
                l(1) =   0
                l(2) =   0
                l(3) =   1
                l(4) =   1
                l(5) =   2
                l(6) =   2
     Q(r) pseudized with  8 coefficients,  rinner =    1.100   1.100   1.100
                                                       1.100   1.100

     atomic species   valence    mass     pseudopotential
        Mo             6.00    95.50000     Mo( 1.00)
        S              6.00    32.06500     S ( 1.00)

     No symmetry found

   Cartesian axes

     site n.     atom                  positions (alat units)
         1           Mo  tau(   1) = (   0.8918755   0.1939718   1.4174253  )
         2           Mo  tau(   2) = (   0.5196394   0.1231256   3.2965568  )
         3           Mo  tau(   3) = (  -0.0847483  -0.5141932   2.8783829  )
         4           Mo  tau(   4) = (   0.1660842   2.0112559   0.2995405  )
         5           Mo  tau(   5) = (   0.1996743   1.2123705   1.7200341  )
         6           S   tau(   6) = (   0.1361764   1.8986302   1.1019266  )
         7           S   tau(   7) = (   0.4106113  -0.5934303   3.4250454  )
         8           S   tau(   8) = (   0.3895353   0.4531279   1.9121494  )
         9           S   tau(   9) = (  -0.0054617   0.1986639   2.7508983  )
        10           S   tau(  10) = (   0.9478242   0.2708317   0.6664819  )
        11           S   tau(  11) = (   0.0860489   1.2492049   0.3004181  )
        12           S   tau(  12) = (   0.9638852  -0.5008802   2.0283780  )
        13           S   tau(  13) = (   0.1583869   1.1912832   2.4796942  )
        14           S   tau(  14) = (   0.7004061   0.9523109   1.2205843  )
        15           S   tau(  15) = (   0.6009773   0.8831562   3.3254832  )

     number of k points=    16  Marzari-Vanderbilt smearing, width (Ry)=  0.0200
                       cart. coord. in units 2pi/alat
        k(    1) = (   0.0000000   0.0000000   0.0000000), wk =   0.0666667
        k(    2) = (  -0.0018692  -0.0084717  -0.1424499), wk =   0.0666667
        k(    3) = (   0.0003446   0.1502849   0.0410290), wk =   0.1333333
        k(    4) = (  -0.0015246   0.1418132  -0.1014209), wk =   0.1333333
        k(    5) = (   0.2001248   0.0253663   0.0106439), wk =   0.1333333
        k(    6) = (   0.1982556   0.0168945  -0.1318060), wk =   0.1333333
        k(    7) = (   0.2004694   0.1756511   0.0516729), wk =   0.1333333
        k(    8) = (   0.1986002   0.1671794  -0.0907770), wk =   0.1333333
        k(    9) = (   0.1997802  -0.1249186  -0.0303851), wk =   0.1333333
        k(   10) = (   0.1979110  -0.1333903  -0.1728350), wk =   0.1333333
        k(   11) = (   0.4002497   0.0507325   0.0212877), wk =   0.1333333
        k(   12) = (   0.3983805   0.0422608  -0.1211621), wk =   0.1333333
        k(   13) = (   0.4005943   0.2010174   0.0623168), wk =   0.1333333
        k(   14) = (   0.3987251   0.1925457  -0.0801331), wk =   0.1333333
        k(   15) = (   0.3999051  -0.0995524  -0.0197413), wk =   0.1333333
        k(   16) = (   0.3980359  -0.1080241  -0.1621911), wk =   0.1333333

     Initial potential from superposition of free atoms

     starting charge   89.99211, renormalised to   90.00000
     Starting wfcs are   85 randomized atomic wfcs

     Self-consistent Calculation

     iteration #  1     ecut=    45.00 Ry     beta= 0.70
     Davidson diagonalization with overlap
     ethr =  1.00E-02,  avg # of iterations =  2.0

     total energy              =    -351.12561640 Ry
     Harris-Foulkes estimate   =    -352.47886223 Ry
     estimated scf accuracy    <       3.49105965 Ry

[...]

     total energy              =    -351.85915041 Ry
     Harris-Foulkes estimate   =    -351.85915082 Ry
     estimated scf accuracy    <       0.00000277 Ry

     iteration # 13     ecut=    45.00 Ry     beta= 0.70
     Davidson diagonalization with overlap
     ethr =  2.60E-09,  avg # of iterations =  1.0

     End of self-consistent calculation

          k = 0.0000 0.0000 0.0000 (  9395 PWs)   bands (ev):

    -6.2360  -5.7008  -5.1575  -4.8974  -4.6941  -4.4319  -4.2616  -4.1203
    -3.8603  -3.8128   1.9345   2.3418   2.6190   2.8040   3.2168   3.4321
     3.8418   3.9088   4.3883   4.5849   4.7267   4.9090   5.0489   5.1061
     5.2220   5.3037   5.3820   5.4809   5.8216   6.2031   6.4275   6.5400
     6.6111   6.7041   6.8383   6.9677   7.1774   7.3174   7.5101   7.6804
     7.7962   7.8733   8.0511   8.1267   8.2043   8.7796   9.0290   9.2248
     9.3971   9.5144   9.8933   9.9894  10.2567  10.4808

          k =-0.0019-0.0085-0.1424 (  9412 PWs)   bands (ev):

[...]

          k =-0.0015 0.1418-0.1014 (  9412 PWs)   bands (ev):

[...]

          k = 0.3980-0.1080-0.1622 (  9355 PWs)   bands (ev):

    -4.9294  -4.6649  -4.4852  -4.3208  -4.1592  -4.1040  -3.9726  -3.7277
    -3.6010  -3.5074   2.2444   2.4684   2.6055   2.7789   3.0955   3.2808
     3.3568   3.5495   3.7805   3.8478   3.9225   4.1231   4.2151   4.3246
     4.4469   4.7488   4.8019   4.9363   5.1555   5.2715   5.4134   5.7112
     5.8336   6.0033   6.1389   6.3650   6.4458   6.5963   6.7677   7.1108
     7.4842   7.8561   8.0891   8.6272   8.7563   8.9611   9.4185   9.6036
     9.7364   9.8876  10.0345  10.1908  10.2944  10.4606

     the Fermi energy is     8.7271 ev

!    total energy              =    -351.85914970 Ry
     Harris-Foulkes estimate   =    -351.85915052 Ry
     estimated scf accuracy    <       0.00000088 Ry

     The total energy is the sum of the following terms:

     one-electron contribution =      52.67969649 Ry
     hartree contribution      =      30.93810761 Ry
     xc contribution           =    -139.03835030 Ry
     ewald contribution        =    -296.43811003 Ry
     smearing contrib. (-TS)   =      -0.00049347 Ry

     convergence has been achieved in  13 iterations

     Forces acting on atoms (cartesian axes, Ry/au):

     atom    1 type  1   force =     0.00037421    0.00136470   -0.01044768
     atom    2 type  1   force =    -0.00934777    0.00359270    0.00331269
     atom    3 type  1   force =     0.00363171   -0.02591653   -0.01795953
     atom    4 type  1   force =    -0.00933716   -0.00277341    0.01019240
     atom    5 type  1   force =     0.00551421   -0.00585582    0.01053666
     atom    6 type  2   force =    -0.00451179    0.00664298   -0.01026683
     atom    7 type  2   force =     0.00996814    0.00250847   -0.00823988
     atom    8 type  2   force =    -0.00790100    0.00557841    0.00172779
     atom    9 type  2   force =     0.00102987    0.00958972    0.01013439
     atom   10 type  2   force =     0.00605614   -0.00843677   -0.00491285
     atom   11 type  2   force =     0.01183398    0.00193395    0.00004158
     atom   12 type  2   force =    -0.00073734    0.00458161    0.01073341
     atom   13 type  2   force =     0.00333044    0.01443446    0.00121251
     atom   14 type  2   force =     0.00481740   -0.00287405    0.00137703
     atom   15 type  2   force =    -0.01472104   -0.00437043    0.00255831

     Total force =     0.056117     Total SCF correction =     0.001656

     General routines

     Parallel routines

   This run was terminated on:  12: 4:38   8Sep2021

   JOB DONE.