     Program PWSCF v.6.4.1 starts on  2Aug2021 at  9:56: 6

     R & G space division:  proc/nbgrp/npool/nimage =      20
     Waiting for input...
     Reading input from standard input
Warning: card    &IONS ignored
Warning: card      ION_DYNAMICS = 'BFGS' ignored
Warning: card   / ignored
Warning: card    &CELL ignored
Warning: card      CELL_DYNAMICS = 'BFGS', ignored
Warning: card    / ignored

     Current dimensions of program PWSCF are:
     Max number of different atomic species (ntypx) = 10
     Max number of k-points (npk) =  40000
     Max angular momentum in pseudopotentials (lmaxx) =  3

     Subspace diagonalization in iterative solution of the eigenvalue problem:
     a serial algorithm will be used

     bravais-lattice index     =            0
     lattice parameter (alat)  =      12.6605  a.u.
     unit-cell volume          =    6852.5983 (a.u.)^3
     number of atoms/cell      =           24
     number of atomic types    =            2
     number of electrons       =       144.00
     number of Kohn-Sham states=           86
     kinetic-energy cutoff     =      45.0000  Ry
     charge density cutoff     =     360.0000  Ry
     convergence threshold     =      1.0E-06
     mixing beta               =       0.7000
     number of iterations used =            8  local-TF  mixing
     Exchange-correlation      = SLA PW GGX GGC ( 1  4  2  2 0 0)

     celldm(1)=  12.660525  celldm(2)=   0.000000  celldm(3)=   0.000000
     celldm(4)=   0.000000  celldm(5)=   0.000000  celldm(6)=   0.000000

     crystal axes: (cart. coord. in units of alat)
               a(1) = (   1.000000   0.000000   0.000000 )
               a(2) = (  -0.500000   0.866025   0.000000 )
               a(3) = (   0.000000   0.000000   3.899145 )

     reciprocal axes: (cart. coord. in units 2 pi/alat)
               b(1) = (  1.000000  0.577350 -0.000000 )
               b(2) = (  0.000000  1.154700  0.000000 )
               b(3) = (  0.000000 -0.000000  0.256466 )

     PseudoPot. # 1 for Mo read from file:
     /home/kkety/pseudo/Mo.pw91-n-van.UPF
     MD5 check sum: 875977911cf57e7168990cb144db214a
     Pseudo is Ultrasoft + core correction, Zval =  6.0
     Generated by new atomic code, or converted to UPF format
     Using radial grid of  965 points,  3 beta functions with:
                l(1) =   1
                l(2) =   2
                l(3) =   2
     Q(r) pseudized with  8 coefficients,  rinner =    1.000   1.000   1.000
                                                       1.200   1.200

     PseudoPot. # 2 for S  read from file:
     /home/kkety/pseudo/S.pw91-van_ak.UPF
     MD5 check sum: 708c80e9edb6b1bde406d41998b2c042
     Pseudo is Ultrasoft, Zval =  6.0
     Generated by new atomic code, or converted to UPF format
     Using radial grid of  811 points,  6 beta functions with:
                l(1) =   0
                l(2) =   0
                l(3) =   1
                l(4) =   1
                l(5) =   2
                l(6) =   2
     Q(r) pseudized with  8 coefficients,  rinner =    1.100   1.100   1.100
                                                       1.100   1.100

     atomic species   valence    mass     pseudopotential
        Mo             6.00    95.50000     Mo( 1.00)
        S              6.00    32.06500     S ( 1.00)

     No symmetry found

   Cartesian axes

     site n.     atom                  positions (alat units)
         1           Mo  tau(   1) = (   0.2626124   0.1521505   0.5813399  )
         2           Mo  tau(   2) = (  -0.0128683   0.5843931   0.5857318  )
         3           Mo  tau(   3) = (   0.7352931   0.1428021   0.5850100  )
         4           Mo  tau(   4) = (   0.5010772   0.5676101   0.5942356  )
         5           Mo  tau(   5) = (  -0.0044796   0.3024871   3.3196268  )
         6           Mo  tau(   6) = (  -0.2454613   0.7186430   3.3300579  )
         7           Mo  tau(   7) = (   0.5010640   0.2810505   3.3289560  )
         8           Mo  tau(   8) = (   0.2406891   0.7330914   3.3137055  )
         9           S   tau(   9) = (  -0.0016949   0.2952358   0.8149336  )
        10           S   tau(  10) = (  -0.2352567   0.7240104   0.8280916  )
        11           S   tau(  11) = (   0.5000921   0.2863700   0.8429798  )
        12           S   tau(  12) = (   0.2491064   0.7210041   0.8133494  )
        13           S   tau(  13) = (   0.2415942   0.1414241   3.5734098  )
        14           S   tau(  14) = (   0.0073462   0.5768042   3.5484430  )
        15           S   tau(  15) = (   0.7386007   0.1395616   3.5530563  )
        16           S   tau(  16) = (   0.5085360   0.5652347   3.5596520  )
        17           S   tau(  17) = (   0.0076979   0.2804561   0.3475171  )
        18           S   tau(  18) = (  -0.2359491   0.7169043   0.3392915  )
        19           S   tau(  19) = (   0.5097716   0.2848177   0.3271179  )
        20           S   tau(  20) = (   0.2456073   0.7291371   0.3255547  )
        21           S   tau(  21) = (   0.2583721   0.1519776   3.0806246  )
        22           S   tau(  22) = (   0.0079705   0.5896391   3.0680406  )
        23           S   tau(  23) = (   0.7546466   0.1546586   3.0611822  )
        24           S   tau(  24) = (   0.4915827   0.5881212   3.0769058  )

     number of k points=     5  Marzari-Vanderbilt smearing, width (Ry)=  0.0200
                       cart. coord. in units 2pi/alat
        k(    1) = (   0.0000000   0.0000000   0.0000000), wk =   0.2222222
        k(    2) = (   0.0000000   0.3849002   0.0000000), wk =   0.4444444
        k(    3) = (   0.3333333   0.5773503   0.0000000), wk =   0.4444444
        k(    4) = (  -0.3333333   0.1924500   0.0000000), wk =   0.4444444
        k(    5) = (   0.3333333   0.1924501   0.0000000), wk =   0.4444444

     Initial potential from superposition of free atoms

     starting charge  143.98738, renormalised to  144.00000

     negative rho (up, down):  8.473E-04 0.000E+00
     Starting wfcs are  136 randomized atomic wfcs

     Self-consistent Calculation

     iteration #  1     ecut=    45.00 Ry     beta= 0.70
     Davidson diagonalization with overlap
     ethr =  1.00E-02,  avg # of iterations =  2.0

     negative rho (up, down):  4.378E-04 0.000E+00

     total energy              =    -562.17411464 Ry
     Harris-Foulkes estimate   =    -564.50205366 Ry
     estimated scf accuracy    <       6.23995456 Ry

[...]

     total energy              =    -563.41294087 Ry
     Harris-Foulkes estimate   =    -563.41293900 Ry
     estimated scf accuracy    <       0.00000138 Ry

     iteration # 17     ecut=    45.00 Ry     beta= 0.70
     Davidson diagonalization with overlap
     ethr =  9.60E-10,  avg # of iterations =  1.0

[...]

     End of self-consistent calculation

          k = 0.0000 0.0000 0.0000 ( 35091 PWs)   bands (ev):

   -13.4039 -13.3889 -12.4523 -12.4194 -12.2091 -12.0656 -12.0454 -12.0092
   -11.9754 -11.8763 -11.7949 -11.7593 -11.7075 -11.6383 -11.5689 -11.5663
    -5.1188  -5.1088  -5.0471  -5.0426  -4.9972  -4.9836  -4.8912  -4.8447
    -4.2608  -4.2177  -4.1714  -4.1580  -4.1260  -4.0571  -3.7278  -3.6829
    -3.5662  -3.5534  -3.5353  -3.4682  -2.9333  -2.9124  -2.8939  -2.7656
    -2.7043  -2.6381  -2.3786  -2.3552  -2.3083  -2.2624  -2.0946  -1.8951
    -1.8834  -1.7360  -1.6481  -1.5747  -1.5074  -1.4795  -1.3785  -1.3056
    -1.2451  -1.2127  -1.0694  -1.0387  -1.0194  -0.9510  -0.9035  -0.8527
    -0.6443  -0.5517  -0.4953  -0.4310  -0.4133  -0.3716   0.0262   0.1460
     1.4979   1.5525   1.5593   1.6230   1.6982   1.7529   1.9147   1.9940
     2.0138   2.0670   2.1065   2.1336   2.1576   2.1669

[...]

          k =-0.3333 0.1925 0.0000 ( 34940 PWs)   bands (ev):

[...]

          k = 0.3333 0.1925 0.0000 ( 34940 PWs)   bands (ev):

   -13.1179 -13.1034 -12.4739 -12.4377 -12.2939 -12.2852 -12.0589 -12.0247
   -12.0090 -12.0045 -11.9387 -11.8824 -11.7038 -11.6712 -11.6276 -11.5910
    -4.7172  -4.7028  -4.6690  -4.6294  -4.5722  -4.5493  -4.4705  -4.4500
    -4.2378  -4.1959  -4.1144  -4.1113  -3.7090  -3.6748  -3.6105  -3.5611
    -3.4810  -3.4631  -3.4089  -3.3645  -3.1170  -3.0413  -2.9137  -2.8412
    -2.8306  -2.7874  -2.5951  -2.5018  -2.4709  -2.4255  -2.2171  -2.1679
    -2.1133  -2.0634  -2.0099  -2.0009  -1.8032  -1.7772  -1.7046  -1.6714
    -1.5561  -1.5085  -1.4557  -1.3793  -1.2620  -1.2393  -1.0503  -0.9824
    -0.7746  -0.7586  -0.5945  -0.4657  -0.3310  -0.2572  -0.2010  -0.1545
     1.3825   1.5181   1.5736   1.6655   1.6820   1.7691   1.7812   1.8585
     1.8905   1.9196   1.9662   1.9903   2.0831   2.1583

     the Fermi energy is     0.1696 ev

!    total energy              =    -563.41294018 Ry
     Harris-Foulkes estimate   =    -563.41294092 Ry
     estimated scf accuracy    <       0.00000068 Ry

     The total energy is the sum of the following terms:

     one-electron contribution =   -3254.86301432 Ry
     hartree contribution      =    1676.51313245 Ry
     xc contribution           =    -220.84120446 Ry
     ewald contribution        =    1235.76271402 Ry
     smearing contrib. (-TS)   =       0.01543213 Ry

     convergence has been achieved in  17 iterations

     negative rho (up, down):  1.183E-03 0.000E+00

     Forces acting on atoms (cartesian axes, Ry/au):

     atom    1 type  1   force =    -0.01799095   -0.03487255    0.00377262
     atom    2 type  1   force =     0.08308237   -0.03454465   -0.04314708
     atom    3 type  1   force =     0.05444936    0.01103846   -0.02860038
     atom    4 type  1   force =     0.01629694    0.02748179   -0.06274844
     atom    5 type  1   force =     0.01936047   -0.05722755   -0.04245128
     atom    6 type  1   force =    -0.02060788    0.02771004   -0.06348819
     atom    7 type  1   force =    -0.02276466    0.03856749   -0.06467256
     atom    8 type  1   force =     0.05405861   -0.03051356   -0.02318593
     atom    9 type  2   force =    -0.00461734   -0.01460948   -0.03014186
     atom   10 type  2   force =    -0.04195546    0.01158337   -0.03946565
     atom   11 type  2   force =    -0.00030899    0.00466962   -0.07214566
     atom   12 type  2   force =    -0.00837758   -0.00407722   -0.01611784
     atom   13 type  2   force =     0.00475374    0.00567981   -0.06738219
     atom   14 type  2   force =    -0.00703138    0.01649471    0.00595142
     atom   15 type  2   force =     0.03322424    0.01300583   -0.01233885
     atom   16 type  2   force =    -0.02242252    0.02486986   -0.03646727
     atom   17 type  2   force =    -0.02181003    0.01716381    0.04736897
     atom   18 type  2   force =    -0.04346640    0.01788797    0.05796771
     atom   19 type  2   force =    -0.01670600    0.01595828    0.08692986
     atom   20 type  2   force =     0.00170090   -0.01751449    0.09746476
     atom   21 type  2   force =    -0.01930364   -0.01447611    0.07156226
     atom   22 type  2   force =    -0.02739458   -0.00895753    0.06761068
     atom   23 type  2   force =    -0.01162749    0.00204879    0.08957135
     atom   24 type  2   force =     0.01945827   -0.01736668    0.07415353

     Total force =     0.335494     Total SCF correction =     0.001746

     General routines

     Parallel routines

   This run was terminated on:  10:17: 3   2Aug2021

   JOB DONE.