     Program PWSCF v.6.4.1 starts on  2Aug2021 at 17: 1:34

     R & G space division:  proc/nbgrp/npool/nimage =      20
     Waiting for input...
     Reading input from standard input
Warning: card    &IONS ignored
Warning: card      ION_DYNAMICS = 'BFGS' ignored
Warning: card   / ignored
Warning: card    &CELL ignored
Warning: card      CELL_DYNAMICS = 'BFGS', ignored
Warning: card    / ignored

     Current dimensions of program PWSCF are:
     Max number of different atomic species (ntypx) = 10
     Max number of k-points (npk) =  40000
     Max angular momentum in pseudopotentials (lmaxx) =  3

     Subspace diagonalization in iterative solution of the eigenvalue problem:
     a serial algorithm will be used

     bravais-lattice index     =            0
     lattice parameter (alat)  =      11.4548  a.u.
     unit-cell volume          =    5075.2588 (a.u.)^3
     number of atoms/cell      =           24
     number of atomic types    =            2
     number of electrons       =       144.00
     number of Kohn-Sham states=           86
     kinetic-energy cutoff     =      45.0000  Ry
     charge density cutoff     =     360.0000  Ry
     convergence threshold     =      1.0E-06
     mixing beta               =       0.7000
     number of iterations used =            8  local-TF  mixing
     Exchange-correlation      = SLA PW GGX GGC ( 1  4  2  2 0 0)

     celldm(1)=  11.454761  celldm(2)=   0.000000  celldm(3)=   0.000000
     celldm(4)=   0.000000  celldm(5)=   0.000000  celldm(6)=   0.000000

     crystal axes: (cart. coord. in units of alat)
               a(1) = (   1.000000   0.000000   0.000000 )
               a(2) = (  -0.500000   0.866025   0.000000 )
               a(3) = (   0.000000   0.000000   3.899145 )

     reciprocal axes: (cart. coord. in units 2 pi/alat)
               b(1) = (  1.000000  0.577350 -0.000000 )
               b(2) = (  0.000000  1.154700  0.000000 )
               b(3) = (  0.000000 -0.000000  0.256466 )

     PseudoPot. # 1 for Mo read from file:
     /home/kkety/pseudo/Mo.pw91-n-van.UPF
     MD5 check sum: 875977911cf57e7168990cb144db214a
     Pseudo is Ultrasoft + core correction, Zval =  6.0
     Generated by new atomic code, or converted to UPF format
     Using radial grid of  965 points,  3 beta functions with:
                l(1) =   1
                l(2) =   2
                l(3) =   2
     Q(r) pseudized with  8 coefficients,  rinner =    1.000   1.000   1.000
                                                       1.200   1.200

     PseudoPot. # 2 for S  read from file:
     /home/kkety/pseudo/S.pw91-van_ak.UPF
     MD5 check sum: 708c80e9edb6b1bde406d41998b2c042
     Pseudo is Ultrasoft, Zval =  6.0
     Generated by new atomic code, or converted to UPF format
     Using radial grid of  811 points,  6 beta functions with:
                l(1) =   0
                l(2) =   0
                l(3) =   1
                l(4) =   1
                l(5) =   2
                l(6) =   2
     Q(r) pseudized with  8 coefficients,  rinner =    1.100   1.100   1.100
                                                       1.100   1.100

     atomic species   valence    mass     pseudopotential
        Mo             6.00    95.50000     Mo( 1.00)
        S              6.00    32.06500     S ( 1.00)

     No symmetry found

   Cartesian axes

     site n.     atom                  positions (alat units)
         1           Mo  tau(   1) = (   0.2522940   0.1280796   0.5845842  )
         2           Mo  tau(   2) = (  -0.0052165   0.5618996   0.5854724  )
         3           Mo  tau(   3) = (   0.7436163   0.1466348   0.5679392  )
         4           Mo  tau(   4) = (   0.4927656   0.5662297   0.5731708  )
         5           Mo  tau(   5) = (   0.0089313   0.2833421   3.3289727  )
         6           Mo  tau(   6) = (  -0.2510476   0.7205269   3.3325916  )
         7           Mo  tau(   7) = (   0.4867741   0.2984187   3.3176888  )
         8           Mo  tau(   8) = (   0.2497808   0.7219740   3.3326619  )
         9           S   tau(   9) = (   0.0027920   0.2725093   0.8264944  )
        10           S   tau(  10) = (  -0.2354277   0.7229489   0.8206037  )
        11           S   tau(  11) = (   0.5134636   0.2800204   0.8242358  )
        12           S   tau(  12) = (   0.2656979   0.7226687   0.8232567  )
        13           S   tau(  13) = (   0.2455784   0.1375721   3.5758067  )
        14           S   tau(  14) = (   0.0109381   0.5877447   3.5680938  )
        15           S   tau(  15) = (   0.7382820   0.1426488   3.5729136  )
        16           S   tau(  16) = (   0.4976587   0.5621288   3.5555096  )
        17           S   tau(  17) = (   0.0036329   0.2861851   0.3218222  )
        18           S   tau(  18) = (  -0.2569261   0.7079933   0.3437744  )
        19           S   tau(  19) = (   0.4923881   0.2900793   0.3522895  )
        20           S   tau(  20) = (   0.2619470   0.7129229   0.3304684  )
        21           S   tau(  21) = (   0.2614993   0.1349214   3.0637520  )
        22           S   tau(  22) = (  -0.0056301   0.5925291   3.0740842  )
        23           S   tau(  23) = (   0.7658207   0.1487461   3.0693514  )
        24           S   tau(  24) = (   0.4959794   0.5702923   3.0852713  )

     number of k points=     5  Marzari-Vanderbilt smearing, width (Ry)=  0.0200
                       cart. coord. in units 2pi/alat
        k(    1) = (   0.0000000   0.0000000   0.0000000), wk =   0.2222222
        k(    2) = (   0.0000000   0.3849002   0.0000000), wk =   0.4444444
        k(    3) = (   0.3333333   0.5773503   0.0000000), wk =   0.4444444
        k(    4) = (  -0.3333333   0.1924500   0.0000000), wk =   0.4444444
        k(    5) = (   0.3333333   0.1924501   0.0000000), wk =   0.4444444

     Initial potential from superposition of free atoms

     starting charge  143.98738, renormalised to  144.00000

     negative rho (up, down):  6.527E-04 0.000E+00
     Starting wfcs are  136 randomized atomic wfcs

     Self-consistent Calculation

     iteration #  1     ecut=    45.00 Ry     beta= 0.70
     Davidson diagonalization with overlap
     ethr =  1.00E-02,  avg # of iterations =  2.6

     negative rho (up, down):  3.015E-06 0.000E+00

     total energy              =    -562.50041744 Ry
     Harris-Foulkes estimate   =    -563.51494313 Ry
     estimated scf accuracy    <       2.46665007 Ry

[...]

     total energy              =    -562.93555282 Ry
     Harris-Foulkes estimate   =    -562.93554786 Ry
     estimated scf accuracy    <       0.00000166 Ry

     iteration # 13     ecut=    45.00 Ry     beta= 0.70
     Davidson diagonalization with overlap
     ethr =  1.15E-09,  avg # of iterations =  1.6

[...]

     End of self-consistent calculation

          k = 0.0000 0.0000 0.0000 ( 25883 PWs)   bands (ev):

   -13.1083 -13.0063 -11.3705 -11.3433 -10.9973 -10.8952 -10.7275 -10.6674
   -10.6225 -10.6150 -10.5662 -10.5197 -10.4711 -10.3014 -10.2629 -10.2170
    -4.6715  -4.6238  -4.5998  -4.5551  -4.5413  -4.4938  -4.4685  -4.3335
    -3.6158  -3.5177  -3.3894  -3.3816  -3.3042  -3.2668  -2.7895  -2.7040
    -2.6522  -2.6225  -2.5816  -2.5203  -1.9574  -1.8167  -1.7650  -1.6290
    -1.6152  -1.4687  -1.2998  -1.0924  -1.0575  -1.0314  -0.2458  -0.1567
    -0.0134   0.0321   0.0425   0.1096   0.1465   0.2940   0.3813   0.5070
     0.6278   0.6796   0.9681   0.9908   1.0554   1.1482   1.2043   1.3129
     1.3980   1.4787   1.5014   1.5305   1.6056   1.6731   1.9251   2.2967
     4.4990   4.5182   4.5548   4.6098   4.6335   4.6974   4.9726   4.9989
     5.1667   5.1794   5.2728   5.2896   5.3428   5.3694

[...]

          k =-0.3333 0.1925 0.0000 ( 25877 PWs)   bands (ev):

[...]

          k = 0.3333 0.1925 0.0000 ( 25877 PWs)   bands (ev):

   -12.6419 -12.5355 -11.5539 -11.4111 -11.1824 -11.1566 -10.8362 -10.8309
   -10.7157 -10.6859 -10.6163 -10.5802 -10.5017 -10.3983 -10.3164 -10.2916
    -4.3214  -4.2683  -4.2135  -4.0697  -4.0387  -3.9940  -3.9697  -3.8520
    -3.6955  -3.6601  -3.5536  -3.5344  -2.8345  -2.6913  -2.4196  -2.3531
    -2.2916  -2.2404  -2.1986  -2.1097  -1.9789  -1.8018  -1.7190  -1.6833
    -1.6475  -1.5858  -1.5494  -1.2762  -1.1127  -1.0209  -0.6914  -0.6620
    -0.5763  -0.5423  -0.4474  -0.4172  -0.3033  -0.1174   0.2087   0.2505
     0.3247   0.3701   0.4617   0.5328   0.6583   0.7307   0.8710   0.8923
     1.0705   1.2566   1.3363   1.3768   1.6054   1.6686   1.7932   1.9703
     4.3346   4.4560   4.5078   4.5819   4.6126   4.6826   4.7203   4.7854
     4.8296   4.8555   4.9456   5.0549   5.1460   5.2389

     the Fermi energy is     2.2466 ev

!    total energy              =    -562.93555214 Ry
     Harris-Foulkes estimate   =    -562.93555292 Ry
     estimated scf accuracy    <       0.00000057 Ry

     The total energy is the sum of the following terms:

     one-electron contribution =   -3557.23041389 Ry
     hartree contribution      =    1837.97919245 Ry
     xc contribution           =    -226.53485395 Ry
     ewald contribution        =    1382.83889905 Ry
     smearing contrib. (-TS)   =       0.01162420 Ry

     convergence has been achieved in  13 iterations

     negative rho (up, down):  9.076E-04 0.000E+00

     Forces acting on atoms (cartesian axes, Ry/au):

     atom    1 type  1   force =    -0.04589269    0.11162856   -0.05529714
     atom    2 type  1   force =     0.13675201    0.04395361   -0.05942288
     atom    3 type  1   force =     0.14048292   -0.10345464    0.05019927
     atom    4 type  1   force =     0.08115784    0.09281182    0.18961821
     atom    5 type  1   force =    -0.06406707    0.06919155   -0.06864435
     atom    6 type  1   force =     0.01300377    0.00844147   -0.09144168
     atom    7 type  1   force =     0.11434222   -0.25916874   -0.01015250
     atom    8 type  1   force =     0.01062826    0.07639339   -0.15653936
     atom    9 type  2   force =    -0.02426027    0.00352374    0.14067628
     atom   10 type  2   force =    -0.07606667   -0.08651910    0.22703778
     atom   11 type  2   force =    -0.05179687    0.01265773    0.17500807
     atom   12 type  2   force =    -0.07209452   -0.00105937    0.12754785
     atom   13 type  2   force =     0.02627393    0.02208150    0.16426849
     atom   14 type  2   force =    -0.05863910   -0.07678815    0.20475857
     atom   15 type  2   force =     0.02018716    0.04923535    0.11740320
     atom   16 type  2   force =     0.00476192    0.07553459    0.29975377
     atom   17 type  2   force =     0.00726122   -0.02291527   -0.10263140
     atom   18 type  2   force =     0.04306951    0.00683114   -0.21142105
     atom   19 type  2   force =    -0.03508706   -0.07457090   -0.32670787
     atom   20 type  2   force =    -0.10375607    0.01707330   -0.15649727
     atom   21 type  2   force =    -0.05600437    0.00522046   -0.08799136
     atom   22 type  2   force =     0.02902435   -0.05947564   -0.09005605
     atom   23 type  2   force =    -0.04638010   -0.00632284   -0.06594110
     atom   24 type  2   force =     0.00709969    0.09569644   -0.21352747

     Total force =     0.939256     Total SCF correction =     0.002344

     General routines

     Parallel routines

   This run was terminated on:  17:17: 5   2Aug2021

   JOB DONE.