     Program PWSCF v.6.4 starts on  2Sep2021 at  9:58:16

     R & G space division:  proc/nbgrp/npool/nimage =      40
     Waiting for input...
     Reading input from standard input
Warning: card    &IONS ignored
Warning: card      ION_DYNAMICS = 'BFGS' ignored
Warning: card   / ignored
Warning: card    &CELL ignored
Warning: card      CELL_DYNAMICS = 'BFGS', ignored
Warning: card    / ignored

     Current dimensions of program PWSCF are:
     Max number of different atomic species (ntypx) = 10
     Max number of k-points (npk) =  40000
     Max angular momentum in pseudopotentials (lmaxx) =  3

     bravais-lattice index     =            0
     lattice parameter (alat)  =      12.1839  a.u.
     unit-cell volume          =    5999.1503 (a.u.)^3
     number of atoms/cell      =           36
     number of atomic types    =            2
     number of electrons       =       216.00
     number of Kohn-Sham states=          130
     kinetic-energy cutoff     =      45.0000  Ry
     charge density cutoff     =     360.0000  Ry
     convergence threshold     =      1.0E-06
     mixing beta               =       0.7000
     number of iterations used =            8  local-TF  mixing
     Exchange-correlation      = SLA PW GGX GGC ( 1  4  2  2 0 0)

     celldm(1)=  12.183902  celldm(2)=   0.000000  celldm(3)=   0.000000
     celldm(4)=   0.000000  celldm(5)=   0.000000  celldm(6)=   0.000000

     crystal axes: (cart. coord. in units of alat)
               a(1) = (   1.000000   0.000000   0.000000 )
               a(2) = (  -0.504257   0.869227   0.000000 )
               a(3) = (   0.282196  -0.681151   3.815905 )

     reciprocal axes: (cart. coord. in units 2 pi/alat)
               b(1) = (  1.000000  0.580122  0.029601 )
               b(2) = (  0.000000  1.150448  0.205358 )
               b(3) = (  0.000000  0.000000  0.262061 )

     PseudoPot. # 1 for Mo read from file:
     ~/pseudo/Mo.pw91-n-van.UPF
     MD5 check sum: Not computed, couldn't open file
     Pseudo is Ultrasoft + core correction, Zval =  6.0
     Generated by new atomic code, or converted to UPF format
     Using radial grid of  965 points,  3 beta functions with:
                l(1) =   1
                l(2) =   2
                l(3) =   2
     Q(r) pseudized with  8 coefficients,  rinner =    1.000   1.000   1.000
                                                       1.200   1.200

     PseudoPot. # 2 for S  read from file:
     ~/pseudo/S.pw91-van_ak.UPF
     MD5 check sum: Not computed, couldn't open file
     Pseudo is Ultrasoft, Zval =  6.0
     Generated by new atomic code, or converted to UPF format
     Using radial grid of  811 points,  6 beta functions with:
                l(1) =   0
                l(2) =   0
                l(3) =   1
                l(4) =   1
                l(5) =   2
                l(6) =   2
     Q(r) pseudized with  8 coefficients,  rinner =    1.100   1.100   1.100
                                                       1.100   1.100

     atomic species   valence    mass     pseudopotential
        Mo             6.00    95.50000     Mo( 1.00)
        S              6.00    32.06500     S ( 1.00)

     No symmetry found

   Cartesian axes

     site n.     atom                  positions (alat units)
         1           Mo  tau(   1) = (  -0.0365735   0.2463211   1.4935481  )
         2           Mo  tau(   2) = (   0.4627929   0.2495437   1.4970350  )
         3           Mo  tau(   3) = (   0.7119060  -0.1872726   1.5035995  )
         4           Mo  tau(   4) = (   0.2135493  -0.1858911   1.4981319  )
         5           Mo  tau(   5) = (   0.7917957  -0.1879377   2.5334672  )
         6           Mo  tau(   6) = (   0.2904936  -0.1886204   2.5341747  )
         7           Mo  tau(   7) = (   0.0380680   0.2446079   2.5223212  )
         8           Mo  tau(   8) = (   0.5398455   0.2462501   2.5243252  )
         9           Mo  tau(   9) = (   0.0599820  -0.1168485   3.6089835  )
        10           Mo  tau(  10) = (   0.5594288  -0.1169675   3.6010783  )
        11           Mo  tau(  11) = (   0.8126583  -0.5520539   3.6028653  )
        12           Mo  tau(  12) = (   0.3116973  -0.5500115   3.6006293  )
        13           S   tau(  13) = (   0.0303299   0.4165561   0.0303524  )
        14           S   tau(  14) = (   0.5245600   0.4160132   0.0315580  )
        15           S   tau(  15) = (   0.2773512   0.8517792   0.0290462  )
        16           S   tau(  16) = (  -0.2257906   0.8559244   0.0308976  )
        17           S   tau(  17) = (  -0.0380507   0.5395139   1.2563482  )
        18           S   tau(  18) = (   0.4581841   0.5407226   1.2558483  )
        19           S   tau(  19) = (   0.7110303   0.0982654   1.2542359  )
        20           S   tau(  20) = (   0.2165885   0.1024869   1.2528163  )
        21           S   tau(  21) = (   0.4594015  -0.3388368   1.7435707  )
        22           S   tau(  22) = (   0.9638205  -0.3338436   1.7453254  )
        23           S   tau(  23) = (   0.7137047   0.1059854   1.7442846  )
        24           S   tau(  24) = (   0.2125266   0.1027509   1.7414258  )
        25           S   tau(  25) = (   0.5424946  -0.3292882   2.2869917  )
        26           S   tau(  26) = (   1.0428201  -0.3290600   2.2860407  )
        27           S   tau(  27) = (   0.7895329   0.0946485   2.2809257  )
        28           S   tau(  28) = (   0.2922923   0.0950187   2.2828578  )
        29           S   tau(  29) = (   0.5397568  -0.3399621   2.7732954  )
        30           S   tau(  30) = (   1.0390484  -0.3393451   2.7767909  )
        31           S   tau(  31) = (   0.7870900   0.1049473   2.7728976  )
        32           S   tau(  32) = (   0.2859045   0.1057289   2.7712528  )
        33           S   tau(  33) = (   0.3063804  -0.2593666   3.3577407  )
        34           S   tau(  34) = (   0.8126193  -0.2608040   3.3588291  )
        35           S   tau(  35) = (   0.5567896   0.1730522   3.3561795  )
        36           S   tau(  36) = (   0.0579716   0.1699338   3.3582655  )

     number of k points=     5  Marzari-Vanderbilt smearing, width (Ry)=  0.0200
                       cart. coord. in units 2pi/alat
        k(    1) = (   0.0000000   0.0000000   0.0000000), wk =   0.2222222
        k(    2) = (   0.0000000   0.3834827   0.0684528), wk =   0.4444444
        k(    3) = (   0.3333333   0.1933739   0.0098669), wk =   0.4444444
        k(    4) = (   0.3333333   0.5768566   0.0783198), wk =   0.4444444
        k(    5) = (   0.3333333  -0.1901087  -0.0585859), wk =   0.4444444

     Initial potential from superposition of free atoms

     starting charge  215.98107, renormalised to  216.00000

     negative rho (up, down):  6.364E-07 0.000E+00
     Starting wfcs are  204 randomized atomic wfcs

     Self-consistent Calculation

     iteration #  1     ecut=    45.00 Ry     beta= 0.70
     Davidson diagonalization with overlap
     ethr =  1.00E-02,  avg # of iterations =  2.0

     total energy              =    -844.18915843 Ry
     Harris-Foulkes estimate   =    -846.85335098 Ry
     estimated scf accuracy    <       6.82251734 Ry

[...]

     negative rho (up, down):  5.799E-08 0.000E+00

[...]

     total energy              =    -845.52228707 Ry
     Harris-Foulkes estimate   =    -845.52228789 Ry
     estimated scf accuracy    <       0.00000254 Ry

     iteration # 16     ecut=    45.00 Ry     beta= 0.70
     Davidson diagonalization with overlap
     ethr =  1.18E-09,  avg # of iterations =  3.0

[...]

     End of self-consistent calculation

          k = 0.0000 0.0000 0.0000 ( 30493 PWs)   bands (ev):

    -9.7292  -9.6677  -9.6353  -8.5599  -8.4638  -8.4295  -8.0394  -8.0188
    -8.0118  -7.9890  -7.9657  -7.9578  -7.9487  -7.9427  -7.9294  -7.7537
    -7.7468  -7.7186  -7.6945  -7.6839  -7.6701  -7.6601  -7.6590  -7.6290
    -1.3649  -1.3583  -1.3531  -1.3435  -1.2983  -1.2883  -1.2804  -1.2674
    -1.2652  -1.2533  -1.1422  -1.0010  -0.4543  -0.4376  -0.4269  -0.3492
    -0.3378  -0.3311  -0.3277  -0.3121  -0.2912   0.1646   0.1879   0.2019
     0.3415   0.3463   0.3514   0.3868   0.3945   0.4191   1.1053   1.1270
     1.1633   1.1714   1.1859   1.1894   1.2121   1.2337   1.2503   1.6446
     1.6542   1.6932   1.6949   1.7070   1.7422   2.1517   2.1811   2.2313
     2.2638   2.4688   2.4948   2.5262   2.6094   2.6209   2.6478   2.6615
     2.7230   2.7461   2.7806   2.8099   2.8209   2.8724   3.0825   3.2328
     3.2702   3.2715   3.3044   3.3052   3.3214   3.3351   3.3570   3.3711
     3.5227   3.5511   3.5812   3.6648   3.6755   3.7137   3.7243   3.7336
     3.7612   4.0921   4.3903   4.5907   6.2134   6.2362   6.2421   6.2469
     6.2544   6.2635   6.2842   6.2897   6.3057   6.7068   6.7172   6.7238
     6.7745   6.7808   6.7948   6.8074   6.8123   6.8236   6.8993   6.9251
     6.9335   6.9741

[...]

          k = 0.3333-0.1901-0.0586 ( 30556 PWs)   bands (ev):

    -9.3726  -9.3116  -9.2794  -8.5411  -8.4843  -8.4557  -8.3867  -8.2970
    -8.2599  -8.0538  -8.0403  -8.0099  -7.9882  -7.9675  -7.9546  -7.9458
    -7.9026  -7.8792  -7.7340  -7.7127  -7.6748  -7.6516  -7.6465  -7.6227
    -0.9633  -0.9235  -0.9074  -0.8661  -0.8569  -0.8398  -0.8251  -0.8122
    -0.7736  -0.7529  -0.7381  -0.6191  -0.4921  -0.4698  -0.4358  -0.4197
    -0.4085  -0.3909   0.1255   0.2313   0.2940   0.3436   0.3640   0.3911
     0.4786   0.5328   0.5416   0.5550   0.6112   0.6288   0.9348   0.9628
     1.0011   1.0537   1.0903   1.1633   1.1917   1.2094   1.2419   1.3223
     1.4714   1.4922   1.5267   1.5419   1.6224   1.8997   1.9264   1.9769
     2.0058   2.0238   2.0375   2.0733   2.0896   2.1206   2.2663   2.2770
     2.3216   2.3968   2.4243   2.4792   2.6195   2.6476   2.7298   2.7462
     2.7573   2.8810   2.8946   2.9203   2.9548   2.9792   3.2288   3.2818
     3.3754   3.4007   3.4668   3.7275   3.7437   3.7779   3.7945   3.8015
     3.8340   3.8858   4.0482   4.1281   6.2127   6.2228   6.2703   6.2991
     6.3098   6.3191   6.3272   6.3341   6.3510   6.3698   6.3808   6.4683
     6.4980   6.6145   6.6342   6.6868   6.6966   6.7300   6.7393   6.7699
     6.7910   6.8102

     the Fermi energy is     4.4474 ev

!    total energy              =    -845.52228740 Ry
     Harris-Foulkes estimate   =    -845.52228748 Ry
     estimated scf accuracy    <       0.00000031 Ry

     The total energy is the sum of the following terms:

     one-electron contribution =   -1402.21471340 Ry
     hartree contribution      =     808.24709181 Ry
     xc contribution           =    -333.99987739 Ry
     ewald contribution        =      82.42768925 Ry
     smearing contrib. (-TS)   =       0.01752231 Ry

     convergence has been achieved in  16 iterations

     negative rho (up, down):  1.100E-05 0.000E+00

     Forces acting on atoms (cartesian axes, Ry/au):

     atom    1 type  1   force =    -0.00719671   -0.00127778    0.01814875
     atom    2 type  1   force =     0.00092577   -0.00710462    0.01052717
     atom    3 type  1   force =     0.00419834    0.00078167   -0.00081468
     atom    4 type  1   force =    -0.00052758   -0.00732202    0.00897005
     atom    5 type  1   force =    -0.00520254   -0.00723570   -0.00699855
     atom    6 type  1   force =    -0.00006272   -0.00322720   -0.00937271
     atom    7 type  1   force =     0.00080465    0.00100382    0.01262183
     atom    8 type  1   force =    -0.00685097   -0.00337243    0.01037201
     atom    9 type  1   force =    -0.00633665   -0.00129696   -0.02455343
     atom   10 type  1   force =     0.00107688   -0.00258686   -0.00324450
     atom   11 type  1   force =    -0.00620754   -0.00165580   -0.00822890
     atom   12 type  1   force =    -0.00098255   -0.00999624   -0.00425615
     atom   13 type  2   force =    -0.00172438    0.00560929    0.00703664
     atom   14 type  2   force =     0.00479838    0.00574077    0.00330016
     atom   15 type  2   force =    -0.00130846    0.00462757    0.00264288
     atom   16 type  2   force =     0.00299753    0.00033779    0.00474150
     atom   17 type  2   force =    -0.00423150   -0.00321440   -0.00714375
     atom   18 type  2   force =    -0.00033288   -0.00197981   -0.00070230
     atom   19 type  2   force =     0.00230820    0.00561535    0.00013886
     atom   20 type  2   force =    -0.00475316    0.00011399   -0.00484208
     atom   21 type  2   force =     0.00586207    0.01005515   -0.00859637
     atom   22 type  2   force =     0.00076336    0.00605770   -0.01004778
     atom   23 type  2   force =    -0.00230493   -0.00374157   -0.01417779
     atom   24 type  2   force =     0.00070486    0.00261661   -0.00864580
     atom   25 type  2   force =    -0.00176710   -0.00510294    0.00385490
     atom   26 type  2   force =    -0.00085860   -0.00558577    0.00771747
     atom   27 type  2   force =    -0.00001991    0.00888174    0.00836331
     atom   28 type  2   force =    -0.00463142    0.00787736    0.00490217
     atom   29 type  2   force =     0.00444183    0.00718726    0.00012378
     atom   30 type  2   force =     0.00572492    0.00853278   -0.00647468
     atom   31 type  2   force =     0.00605533   -0.00460932   -0.00749558
     atom   32 type  2   force =     0.00722821   -0.00555453   -0.00357106
     atom   33 type  2   force =     0.00455639   -0.00150520    0.00542157
     atom   34 type  2   force =    -0.00160784   -0.00197794    0.00723662
     atom   35 type  2   force =     0.00321633   -0.00028823    0.00438744
     atom   36 type  2   force =     0.00124440    0.00359649    0.00865900

     Total force =     0.064986     Total SCF correction =     0.001119

     General routines

     Parallel routines

   This run was terminated on:  10: 0:16   2Sep2021

   JOB DONE.