     Program PWSCF v.6.4 starts on 24Dec2021 at 20:58:57

     R & G space division:  proc/nbgrp/npool/nimage =      40
     Waiting for input...
     Reading input from standard input
Warning: card    &IONS ignored
Warning: card      ION_DYNAMICS = 'BFGS' ignored
Warning: card   / ignored
Warning: card    &CELL ignored
Warning: card      CELL_DYNAMICS = 'BFGS', ignored
Warning: card    / ignored

     Current dimensions of program PWSCF are:
     Max number of different atomic species (ntypx) = 10
     Max number of k-points (npk) =  40000
     Max angular momentum in pseudopotentials (lmaxx) =  3

     bravais-lattice index     =            0
     lattice parameter (alat)  =      18.3501  a.u.
     unit-cell volume          =   10221.4441 (a.u.)^3
     number of atoms/cell      =           42
     number of atomic types    =            2
     number of electrons       =       252.00
     number of Kohn-Sham states=          151
     kinetic-energy cutoff     =      45.0000  Ry
     charge density cutoff     =     360.0000  Ry
     convergence threshold     =      1.0E-06
     mixing beta               =       0.7000
     number of iterations used =            8  local-TF  mixing
     Exchange-correlation      = SLA PW GGX GGC ( 1  4  2  2 0 0)

     celldm(1)=  18.350058  celldm(2)=   0.000000  celldm(3)=   0.000000
     celldm(4)=   0.000000  celldm(5)=   0.000000  celldm(6)=   0.000000

     crystal axes: (cart. coord. in units of alat)
               a(1) = (   1.000000   0.000000   0.000000 )
               a(2) = (  -0.006060   1.027764   0.000000 )
               a(3) = (   0.211105   0.274889   1.609557 )

     reciprocal axes: (cart. coord. in units 2 pi/alat)
               b(1) = (  1.000000  0.005897 -0.132164 )
               b(2) = (  0.000000  0.972986 -0.166172 )
               b(3) = (  0.000000  0.000000  0.621289 )

     PseudoPot. # 1 for Mo read from file:
     ~/pseudo/Mo.pw91-n-van.UPF
     MD5 check sum: Not computed, couldn't open file
     Pseudo is Ultrasoft + core correction, Zval =  6.0
     Generated by new atomic code, or converted to UPF format
     Using radial grid of  965 points,  3 beta functions with:
                l(1) =   1
                l(2) =   2
                l(3) =   2
     Q(r) pseudized with  8 coefficients,  rinner =    1.000   1.000   1.000
                                                       1.200   1.200

     PseudoPot. # 2 for S  read from file:
     ~/pseudo/S.pw91-van_ak.UPF
     MD5 check sum: Not computed, couldn't open file
     Pseudo is Ultrasoft, Zval =  6.0
     Generated by new atomic code, or converted to UPF format
     Using radial grid of  811 points,  6 beta functions with:
                l(1) =   0
                l(2) =   0
                l(3) =   1
                l(4) =   1
                l(5) =   2
                l(6) =   2
     Q(r) pseudized with  8 coefficients,  rinner =    1.100   1.100   1.100
                                                       1.100   1.100

     atomic species   valence    mass     pseudopotential
        Mo             6.00    95.50000     Mo( 1.00)
        S              6.00    32.06500     S ( 1.00)

     No symmetry found

   Cartesian axes

     site n.     atom                  positions (alat units)
         1           Mo  tau(   1) = (   0.2950133   0.8623471   1.0500840  )
         2           Mo  tau(   2) = (   0.5509542   0.8242761   1.3385011  )
         3           Mo  tau(   3) = (   0.3151453   1.0259223   1.2767805  )
         4           Mo  tau(   4) = (   0.5031928   1.1001681   1.0679486  )
         5           Mo  tau(   5) = (   0.7362585   0.3145389   1.0490393  )
         6           Mo  tau(   6) = (   0.9870337   0.3830620   1.2147806  )
         7           Mo  tau(   7) = (   0.7828669   0.5856721   1.3215198  )
         8           Mo  tau(   8) = (   1.0572805   0.5751384   1.0136811  )
         9           Mo  tau(   9) = (   0.4754290   0.3105396   0.8931065  )
        10           Mo  tau(  10) = (   0.2540040   0.5613220   0.7809084  )
        11           Mo  tau(  11) = (   0.5801264   0.6125370   1.5264809  )
        12           Mo  tau(  12) = (   0.7830448   0.7949617   1.5110285  )
        13           Mo  tau(  13) = (   0.1097772   0.7983542   0.8192091  )
        14           Mo  tau(  14) = (   0.6822157   1.1448283   0.8504566  )
        15           S   tau(  15) = (   0.3005978   0.7886139   1.2855128  )
        16           S   tau(  16) = (   0.5433004   0.8436920   1.0639413  )
        17           S   tau(  17) = (   0.5073020   0.3095343   1.1346165  )
        18           S   tau(  18) = (   0.1782621   0.2914190   1.3390942  )
        19           S   tau(  19) = (   0.5350733   0.5774221   1.2950703  )
        20           S   tau(  20) = (   0.2897879   0.4850895   1.0095293  )
        21           S   tau(  21) = (   0.2807708   0.6293960   0.5277671  )
        22           S   tau(  22) = (   0.7765944   0.3212924   1.3095680  )
        23           S   tau(  23) = (   0.9932657   0.3219179   0.9859810  )
        24           S   tau(  24) = (   1.0433222   0.8218763   1.0410404  )
        25           S   tau(  25) = (   0.7897731   0.8300973   1.2775390  )
        26           S   tau(  26) = (   0.7747127   0.9879481   0.6936671  )
        27           S   tau(  27) = (   0.7593329   1.1010904   1.0654874  )
        28           S   tau(  28) = (   0.2215609   0.2221712   0.0703055  )
        29           S   tau(  29) = (   0.2451804   1.0959882   1.0661524  )
        30           S   tau(  30) = (   0.3556926   0.3663058   0.6747688  )
        31           S   tau(  31) = (   0.5624911   0.8454211   1.5787415  )
        32           S   tau(  32) = (   0.3475877   0.7842125   0.8165456  )
        33           S   tau(  33) = (   0.4509581   1.1068972   0.8197787  )
        34           S   tau(  34) = (   0.5418641   1.0810971   1.3231457  )
        35           S   tau(  35) = (   0.7431748   0.6399940   0.0210781  )
        36           S   tau(  36) = (   0.7898168   0.5728527   1.0513383  )
        37           S   tau(  37) = (   1.0703545   0.9880352   0.6665612  )
        38           S   tau(  38) = (   1.1248124   1.1178224   1.4058946  )
        39           S   tau(  39) = (   0.6960785   0.3521850   0.8059610  )
        40           S   tau(  40) = (   1.0150346   0.5825741   0.7722254  )
        41           S   tau(  41) = (   0.8063250   0.5639648   1.5592574  )
        42           S   tau(  42) = (   1.0383252   0.6054338   1.2786537  )

     number of k points=     4  Marzari-Vanderbilt smearing, width (Ry)=  0.0200
                       cart. coord. in units 2pi/alat
        k(    1) = (   0.0000000   0.0000000   0.0000000), wk =   0.5000000
        k(    2) = (   0.0000000  -0.4864928   0.0830858), wk =   0.5000000
        k(    3) = (  -0.5000000  -0.0029484   0.0660821), wk =   0.5000000
        k(    4) = (  -0.5000000  -0.4894412   0.1491679), wk =   0.5000000

     Initial potential from superposition of free atoms

     starting charge  251.97792, renormalised to  252.00000

     negative rho (up, down):  3.736E-06 0.000E+00
     Starting wfcs are  238 randomized atomic wfcs

     Self-consistent Calculation

     iteration #  1     ecut=    45.00 Ry     beta= 0.70
     Davidson diagonalization with overlap
     ethr =  1.00E-02,  avg # of iterations =  2.0

     negative rho (up, down):  1.316E-03 0.000E+00

     total energy              =    -983.16070694 Ry
     Harris-Foulkes estimate   =    -986.42704582 Ry
     estimated scf accuracy    <       9.84215248 Ry

[...]

     total energy              =    -984.84064081 Ry
     Harris-Foulkes estimate   =    -984.84064069 Ry
     estimated scf accuracy    <       0.00000127 Ry

     iteration # 16     ecut=    45.00 Ry     beta= 0.70
     Davidson diagonalization with overlap
     ethr =  5.02E-10,  avg # of iterations =  2.8

[...]

     End of self-consistent calculation

          k = 0.0000 0.0000 0.0000 ( 52083 PWs)   bands (ev):

   -13.4557 -12.8295 -12.3774 -12.2956 -12.2143 -12.0741 -12.0059 -11.9398
   -11.8793 -11.8273 -11.8113 -11.7992 -11.7011 -11.6358 -11.6096 -11.5307
   -11.4607 -11.4387 -11.3516 -10.9290 -10.7088 -10.6831 -10.3966  -9.7566
    -9.6812  -9.5329  -9.5041  -9.4821  -4.6740  -4.6392  -4.5505  -4.4510
    -4.1644  -4.0738  -4.0481  -4.0285  -3.9558  -3.8565  -3.8017  -3.7706
    -3.7505  -3.6432  -3.6001  -3.5359  -3.4844  -3.4169  -3.3684  -3.3353
    -3.2887  -3.2520  -3.1948  -3.1442  -3.1185  -3.0789  -3.0335  -2.9512
    -2.9422  -2.8303  -2.7890  -2.7421  -2.7085  -2.6750  -2.5981  -2.5480
    -2.5118  -2.4283  -2.4213  -2.3410  -2.3216  -2.2689  -2.2122  -2.1509
    -2.1177  -2.0793  -2.0267  -2.0124  -1.9413  -1.8447  -1.7766  -1.7595
    -1.7386  -1.6650  -1.5493  -1.5150  -1.4560  -1.3702  -1.3082  -1.2179
    -1.1739  -1.1201  -1.1017  -1.0024  -0.9304  -0.8600  -0.8095  -0.7313
    -0.6214  -0.6113  -0.4848  -0.4039  -0.3335  -0.2920  -0.2648  -0.2130
    -0.1604  -0.0418   0.0216   0.1012   0.1769   0.2000   0.2188   0.2893
     0.3018   0.3735   0.4144   0.4871   0.5628   0.6244   0.7696   0.8297
     0.9687   1.0949   1.1277   1.1807   1.1953   1.3243   1.3736   1.5178
     1.5790   1.6131   1.6918   1.8468   1.9380   2.1033   2.1697   2.2317
     2.3278   2.5250   2.5931   2.6497   2.7167   2.7516   2.8276   2.8486
     2.9415   3.0167   3.0670   3.0860   3.1780   3.2288   3.3580

          k = 0.0000-0.4865 0.0831 ( 52174 PWs)   bands (ev):

[...]

          k =-0.5000-0.0029 0.0661 ( 52094 PWs)   bands (ev):

[...]

          k =-0.5000-0.4894 0.1492 ( 52084 PWs)   bands (ev):

   -13.4496 -12.6657 -12.5077 -12.4379 -12.2171 -12.0449 -12.0143 -11.9010
   -11.8838 -11.8630 -11.8191 -11.7780 -11.7280 -11.6897 -11.6137 -11.5277
   -11.4271 -11.3914 -11.2649 -10.9292 -10.7076 -10.6803 -10.3985  -9.7566
    -9.6790  -9.5328  -9.5047  -9.4824  -4.6251  -4.5531  -4.3746  -4.3621
    -4.2367  -4.1054  -4.0630  -3.9931  -3.9305  -3.8720  -3.8586  -3.7744
    -3.7625  -3.6873  -3.6093  -3.5666  -3.5479  -3.5116  -3.4819  -3.3762
    -3.3362  -3.2792  -3.2538  -3.1972  -3.1856  -3.0901  -3.0615  -3.0149
    -2.9504  -2.8848  -2.8037  -2.7734  -2.7355  -2.6723  -2.6063  -2.5458
    -2.4956  -2.4565  -2.4464  -2.3828  -2.2845  -2.2217  -2.2010  -2.1794
    -2.0608  -2.0006  -1.9664  -1.8882  -1.8855  -1.8562  -1.7663  -1.7356
    -1.6672  -1.6301  -1.5820  -1.5191  -1.4377  -1.3843  -1.2738  -1.2048
    -1.1409  -1.0849  -1.0522  -0.9463  -0.8945  -0.8391  -0.8143  -0.7436
    -0.6088  -0.5828  -0.4865  -0.4145  -0.3403  -0.2874  -0.2306  -0.1401
    -0.0698  -0.0215   0.0361   0.0847   0.1337   0.2028   0.2480   0.2998
     0.3648   0.3849   0.4309   0.4748   0.6054   0.6219   0.7365   0.7626
     0.9362   0.9778   1.0676   1.1664   1.2149   1.3034   1.3441   1.4796
     1.5208   1.6771   1.7569   1.8505   1.8880   2.0501   2.1395   2.2344
     2.4476   2.4596   2.5202   2.5670   2.6551   2.7389   2.7601   2.8193
     2.9202   2.9910   3.0235   3.1121   3.1595   3.2815   3.3431

     the Fermi energy is     1.3549 ev

!    total energy              =    -984.84064066 Ry
     Harris-Foulkes estimate   =    -984.84064091 Ry
     estimated scf accuracy    <       0.00000037 Ry

     The total energy is the sum of the following terms:

     one-electron contribution =   -1874.45825675 Ry
     hartree contribution      =    1031.90044489 Ry
     xc contribution           =    -388.89655718 Ry
     ewald contribution        =     246.61847639 Ry
     smearing contrib. (-TS)   =      -0.00474801 Ry

     convergence has been achieved in  16 iterations

     negative rho (up, down):  2.770E-05 0.000E+00

     Forces acting on atoms (cartesian axes, Ry/au):

     atom    1 type  1   force =    -0.00682769   -0.04503311   -0.02671140
     atom    2 type  1   force =    -0.00786623   -0.00375295   -0.09562397
     atom    3 type  1   force =    -0.03491189    0.03489586    0.10724357
     atom    4 type  1   force =    -0.00648159   -0.02417122    0.00491403
     atom    5 type  1   force =     0.00098788    0.02225018    0.01294456
     atom    6 type  1   force =     0.03069062   -0.04717696    0.04304280
     atom    7 type  1   force =    -0.01696103   -0.01387330   -0.08609667
     atom    8 type  1   force =    -0.00165714   -0.02315797    0.02362041
     atom    9 type  1   force =    -0.03437169    0.03277251   -0.03290549
     atom   10 type  1   force =     0.02752893   -0.03745102   -0.09055882
     atom   11 type  1   force =    -0.15964962   -0.10213895    0.10956919
     atom   12 type  1   force =     0.14838269    0.11577709    0.10533714
     atom   13 type  1   force =    -0.04197168    0.14459557   -0.11222993
     atom   14 type  1   force =     0.05962312   -0.07233618   -0.12002687
     atom   15 type  2   force =    -0.00678295    0.00759932    0.01861574
     atom   16 type  2   force =    -0.00041972    0.00662309    0.01541858
     atom   17 type  2   force =    -0.02138638    0.01685614    0.01158150
     atom   18 type  2   force =    -0.02158727    0.00900879   -0.00633859
     atom   19 type  2   force =    -0.00319865   -0.00482086   -0.01461768
     atom   20 type  2   force =     0.00865029    0.00703419    0.01846647
     atom   21 type  2   force =    -0.00616462   -0.02126516    0.08517326
     atom   22 type  2   force =     0.01638972    0.01842796   -0.00533503
     atom   23 type  2   force =     0.00510864    0.00254077   -0.00389370
     atom   24 type  2   force =    -0.01086949    0.02672228    0.03475706
     atom   25 type  2   force =     0.01724085    0.01426576   -0.02810499
     atom   26 type  2   force =    -0.00710747    0.04787857    0.04061306
     atom   27 type  2   force =     0.03160544   -0.03172519    0.03950104
     atom   28 type  2   force =     0.06631314    0.04957234   -0.06966379
     atom   29 type  2   force =    -0.00341931    0.02653023   -0.04755677
     atom   30 type  2   force =    -0.00140639   -0.00642034    0.02284052
     atom   31 type  2   force =    -0.05473016    0.04695239    0.05036604
     atom   32 type  2   force =     0.02715632    0.02907805   -0.00801436
     atom   33 type  2   force =    -0.02361773   -0.00970540   -0.00861269
     atom   34 type  2   force =     0.00344381   -0.00747783    0.01486019
     atom   35 type  2   force =    -0.06749949   -0.04657390   -0.05038095
     atom   36 type  2   force =     0.01197824   -0.01893850    0.01204048
     atom   37 type  2   force =    -0.00204435   -0.07899518    0.06516225
     atom   38 type  2   force =     0.01786771   -0.02043251   -0.01301004
     atom   39 type  2   force =     0.00439562    0.03253972   -0.01734380
     atom   40 type  2   force =    -0.02441836   -0.00979907   -0.03803581
     atom   41 type  2   force =     0.08073131   -0.05287141    0.05635991
     atom   42 type  2   force =     0.00725655   -0.01380382   -0.01736648

     Total force =     0.541854     Total SCF correction =     0.001353

     General routines

     Parallel routines

   This run was terminated on:  21: 2: 3  24Dec2021

   JOB DONE.