     Program PWSCF v.6.4 starts on  8Sep2021 at 11:59:34

     R & G space division:  proc/nbgrp/npool/nimage =      40
     Waiting for input...
     Reading input from standard input
Warning: card    &IONS ignored
Warning: card      ION_DYNAMICS = 'BFGS' ignored
Warning: card   / ignored
Warning: card    &CELL ignored
Warning: card      CELL_DYNAMICS = 'BFGS', ignored
Warning: card    / ignored

     Current dimensions of program PWSCF are:
     Max number of different atomic species (ntypx) = 10
     Max number of k-points (npk) =  40000
     Max angular momentum in pseudopotentials (lmaxx) =  3

     bravais-lattice index     =            0
     lattice parameter (alat)  =      12.1540  a.u.
     unit-cell volume          =    5166.9489 (a.u.)^3
     number of atoms/cell      =           36
     number of atomic types    =            2
     number of electrons       =       216.00
     number of Kohn-Sham states=          130
     kinetic-energy cutoff     =      45.0000  Ry
     charge density cutoff     =     360.0000  Ry
     convergence threshold     =      1.0E-06
     mixing beta               =       0.7000
     number of iterations used =            8  local-TF  mixing
     Exchange-correlation      = SLA PW GGX GGC ( 1  4  2  2 0 0)

     celldm(1)=  12.154025  celldm(2)=   0.000000  celldm(3)=   0.000000
     celldm(4)=   0.000000  celldm(5)=   0.000000  celldm(6)=   0.000000

     crystal axes: (cart. coord. in units of alat)
               a(1) = (   0.999582  -0.002960   0.028744 )
               a(2) = (  -0.493076   0.894776  -0.023310 )
               a(3) = (  -0.376364  -0.662892   3.218890 )

     reciprocal axes: (cart. coord. in units 2 pi/alat)
               b(1) = (  0.995429  0.554549  0.230592 )
               b(2) = ( -0.003310  1.121783  0.230631 )
               b(3) = ( -0.008913  0.003172  0.310277 )

     PseudoPot. # 1 for Mo read from file:
     ~/pseudo/Mo.pw91-n-van.UPF
     MD5 check sum: Not computed, couldn't open file
     Pseudo is Ultrasoft + core correction, Zval =  6.0
     Generated by new atomic code, or converted to UPF format
     Using radial grid of  965 points,  3 beta functions with:
                l(1) =   1
                l(2) =   2
                l(3) =   2
     Q(r) pseudized with  8 coefficients,  rinner =    1.000   1.000   1.000
                                                       1.200   1.200

     PseudoPot. # 2 for S  read from file:
     ~/pseudo/S.pw91-van_ak.UPF
     MD5 check sum: Not computed, couldn't open file
     Pseudo is Ultrasoft, Zval =  6.0
     Generated by new atomic code, or converted to UPF format
     Using radial grid of  811 points,  6 beta functions with:
                l(1) =   0
                l(2) =   0
                l(3) =   1
                l(4) =   1
                l(5) =   2
                l(6) =   2
     Q(r) pseudized with  8 coefficients,  rinner =    1.100   1.100   1.100
                                                       1.100   1.100

     atomic species   valence    mass     pseudopotential
        Mo             6.00    95.50000     Mo( 1.00)
        S              6.00    32.06500     S ( 1.00)

     No symmetry found

   Cartesian axes

     site n.     atom                  positions (alat units)
         1           Mo  tau(   1) = (   0.1768564  -0.0858608   1.0890368  )
         2           Mo  tau(   2) = (  -0.0660581   0.4591862   1.0542223  )
         3           Mo  tau(   3) = (   0.6819396  -0.0884198   1.1089474  )
         4           Mo  tau(   4) = (   0.4309245   0.4454209   1.0818198  )
         5           Mo  tau(   5) = (  -0.2354093  -0.3427877   2.1179744  )
         6           Mo  tau(   6) = (  -0.4828443   0.2002790   2.1317605  )
         7           Mo  tau(   7) = (   0.2636681  -0.3390021   2.1345354  )
         8           Mo  tau(   8) = (   0.0168070   0.1960324   2.1452403  )
         9           Mo  tau(   9) = (  -0.5136628  -0.6727682   3.2152088  )
        10           Mo  tau(  10) = (  -0.7264613  -0.1998618   3.2188309  )
        11           Mo  tau(  11) = (  -0.0149919  -0.7135086   3.2447244  )
        12           Mo  tau(  12) = (  -0.2978945  -0.2006509   3.2296386  )
        13           S   tau(  13) = (  -0.1370770   0.2862271   0.2563590  )
        14           S   tau(  14) = (  -0.3952685   0.7372302   0.2482138  )
        15           S   tau(  15) = (   0.3599790   0.2851621   0.2252207  )
        16           S   tau(  16) = (   0.1183018   0.7394648   0.2607582  )
        17           S   tau(  17) = (  -0.0695396   0.1134509   0.8570185  )
        18           S   tau(  18) = (  -0.3160464   0.5524454   0.7894631  )
        19           S   tau(  19) = (   0.4314397   0.1079178   0.8833628  )
        20           S   tau(  20) = (   0.1960439   0.5420659   0.8062777  )
        21           S   tau(  21) = (  -0.0795638  -0.1868026   1.3503462  )
        22           S   tau(  22) = (  -0.3123776   0.2555017   1.2790452  )
        23           S   tau(  23) = (   0.4169977  -0.1730868   1.3574899  )
        24           S   tau(  24) = (   0.1680381   0.2576415   1.2928734  )
        25           S   tau(  25) = (   0.0210428  -0.4460832   1.8668138  )
        26           S   tau(  26) = (  -0.2280090  -0.0028939   1.9212753  )
        27           S   tau(  27) = (   0.5216727  -0.4458127   1.8814694  )
        28           S   tau(  28) = (   0.2717016  -0.0060602   1.9358284  )
        29           S   tau(  29) = (   0.0112001  -0.1377459   2.3444625  )
        30           S   tau(  30) = (  -0.2382535   0.3027452   2.3970341  )
        31           S   tau(  31) = (   0.5085950  -0.1394831   2.3586491  )
        32           S   tau(  32) = (   0.2616049   0.3016889   2.4139173  )
        33           S   tau(  33) = (  -0.2470973  -0.5203521   3.0035586  )
        34           S   tau(  34) = (  -0.5048273  -0.0736364   2.9434983  )
        35           S   tau(  35) = (   0.2342890  -0.5220850   3.0185574  )
        36           S   tau(  36) = (  -0.0012428  -0.0819822   2.9994756  )

     number of k points=     5  Marzari-Vanderbilt smearing, width (Ry)=  0.0200
                       cart. coord. in units 2pi/alat
        k(    1) = (   0.0000000   0.0000000   0.0000000), wk =   0.2222222
        k(    2) = (  -0.0011032   0.3739276   0.0768770), wk =   0.4444444
        k(    3) = (   0.3318098   0.1848498   0.0768640), wk =   0.4444444
        k(    4) = (   0.3307066   0.5587774   0.1537410), wk =   0.4444444
        k(    5) = (   0.3329130  -0.1890778  -0.0000130), wk =   0.4444444

     Initial potential from superposition of free atoms

     starting charge  215.98107, renormalised to  216.00000
     Starting wfcs are  204 randomized atomic wfcs

     Self-consistent Calculation

     iteration #  1     ecut=    45.00 Ry     beta= 0.70
     Davidson diagonalization with overlap
     ethr =  1.00E-02,  avg # of iterations =  2.0

     total energy              =    -843.53926701 Ry
     Harris-Foulkes estimate   =    -846.41512671 Ry
     estimated scf accuracy    <       7.73339126 Ry

[...]

     total energy              =    -845.02690629 Ry
     Harris-Foulkes estimate   =    -845.02690647 Ry
     estimated scf accuracy    <       0.00000134 Ry

     iteration # 16     ecut=    45.00 Ry     beta= 0.70
     Davidson diagonalization with overlap
     ethr =  6.23E-10,  avg # of iterations =  2.0

     End of self-consistent calculation

          k = 0.0000 0.0000 0.0000 ( 26331 PWs)   bands (ev):

    -7.9817  -7.8404  -7.8014  -6.9464  -6.8840  -6.8045  -6.6435  -6.6182
    -6.4082  -6.3863  -6.3594  -6.3454  -6.2265  -6.1483  -6.1055  -6.0923
    -6.0212  -6.0154  -6.0122  -5.7152  -5.6814  -5.6707  -5.6455  -5.5244
    -0.0526   0.1514   0.1612   0.2241   0.2510   0.2579   0.2672   0.2755
     0.3071   0.5681   0.8203   0.9596   1.4301   1.5585   1.5872   1.6041
     1.6327   1.6488   1.6638   1.6763   1.6939   1.7825   1.8105   1.9407
     2.0189   2.1710   2.2550   2.3276   2.3699   2.4375   2.4487   2.6011
     2.7840   2.8298   2.8361   2.9029   2.9235   3.0221   3.0399   3.0696
     3.0928   3.1335   3.3416   3.3592   3.4180   3.5784   3.6942   3.7202
     3.7384   3.7795   3.7852   3.8458   3.8693   3.8848   3.9056   4.1169
     4.2549   4.3149   4.3322   4.3606   4.4463   4.4947   4.5750   4.7608
     4.8849   4.9430   5.0171   5.0470   5.1030   5.1661   5.2557   5.2748
     5.3094   5.3433   5.3670   5.5307   5.7160   5.8080   5.8554   5.9397
     5.9869   6.0125   6.0212   6.0373   6.0882   6.2871   6.5208   6.5925
     6.7960   6.8650   7.4850   7.5295   7.7457   7.7811   7.7869   7.7954
     7.8015   8.0055   8.0944   8.2203   8.2555   8.3138   8.5300   8.6012
     8.6358   8.6439

          k =-0.0011 0.3739 0.0769 ( 26289 PWs)   bands (ev):

[...]

          k = 0.3329-0.1891-0.0000 ( 26349 PWs)   bands (ev):

    -7.6129  -7.4659  -7.4251  -6.8881  -6.7745  -6.7326  -6.6816  -6.6423
    -6.6069  -6.5278  -6.4665  -6.4404  -6.3891  -6.2617  -6.2096  -6.1830
    -6.1619  -6.1275  -6.1116  -5.9639  -5.9501  -5.7349  -5.7185  -5.6386
     0.5487   0.7293   0.7601   0.7744   0.7900   0.8077   0.8788   1.0254
     1.1449   1.1796   1.2269   1.2620   1.3232   1.3559   1.4384   1.4586
     1.4836   1.5269   1.5386   1.8764   1.9474   1.9670   2.0126   2.0591
     2.1144   2.2182   2.2246   2.2652   2.4059   2.4349   2.4734   2.5307
     2.5452   2.5726   2.6042   2.6560   2.7590   2.7921   2.8233   2.8582
     3.0966   3.1105   3.1501   3.1763   3.1926   3.3576   3.4124   3.5067
     3.5593   3.5908   3.6435   3.6732   3.7191   3.7498   3.8258   3.8346
     3.8815   4.0739   4.1052   4.1352   4.2393   4.4353   4.4447   4.4474
     4.7463   4.8211   4.8581   4.8962   4.9464   4.9837   5.0069   5.0326
     5.1471   5.1833   5.2218   5.2695   5.3440   5.4265   5.4763   5.5171
     5.5335   5.6274   5.8423   5.8830   6.4518   6.4997   6.5990   6.6453
     7.1834   7.2301   7.2747   7.3067   7.3182   7.3540   7.6439   7.6554
     7.6782   8.2421   8.2682   8.2990   8.3361   8.3696   8.4379   8.4596
     8.5175   8.5788

     the Fermi energy is     6.1067 ev

!    total energy              =    -845.02690577 Ry
     Harris-Foulkes estimate   =    -845.02690643 Ry
     estimated scf accuracy    <       0.00000071 Ry

     The total energy is the sum of the following terms:

     one-electron contribution =    -110.14707135 Ry
     hartree contribution      =     175.53960326 Ry
     xc contribution           =    -333.79074822 Ry
     ewald contribution        =    -576.64408535 Ry
     smearing contrib. (-TS)   =       0.01539589 Ry

     convergence has been achieved in  16 iterations

     Forces acting on atoms (cartesian axes, Ry/au):

     atom    1 type  1   force =    -0.01248441    0.01001555    0.01618787
     atom    2 type  1   force =    -0.01131758   -0.02050643    0.00815932
     atom    3 type  1   force =     0.00158226    0.00559371   -0.00675262
     atom    4 type  1   force =     0.00827497    0.00433838   -0.01198672
     atom    5 type  1   force =    -0.00578029    0.01290047    0.00930998
     atom    6 type  1   force =     0.00543162   -0.00559786    0.00010704
     atom    7 type  1   force =     0.00312903   -0.01449558   -0.00291720
     atom    8 type  1   force =     0.00319363    0.01116617    0.00066388
     atom    9 type  1   force =     0.00112837   -0.00316736   -0.00296944
     atom   10 type  1   force =    -0.00168816    0.00045706   -0.00480857
     atom   11 type  1   force =    -0.00528123   -0.01182455   -0.00138679
     atom   12 type  1   force =     0.01637519    0.00033265   -0.00893336
     atom   13 type  2   force =    -0.00716229   -0.00115694    0.00359084
     atom   14 type  2   force =     0.00285938    0.00294185    0.00282162
     atom   15 type  2   force =    -0.00272730    0.00397010    0.00501830
     atom   16 type  2   force =    -0.00283909   -0.00336062    0.00507992
     atom   17 type  2   force =     0.00284793   -0.00206475    0.01255538
     atom   18 type  2   force =     0.00602305   -0.00511603   -0.00018534
     atom   19 type  2   force =     0.00802527    0.00877343   -0.00983736
     atom   20 type  2   force =    -0.00205014    0.01162407   -0.00607375
     atom   21 type  2   force =     0.00249779    0.00573554    0.00115734
     atom   22 type  2   force =    -0.01295326    0.00212904   -0.01071163
     atom   23 type  2   force =     0.00349436   -0.01464981    0.01323252
     atom   24 type  2   force =     0.00623360   -0.00641076   -0.00674231
     atom   25 type  2   force =     0.00380545   -0.00154341   -0.00174714
     atom   26 type  2   force =     0.00044820   -0.00355032   -0.00390057
     atom   27 type  2   force =    -0.00354521   -0.00478546   -0.00195290
     atom   28 type  2   force =     0.00248296    0.00414541   -0.00439699
     atom   29 type  2   force =    -0.00722662   -0.00345265    0.00345805
     atom   30 type  2   force =    -0.00249989    0.00310257    0.00567380
     atom   31 type  2   force =     0.00426179   -0.00184346    0.00216685
     atom   32 type  2   force =    -0.00468332    0.00215344   -0.00481207
     atom   33 type  2   force =    -0.00612853    0.00886543   -0.00116306
     atom   34 type  2   force =     0.00422881   -0.00032716    0.00199276
     atom   35 type  2   force =     0.00638772    0.00653188   -0.00355342
     atom   36 type  2   force =    -0.00434406   -0.00092361    0.00365577

     Total force =     0.070733     Total SCF correction =     0.002163

     General routines

     Parallel routines

   This run was terminated on:  12: 1: 7   8Sep2021

   JOB DONE.