     Program PWSCF v.6.4 starts on 10Nov2021 at 17:51:53

     R & G space division:  proc/nbgrp/npool/nimage =      40
     Waiting for input...
     Reading input from standard input
Warning: card    &IONS ignored
Warning: card      ION_DYNAMICS = 'BFGS' ignored
Warning: card   / ignored
Warning: card    &CELL ignored
Warning: card      CELL_DYNAMICS = 'BFGS', ignored
Warning: card    / ignored

     Current dimensions of program PWSCF are:
     Max number of different atomic species (ntypx) = 10
     Max number of k-points (npk) =  40000
     Max angular momentum in pseudopotentials (lmaxx) =  3

     bravais-lattice index     =            0
     lattice parameter (alat)  =       6.1216  a.u.
     unit-cell volume          =     893.3238 (a.u.)^3
     number of atoms/cell      =            6
     number of atomic types    =            2
     number of electrons       =        36.00
     number of Kohn-Sham states=           22
     kinetic-energy cutoff     =      45.0000  Ry
     charge density cutoff     =     360.0000  Ry
     convergence threshold     =      1.0E-06
     mixing beta               =       0.7000
     number of iterations used =            8  local-TF  mixing
     Exchange-correlation      = SLA PW GGX GGC ( 1  4  2  2 0 0)

     celldm(1)=   6.121622  celldm(2)=   0.000000  celldm(3)=   0.000000
     celldm(4)=   0.000000  celldm(5)=   0.000000  celldm(6)=   0.000000

     crystal axes: (cart. coord. in units of alat)
               a(1) = (   1.000000   0.000000   0.000000 )
               a(2) = (  -0.496834   0.861638   0.000000 )
               a(3) = (   0.187645  -0.035639   4.519440 )

     reciprocal axes: (cart. coord. in units 2 pi/alat)
               b(1) = (  1.000000  0.576616 -0.036973 )
               b(2) = (  0.000000  1.160580  0.009152 )
               b(3) = (  0.000000  0.000000  0.221266 )

     PseudoPot. # 1 for Mo read from file:
     ~/pseudo/Mo.pw91-n-van.UPF
     MD5 check sum: Not computed, couldn't open file
     Pseudo is Ultrasoft + core correction, Zval =  6.0
     Generated by new atomic code, or converted to UPF format
     Using radial grid of  965 points,  3 beta functions with:
                l(1) =   1
                l(2) =   2
                l(3) =   2
     Q(r) pseudized with  8 coefficients,  rinner =    1.000   1.000   1.000
                                                       1.200   1.200

     PseudoPot. # 2 for S  read from file:
     ~/pseudo/S.pw91-van_ak.UPF
     MD5 check sum: Not computed, couldn't open file
     Pseudo is Ultrasoft, Zval =  6.0
     Generated by new atomic code, or converted to UPF format
     Using radial grid of  811 points,  6 beta functions with:
                l(1) =   0
                l(2) =   0
                l(3) =   1
                l(4) =   1
                l(5) =   2
                l(6) =   2
     Q(r) pseudized with  8 coefficients,  rinner =    1.100   1.100   1.100
                                                       1.100   1.100

     atomic species   valence    mass     pseudopotential
        Mo             6.00    95.50000     Mo( 1.00)
        S              6.00    32.06500     S ( 1.00)

     No symmetry found

   Cartesian axes

     site n.     atom                  positions (alat units)
         1           Mo  tau(   1) = (   0.8356252   0.7866514   3.3972458  )
         2           Mo  tau(   2) = (  -0.1450881   0.0393557   1.1220821  )
         3           S   tau(   3) = (   0.3461949   0.4983751   3.8818103  )
         4           S   tau(   4) = (   0.3437508   0.3281514   0.6376482  )
         5           S   tau(   5) = (   0.3700198   0.3218311   1.6064820  )
         6           S   tau(   6) = (   0.3219559   0.5036808   2.9127709  )

     number of k points=    20  Marzari-Vanderbilt smearing, width (Ry)=  0.0200
                       cart. coord. in units 2pi/alat
        k(    1) = (   0.0000000   0.0000000   0.0000000), wk =   0.0555556
        k(    2) = (   0.0000000   0.1934301   0.0015253), wk =   0.1111111
        k(    3) = (   0.0000000   0.3868602   0.0030507), wk =   0.1111111
        k(    4) = (   0.0000000  -0.5802902  -0.0045760), wk =   0.0555556
        k(    5) = (   0.1666667   0.0961026  -0.0061621), wk =   0.1111111
        k(    6) = (   0.1666667   0.2895327  -0.0046368), wk =   0.1111111
        k(    7) = (   0.1666667   0.4829628  -0.0031114), wk =   0.1111111
        k(    8) = (   0.1666667  -0.4841876  -0.0107381), wk =   0.1111111
        k(    9) = (   0.1666667  -0.2907575  -0.0092127), wk =   0.1111111
        k(   10) = (   0.1666667  -0.0973275  -0.0076874), wk =   0.1111111
        k(   11) = (   0.3333333   0.1922052  -0.0123242), wk =   0.1111111
        k(   12) = (   0.3333333   0.3856353  -0.0107988), wk =   0.1111111
        k(   13) = (   0.3333333   0.5790654  -0.0092735), wk =   0.1111111
        k(   14) = (   0.3333333  -0.3880850  -0.0169002), wk =   0.1111111
        k(   15) = (   0.3333333  -0.1946549  -0.0153748), wk =   0.1111111
        k(   16) = (   0.3333333  -0.0012248  -0.0138495), wk =   0.1111111
        k(   17) = (  -0.5000000  -0.2883079   0.0184863), wk =   0.0555556
        k(   18) = (  -0.5000000  -0.0948778   0.0200116), wk =   0.1111111
        k(   19) = (  -0.5000000   0.0985523   0.0215369), wk =   0.1111111
        k(   20) = (  -0.5000000  -0.8685981   0.0139103), wk =   0.0555556

     Initial potential from superposition of free atoms

     starting charge   35.99685, renormalised to   36.00000
     Starting wfcs are   34 randomized atomic wfcs

     Self-consistent Calculation

     iteration #  1     ecut=    45.00 Ry     beta= 0.70
     Davidson diagonalization with overlap
     ethr =  1.00E-02,  avg # of iterations =  2.0

     total energy              =    -140.69772147 Ry
     Harris-Foulkes estimate   =    -141.14303421 Ry
     estimated scf accuracy    <       1.13787824 Ry

[...]

     total energy              =    -140.92110094 Ry
     Harris-Foulkes estimate   =    -140.92113066 Ry
     estimated scf accuracy    <       0.00014473 Ry

     iteration #  9     ecut=    45.00 Ry     beta= 0.70
     Davidson diagonalization with overlap
     ethr =  4.02E-07,  avg # of iterations =  3.3

     End of self-consistent calculation

          k = 0.0000 0.0000 0.0000 (  4611 PWs)   bands (ev):

    -8.4737  -8.4483  -7.2662  -7.2212  -0.0371   0.1653   2.8340   2.8398
     2.8998   2.9030   3.5800   3.9551   3.9582   4.0193   4.0224   4.2484
     5.3534   5.7645   8.1221   8.1350   8.1715   8.1726

[...]

          k = 0.3333-0.0012-0.0138 (  4574 PWs)   bands (ev):

[...]

          k =-0.5000-0.2883 0.0185 (  4526 PWs)   bands (ev):

[...]

          k =-0.5000-0.8686 0.0139 (  4510 PWs)   bands (ev):

    -6.7709  -6.7555  -6.4852  -6.4679  -0.0986  -0.0655   0.8670   0.8866
     1.4732   1.5933   2.3814   2.3861   3.6506   3.7382   4.5110   4.5232
     4.8549   4.9019   7.4673   7.4721   7.9759   8.0298

     the Fermi energy is     5.6514 ev

!    total energy              =    -140.92112526 Ry
     Harris-Foulkes estimate   =    -140.92112565 Ry
     estimated scf accuracy    <       0.00000057 Ry

     The total energy is the sum of the following terms:

     one-electron contribution =     -34.35277533 Ry
     hartree contribution      =      36.65192985 Ry
     xc contribution           =     -55.67871883 Ry
     ewald contribution        =     -87.54462426 Ry
     smearing contrib. (-TS)   =       0.00306330 Ry

     convergence has been achieved in   9 iterations

     Forces acting on atoms (cartesian axes, Ry/au):

     atom    1 type  1   force =    -0.00236522    0.00372282    0.00050357
     atom    2 type  1   force =     0.00358790   -0.00388387   -0.00057868
     atom    3 type  2   force =    -0.01295137    0.00112667    0.00287782
     atom    4 type  2   force =     0.01350111   -0.00171375   -0.00322648
     atom    5 type  2   force =    -0.01724362    0.00530414    0.00412546
     atom    6 type  2   force =     0.01547119   -0.00455601   -0.00370168

     Total force =     0.032206     Total SCF correction =     0.000627

     General routines

     Parallel routines

   This run was terminated on:  17:52: 3  10Nov2021

   JOB DONE.