     Program PWSCF v.6.4 starts on 24Dec2021 at 22: 6:34

     R & G space division:  proc/nbgrp/npool/nimage =      40
     Waiting for input...
     Reading input from standard input
Warning: card    &IONS ignored
Warning: card      ION_DYNAMICS = 'BFGS' ignored
Warning: card   / ignored
Warning: card    &CELL ignored
Warning: card      CELL_DYNAMICS = 'BFGS', ignored
Warning: card    / ignored

     Current dimensions of program PWSCF are:
     Max number of different atomic species (ntypx) = 10
     Max number of k-points (npk) =  40000
     Max angular momentum in pseudopotentials (lmaxx) =  3

     bravais-lattice index     =            0
     lattice parameter (alat)  =      18.1926  a.u.
     unit-cell volume          =    6414.6569 (a.u.)^3
     number of atoms/cell      =           48
     number of atomic types    =            2
     number of electrons       =       288.00
     number of Kohn-Sham states=          173
     kinetic-energy cutoff     =      45.0000  Ry
     charge density cutoff     =     360.0000  Ry
     convergence threshold     =      1.0E-06
     mixing beta               =       0.7000
     number of iterations used =            8  local-TF  mixing
     Exchange-correlation      = SLA PW GGX GGC ( 1  4  2  2 0 0)

     celldm(1)=  18.192592  celldm(2)=   0.000000  celldm(3)=   0.000000
     celldm(4)=   0.000000  celldm(5)=   0.000000  celldm(6)=   0.000000

     crystal axes: (cart. coord. in units of alat)
               a(1) = (   1.000000   0.000000   0.000000 )
               a(2) = (  -0.009004   0.999670   0.000000 )
               a(3) = (   0.125131   0.124571   1.065695 )

     reciprocal axes: (cart. coord. in units 2 pi/alat)
               b(1) = (  1.000000  0.009007 -0.118470 )
               b(2) = (  0.000000  1.000330 -0.116930 )
               b(3) = (  0.000000  0.000000  0.938355 )

     PseudoPot. # 1 for Mo read from file:
     ~/pseudo/Mo.pw91-n-van.UPF
     MD5 check sum: Not computed, couldn't open file
     Pseudo is Ultrasoft + core correction, Zval =  6.0
     Generated by new atomic code, or converted to UPF format
     Using radial grid of  965 points,  3 beta functions with:
                l(1) =   1
                l(2) =   2
                l(3) =   2
     Q(r) pseudized with  8 coefficients,  rinner =    1.000   1.000   1.000
                                                       1.200   1.200

     PseudoPot. # 2 for S  read from file:
     ~/pseudo/S.pw91-van_ak.UPF
     MD5 check sum: Not computed, couldn't open file
     Pseudo is Ultrasoft, Zval =  6.0
     Generated by new atomic code, or converted to UPF format
     Using radial grid of  811 points,  6 beta functions with:
                l(1) =   0
                l(2) =   0
                l(3) =   1
                l(4) =   1
                l(5) =   2
                l(6) =   2
     Q(r) pseudized with  8 coefficients,  rinner =    1.100   1.100   1.100
                                                       1.100   1.100

     atomic species   valence    mass     pseudopotential
        Mo             6.00    95.50000     Mo( 1.00)
        S              6.00    32.06500     S ( 1.00)

     No symmetry found

   Cartesian axes

     site n.     atom                  positions (alat units)
         1           Mo  tau(   1) = (   0.4536857   0.1704563   0.4333800  )
         2           Mo  tau(   2) = (   0.1603285   0.4616067   0.4386077  )
         3           Mo  tau(   3) = (   0.1957099   0.2010197   0.2081592  )
         4           Mo  tau(   4) = (   0.4048119   0.4193779   0.1157297  )
         5           Mo  tau(   5) = (   0.4583327   0.7021743   0.9372629  )
         6           Mo  tau(   6) = (   0.1494070   0.9261093   0.8624215  )
         7           Mo  tau(   7) = (   0.1641073   0.6811317   0.6509339  )
         8           Mo  tau(   8) = (   0.4444070   0.9645018   0.6422803  )
         9           Mo  tau(   9) = (   0.9166777   0.1531068   0.8612812  )
        10           Mo  tau(  10) = (   0.6929826   0.4829611   0.9338216  )
        11           Mo  tau(  11) = (   0.6677635   0.1768169   0.6475888  )
        12           Mo  tau(  12) = (   0.9524620   0.4649023   0.6462804  )
        13           Mo  tau(  13) = (   0.9532003   0.6819207   0.4354062  )
        14           Mo  tau(  14) = (   0.6623225   0.9697287   0.4278461  )
        15           Mo  tau(  15) = (   0.7120603   0.7271416   0.1553474  )
        16           Mo  tau(  16) = (   0.9391442   0.9623754   0.2007348  )
        17           S   tau(  17) = (   0.1952759   0.2047241   0.4428086  )
        18           S   tau(  18) = (   0.9246748   0.2017637   0.6314706  )
        19           S   tau(  19) = (   0.4211706   0.4338298   0.3877047  )
        20           S   tau(  20) = (   0.4417039   0.4563575   0.9611719  )
        21           S   tau(  21) = (   0.1493769   0.1574385   0.9453291  )
        22           S   tau(  22) = (   0.2005281   0.4338136   0.6907796  )
        23           S   tau(  23) = (   0.4259669   0.2111982   0.6852283  )
        24           S   tau(  24) = (   0.6952206   0.4325498   0.6813080  )
        25           S   tau(  25) = (   0.1961402   0.6861553   0.9153374  )
        26           S   tau(  26) = (   0.9469574   0.7094341   0.1780624  )
        27           S   tau(  27) = (   0.3985363   0.9505532   0.9009271  )
        28           S   tau(  28) = (   0.4213848   0.9246741   0.4002273  )
        29           S   tau(  29) = (   0.2041125   0.7054819   0.4053239  )
        30           S   tau(  30) = (   0.1831254   0.9614660   0.1542838  )
        31           S   tau(  31) = (   0.4381431   0.6742150   0.0907818  )
        32           S   tau(  32) = (   0.6904239   0.9678294   0.1670935  )
        33           S   tau(  33) = (   0.6776521   0.2098314   0.9104996  )
        34           S   tau(  34) = (   0.4457355   0.1770358   0.1749370  )
        35           S   tau(  35) = (   0.9327787   0.4105785   0.9032826  )
        36           S   tau(  36) = (   0.9145407   0.4417887   0.4020955  )
        37           S   tau(  37) = (   0.6934626   0.2214606   0.3972630  )
        38           S   tau(  38) = (   0.6555351   0.4639531   0.0879203  )
        39           S   tau(  39) = (   0.9517533   0.2057154   0.1601243  )
        40           S   tau(  40) = (   0.1666920   0.4553922   0.1825076  )
        41           S   tau(  41) = (   0.6955546   0.7103175   0.3987682  )
        42           S   tau(  42) = (   0.4181558   0.7088195   0.6799762  )
        43           S   tau(  43) = (   0.9233831   0.9403852   0.4351688  )
        44           S   tau(  44) = (   0.9103285   0.9192116   0.9539412  )
        45           S   tau(  45) = (   0.6933934   0.7202286   0.8746545  )
        46           S   tau(  46) = (   0.6968453   0.9301002   0.6765649  )
        47           S   tau(  47) = (   0.9199539   0.7106565   0.6853687  )
        48           S   tau(  48) = (   0.1887522   0.9356620   0.6346280  )

     number of k points=     8  Marzari-Vanderbilt smearing, width (Ry)=  0.0200
                       cart. coord. in units 2pi/alat
        k(    1) = (   0.0000000   0.0000000   0.0000000), wk =   0.2500000
        k(    2) = (   0.0000000   0.0000000  -0.4691775), wk =   0.2500000
        k(    3) = (   0.0000000  -0.5001649   0.0584651), wk =   0.2500000
        k(    4) = (   0.0000000  -0.5001649  -0.4107123), wk =   0.2500000
        k(    5) = (  -0.5000000  -0.0045037   0.0592351), wk =   0.2500000
        k(    6) = (  -0.5000000  -0.0045037  -0.4099424), wk =   0.2500000
        k(    7) = (  -0.5000000  -0.5046685   0.1177002), wk =   0.2500000
        k(    8) = (  -0.5000000  -0.5046685  -0.3514773), wk =   0.2500000

     Initial potential from superposition of free atoms

     starting charge  287.97477, renormalised to  288.00000
     Starting wfcs are  272 randomized atomic wfcs

     Self-consistent Calculation

     iteration #  1     ecut=    45.00 Ry     beta= 0.70
     Davidson diagonalization with overlap
     ethr =  1.00E-02,  avg # of iterations =  2.1

     total energy              =   -1123.77068316 Ry
     Harris-Foulkes estimate   =   -1128.12832879 Ry
     estimated scf accuracy    <      12.03940655 Ry

[...]

     iteration #  9     ecut=    45.00 Ry     beta= 0.70
     Davidson diagonalization with overlap
     c_bands:  1 eigenvalues not converged
     c_bands:  1 eigenvalues not converged
     c_bands:  1 eigenvalues not converged
     ethr =  1.68E-06,  avg # of iterations = 16.5

[...]

     total energy              =   -1126.12486870 Ry
     Harris-Foulkes estimate   =   -1126.12486875 Ry
     estimated scf accuracy    <       0.00000152 Ry

     iteration # 14     ecut=    45.00 Ry     beta= 0.70
     Davidson diagonalization with overlap
     ethr =  5.27E-10,  avg # of iterations =  3.4

     End of self-consistent calculation

          k = 0.0000 0.0000 0.0000 ( 32705 PWs)   bands (ev):

    -7.1638  -6.4852  -6.4537  -6.3930  -6.2555  -6.1586  -5.9946  -5.8777
    -5.7758  -5.7486  -5.7027  -5.6807  -5.6208  -5.6165  -5.5825  -5.5502
    -5.5000  -5.4495  -5.3864  -5.3520  -5.3022  -5.2641  -5.1513  -5.0577
    -5.0249  -4.9405  -4.8752  -4.8088  -4.7676  -4.7400  -4.6380  -4.3719
     1.0441   1.1132   1.1837   1.2561   1.4818   1.6355   1.6666   1.7940
     1.8744   1.9215   1.9667   1.9974   2.0782   2.1261   2.1974   2.2836
     2.3263   2.3587   2.3646   2.5096   2.5662   2.6028   2.6318   2.6788
     2.7893   2.8226   2.8487   2.8927   2.9103   2.9497   3.0069   3.0609
     3.0983   3.1233   3.1918   3.2278   3.2381   3.2715   3.3428   3.3646
     3.4265   3.4391   3.5088   3.5560   3.6205   3.6343   3.6567   3.7037
     3.7274   3.7527   3.7962   3.8094   3.8227   3.8537   3.8747   3.9184
     3.9765   4.0015   4.0125   4.1021   4.1622   4.1875   4.2388   4.2759
     4.2982   4.3779   4.3928   4.4476   4.4973   4.5214   4.5442   4.6921
     4.7261   4.7611   5.0182   5.0392   5.0969   5.1222   5.1938   5.2662
     5.3876   5.4131   5.4330   5.4520   5.5570   5.6241   5.6575   5.7306
     5.7661   5.8145   5.9152   5.9429   5.9965   6.0216   6.0878   6.1554
     6.1922   6.2222   6.3084   6.4759   6.4865   6.5159   6.5695   6.6302
     6.6694   6.7665   6.8237   6.8443   7.0310   7.1043   7.2138   7.2326
     7.2550   7.3275   7.4441   7.5301   7.7907   7.8176   7.8954   7.9893
     8.0566   8.0807   8.2443   8.2740   8.3296   8.4245   8.5966   8.6816
     8.6863   8.7703   8.8911   8.9740   9.0332   9.0807   9.1181   9.1577
     9.2022   9.2279   9.2740   9.2970   9.3285

[...]

          k = 0.0000-0.5002-0.4107 ( 32732 PWs)   bands (ev):

[...]

          k =-0.5000-0.0045 0.0592 ( 32670 PWs)   bands (ev):

[...]

          k =-0.5000-0.5047-0.3515 ( 32690 PWs)   bands (ev):

    -6.7595  -6.7003  -6.6134  -6.5052  -6.3643  -6.1303  -6.1128  -6.0013
    -5.8310  -5.7730  -5.7110  -5.6448  -5.5853  -5.5393  -5.5121  -5.4810
    -5.4467  -5.4152  -5.4079  -5.3749  -5.2739  -5.1873  -5.1626  -5.0373
    -4.9815  -4.9121  -4.8678  -4.8337  -4.7603  -4.7041  -4.6288  -4.3747
     1.3350   1.3700   1.4842   1.5553   1.5715   1.7431   1.7625   1.7722
     1.8611   1.8797   1.9302   1.9875   2.0335   2.0607   2.0969   2.1534
     2.1631   2.2090   2.2257   2.3061   2.3196   2.4680   2.5241   2.5535
     2.6252   2.6297   2.6806   2.7506   2.7521   2.8136   2.8453   2.9621
     2.9988   3.0450   3.1132   3.1246   3.1583   3.2133   3.2693   3.2966
     3.3679   3.3994   3.4445   3.5185   3.5440   3.5694   3.5867   3.6644
     3.6790   3.7775   3.8179   3.8372   3.8770   3.8933   3.9468   4.0003
     4.0218   4.0666   4.1033   4.1410   4.2877   4.2937   4.3313   4.4252
     4.4517   4.4887   4.5229   4.5377   4.5879   4.7449   4.7546   4.8612
     4.9045   4.9963   5.0265   5.0839   5.1268   5.1990   5.2422   5.3275
     5.3536   5.4221   5.4285   5.5478   5.5650   5.6225   5.6483   5.6917
     5.8120   5.8355   5.9051   6.0508   6.0747   6.1434   6.1790   6.2060
     6.2747   6.3075   6.3317   6.3874   6.4437   6.5551   6.5827   6.6339
     6.7011   6.9355   6.9450   6.9809   7.0006   7.0990   7.1606   7.1654
     7.3028   7.3033   7.4162   7.4975   7.6306   7.7809   7.8461   7.8589
     7.9789   8.0149   8.0634   8.1457   8.1897   8.4509   8.5338   8.6416
     8.6876   8.7559   8.7991   8.9531   9.0149   9.1215   9.1326   9.1682
     9.2053   9.2287   9.2557   9.3239   9.3971

     the Fermi energy is     7.2433 ev

!    total energy              =   -1126.12486848 Ry
     Harris-Foulkes estimate   =   -1126.12486900 Ry
     estimated scf accuracy    <       0.00000065 Ry

     The total energy is the sum of the following terms:

     one-electron contribution =      36.63430411 Ry
     hartree contribution      =     152.54602140 Ry
     xc contribution           =    -445.01506289 Ry
     ewald contribution        =    -870.28855646 Ry
     smearing contrib. (-TS)   =      -0.00157464 Ry

     convergence has been achieved in  14 iterations

     Forces acting on atoms (cartesian axes, Ry/au):

     atom    1 type  1   force =    -0.00376926    0.04841847    0.00744979
     atom    2 type  1   force =     0.03526318    0.01652923    0.01415601
     atom    3 type  1   force =    -0.00318479    0.00860105    0.01852709
     atom    4 type  1   force =     0.02871126    0.02511907    0.01141956
     atom    5 type  1   force =     0.04907050    0.01425160    0.03265937
     atom    6 type  1   force =    -0.01525995    0.01557197    0.02840636
     atom    7 type  1   force =     0.02974109   -0.04688645    0.00250824
     atom    8 type  1   force =     0.03753258   -0.00543757    0.02779601
     atom    9 type  1   force =     0.02130634    0.01102210    0.00921807
     atom   10 type  1   force =    -0.03048946    0.03948632    0.02513418
     atom   11 type  1   force =    -0.01539408    0.02105035   -0.00716643
     atom   12 type  1   force =    -0.01212816    0.00339673    0.02205509
     atom   13 type  1   force =     0.01113267    0.00419518    0.01041958
     atom   14 type  1   force =     0.01586931   -0.00832803   -0.00730570
     atom   15 type  1   force =    -0.03810167   -0.00926203    0.00433740
     atom   16 type  1   force =     0.00612471    0.00459679    0.02331116
     atom   17 type  2   force =    -0.01442460   -0.01803446    0.01315594
     atom   18 type  2   force =     0.01794926   -0.01873594   -0.01514901
     atom   19 type  2   force =     0.00287087   -0.00260172   -0.00314637
     atom   20 type  2   force =     0.01038700   -0.01092769   -0.00621171
     atom   21 type  2   force =    -0.00004938    0.01559075   -0.00259608
     atom   22 type  2   force =    -0.01796176    0.02179016   -0.03456042
     atom   23 type  2   force =     0.00283257   -0.00802375   -0.02788468
     atom   24 type  2   force =    -0.00987203    0.01345205   -0.01735353
     atom   25 type  2   force =    -0.01669350    0.01039842    0.00160584
     atom   26 type  2   force =     0.05322037   -0.02908605   -0.03121417
     atom   27 type  2   force =    -0.00324646    0.00869330    0.01951599
     atom   28 type  2   force =     0.00219992   -0.00420575   -0.00934279
     atom   29 type  2   force =    -0.01966963   -0.01727842    0.00888299
     atom   30 type  2   force =    -0.00279893   -0.00360399   -0.00670413
     atom   31 type  2   force =    -0.01396140   -0.01439193   -0.00529569
     atom   32 type  2   force =    -0.03033957    0.02608668   -0.02006513
     atom   33 type  2   force =     0.01315375   -0.00826128    0.00220313
     atom   34 type  2   force =    -0.01408135   -0.00135615   -0.01528253
     atom   35 type  2   force =     0.02426457   -0.01492339    0.01815043
     atom   36 type  2   force =    -0.00191072   -0.00747558    0.00003310
     atom   37 type  2   force =    -0.01046216   -0.02271916    0.03139269
     atom   38 type  2   force =     0.00010146   -0.01105192    0.00427959
     atom   39 type  2   force =    -0.00082979   -0.00573726   -0.00930555
     atom   40 type  2   force =    -0.01035841   -0.01779978   -0.02244028
     atom   41 type  2   force =    -0.01829047   -0.01539823    0.00531461
     atom   42 type  2   force =     0.01487039   -0.01781358   -0.00950444
     atom   43 type  2   force =     0.01097983    0.01897706    0.00992870
     atom   44 type  2   force =    -0.00658924   -0.00690981    0.00071795
     atom   45 type  2   force =    -0.00796744   -0.02371743   -0.00699006
     atom   46 type  2   force =    -0.03892924    0.02111418   -0.02715097
     atom   47 type  2   force =     0.00170811   -0.01824977   -0.02594757
     atom   48 type  2   force =    -0.03252629    0.01987568   -0.04196164

     Total force =     0.230161     Total SCF correction =     0.001723

     General routines

     Parallel routines

   This run was terminated on:  22:10:14  24Dec2021

   JOB DONE.