     Program PWSCF v.6.4 starts on 19Nov2021 at 21:57: 5

     R & G space division:  proc/nbgrp/npool/nimage =      40
     Waiting for input...
     Reading input from standard input
Warning: card    &IONS ignored
Warning: card      ION_DYNAMICS = 'BFGS' ignored
Warning: card   / ignored
Warning: card    &CELL ignored
Warning: card      CELL_DYNAMICS = 'BFGS', ignored
Warning: card    / ignored

     Current dimensions of program PWSCF are:
     Max number of different atomic species (ntypx) = 10
     Max number of k-points (npk) =  40000
     Max angular momentum in pseudopotentials (lmaxx) =  3

     bravais-lattice index     =            0
     lattice parameter (alat)  =      12.0857  a.u.
     unit-cell volume          =    6531.9186 (a.u.)^3
     number of atoms/cell      =           36
     number of atomic types    =            2
     number of electrons       =       216.00
     number of Kohn-Sham states=          130
     kinetic-energy cutoff     =      45.0000  Ry
     charge density cutoff     =     360.0000  Ry
     convergence threshold     =      1.0E-06
     mixing beta               =       0.7000
     number of iterations used =            8  local-TF  mixing
     Exchange-correlation      = SLA PW GGX GGC ( 1  4  2  2 0 0)

     celldm(1)=  12.085682  celldm(2)=   0.000000  celldm(3)=   0.000000
     celldm(4)=   0.000000  celldm(5)=   0.000000  celldm(6)=   0.000000

     crystal axes: (cart. coord. in units of alat)
               a(1) = (   1.000000   0.000000   0.000000 )
               a(2) = (   0.010694   1.711226   0.000000 )
               a(3) = (   0.287444   0.208912   2.162320 )

     reciprocal axes: (cart. coord. in units 2 pi/alat)
               b(1) = (  1.000000 -0.006249 -0.132329 )
               b(2) = (  0.000000  0.584376 -0.056459 )
               b(3) = (  0.000000  0.000000  0.462466 )

     PseudoPot. # 1 for Mo read from file:
     ~/pseudo/Mo.pw91-n-van.UPF
     MD5 check sum: Not computed, couldn't open file
     Pseudo is Ultrasoft + core correction, Zval =  6.0
     Generated by new atomic code, or converted to UPF format
     Using radial grid of  965 points,  3 beta functions with:
                l(1) =   1
                l(2) =   2
                l(3) =   2
     Q(r) pseudized with  8 coefficients,  rinner =    1.000   1.000   1.000
                                                       1.200   1.200

     PseudoPot. # 2 for S  read from file:
     ~/pseudo/S.pw91-van_ak.UPF
     MD5 check sum: Not computed, couldn't open file
     Pseudo is Ultrasoft, Zval =  6.0
     Generated by new atomic code, or converted to UPF format
     Using radial grid of  811 points,  6 beta functions with:
                l(1) =   0
                l(2) =   0
                l(3) =   1
                l(4) =   1
                l(5) =   2
                l(6) =   2
     Q(r) pseudized with  8 coefficients,  rinner =    1.100   1.100   1.100
                                                       1.100   1.100

     atomic species   valence    mass     pseudopotential
        Mo             6.00    95.50000     Mo( 1.00)
        S              6.00    32.06500     S ( 1.00)

     No symmetry found

   Cartesian axes

     site n.     atom                  positions (alat units)
         1           Mo  tau(   1) = (   0.8493386   0.3994386   1.4610695  )
         2           Mo  tau(   2) = (   1.1069301   1.6833661   1.4608145  )
         3           Mo  tau(   3) = (   0.3481666   0.4001037   1.4630007  )
         4           Mo  tau(   4) = (   0.6073403   1.6828416   1.4606106  )
         5           Mo  tau(   5) = (   0.3556229   1.2556102   1.4634134  )
         6           Mo  tau(   6) = (   0.8545790   1.2552839   1.4627154  )
         7           Mo  tau(   7) = (   0.6015139   0.8283213   1.4646082  )
         8           Mo  tau(   8) = (   1.1029170   0.8272490   1.4648730  )
         9           Mo  tau(   9) = (   0.4044667   1.4600567   0.3301693  )
        10           Mo  tau(  10) = (   0.8643413   1.4583508   0.3256799  )
        11           Mo  tau(  11) = (   0.8831743   0.1836447   0.3717037  )
        12           Mo  tau(  12) = (   0.3396779   0.1807925   0.3671014  )
        13           S   tau(  13) = (   1.0974495   0.2565960   1.7109828  )
        14           S   tau(  14) = (   0.8513497   0.6835872   1.7116786  )
        15           S   tau(  15) = (   0.5987947   0.2568453   1.7087002  )
        16           S   tau(  16) = (   0.3521349   0.6839737   1.7155577  )
        17           S   tau(  17) = (   0.6085633   0.4179191   0.4350300  )
        18           S   tau(  18) = (   0.1118671   0.2144969   0.6583606  )
        19           S   tau(  19) = (   1.0986408   0.2596206   1.2107135  )
        20           S   tau(  20) = (   0.8514714   0.6881805   1.2152101  )
        21           S   tau(  21) = (   0.5979402   0.2596449   1.2130952  )
        22           S   tau(  22) = (   0.3520497   0.6876961   1.2146764  )
        23           S   tau(  23) = (   0.6156060   0.0230007   0.1295756  )
        24           S   tau(  24) = (   0.1092622   0.3334892   0.1407927  )
        25           S   tau(  25) = (   0.3571932   1.5416115   1.7092266  )
        26           S   tau(  26) = (   0.8572079   1.5401406   1.7103532  )
        27           S   tau(  27) = (   0.3563654   1.5423524   1.2124817  )
        28           S   tau(  28) = (   0.8566971   1.5423243   1.2116618  )
        29           S   tau(  29) = (   0.6042110   1.1150203   1.2136662  )
        30           S   tau(  30) = (   1.1049721   1.1146939   1.2153258  )
        31           S   tau(  31) = (   0.1311154   1.6144437   0.5700177  )
        32           S   tau(  32) = (   0.6369764   1.2967588   0.5487912  )
        33           S   tau(  33) = (   0.6049958   1.1132582   1.7137160  )
        34           S   tau(  34) = (   1.1052125   1.1130641   1.7124555  )
        35           S   tau(  35) = (   0.1368286   1.2311307   0.2409814  )
        36           S   tau(  36) = (   0.6340226   1.4226465   0.0423111  )

     number of k points=     8  Marzari-Vanderbilt smearing, width (Ry)=  0.0200
                       cart. coord. in units 2pi/alat
        k(    1) = (   0.0000000   0.0000000   0.0000000), wk =   0.1666667
        k(    2) = (   0.0000000   0.0000000  -0.2312331), wk =   0.1666667
        k(    3) = (   0.0000000  -0.2921882   0.0282297), wk =   0.1666667
        k(    4) = (   0.0000000  -0.2921882  -0.2030034), wk =   0.1666667
        k(    5) = (   0.3333333  -0.0020832  -0.0441098), wk =   0.3333333
        k(    6) = (   0.3333333  -0.0020832  -0.2753429), wk =   0.3333333
        k(    7) = (   0.3333333  -0.2942714  -0.0158800), wk =   0.3333333
        k(    8) = (   0.3333333  -0.2942714  -0.2471132), wk =   0.3333333

     Initial potential from superposition of free atoms

     starting charge  215.98107, renormalised to  216.00000
     Starting wfcs are  204 randomized atomic wfcs

     Self-consistent Calculation

     iteration #  1     ecut=    45.00 Ry     beta= 0.70
     Davidson diagonalization with overlap
     ethr =  1.00E-02,  avg # of iterations =  2.5

     total energy              =    -843.81142893 Ry
     Harris-Foulkes estimate   =    -846.00594910 Ry
     estimated scf accuracy    <       5.68436053 Ry

[...]

     iteration # 13     ecut=    45.00 Ry     beta= 0.70
     Davidson diagonalization with overlap
     c_bands:  1 eigenvalues not converged
     ethr =  8.12E-08,  avg # of iterations =  4.4

[...]

     total energy              =    -844.86095011 Ry
     Harris-Foulkes estimate   =    -844.86095030 Ry
     estimated scf accuracy    <       0.00000105 Ry

     iteration # 17     ecut=    45.00 Ry     beta= 0.70
     Davidson diagonalization with overlap
     ethr =  4.84E-10,  avg # of iterations =  3.0

     End of self-consistent calculation

          k = 0.0000 0.0000 0.0000 ( 33283 PWs)   bands (ev):

   -12.2690 -11.9903 -10.6648  -9.8473  -9.8443  -9.4949  -9.0849  -9.0807
    -8.8698  -8.8671  -8.8330  -8.8074  -8.7828  -8.6438  -8.6255  -8.6001
    -8.5903  -8.5697  -8.5643  -8.4300  -8.1370  -8.0887  -7.9755  -7.6314
    -2.3671  -2.3492  -2.3076  -2.2962  -2.2790  -2.1554  -1.9469  -1.6184
    -1.6117  -1.5485  -1.4842  -1.4082  -1.3998  -1.3964  -1.3815  -1.3683
    -1.3227  -1.1593  -1.0597  -0.6340  -0.6307  -0.6170  -0.3795  -0.2952
    -0.2527  -0.1691  -0.1309  -0.0906  -0.0623  -0.0027   0.0431   0.1866
     0.1918   0.2662   0.3066   0.3604   0.4398   0.4972   0.5251   0.5266
     0.6081   0.6770   0.7129   0.7534   0.8558   0.9494   0.9789   0.9843
     0.9971   1.2151   1.3116   1.4280   1.4676   1.4709   1.5187   1.5500
     1.6922   1.7043   1.7224   1.7229   1.7533   1.9963   2.0668   2.0879
     2.1086   2.3171   2.4268   2.5145   2.5970   2.6570   2.6617   2.6671
     2.7110   2.7438   2.7969   2.9775   2.9801   3.2070   3.4086   3.5092
     3.5684   3.9435   4.1531   4.1862   4.4616   4.4952   5.0265   5.2775
     5.4474   5.4913   5.5212   5.5238   5.5758   5.5775   5.5971   5.6577
     5.6612   5.7293   5.8518   5.8857   5.8929   5.9881   6.0723   6.0799
     6.0841   6.0913

[...]

          k = 0.3333-0.2943-0.2471 ( 33326 PWs)   bands (ev):

   -12.1970 -12.0532 -10.1824 -10.1577  -9.5074  -9.4804  -9.2623  -9.2394
    -8.9932  -8.9703  -8.9426  -8.9149  -8.7345  -8.7071  -8.6617  -8.6401
    -8.5431  -8.5144  -8.4396  -8.3569  -8.1901  -8.1814  -7.9156  -7.7398
    -2.2762  -2.2328  -1.9032  -1.7507  -1.7332  -1.7278  -1.7229  -1.6747
    -1.6257  -1.6139  -1.6043  -1.5930  -1.5833  -1.4741  -1.2683  -1.2068
    -1.1854  -1.1682  -0.5855  -0.5699  -0.4588  -0.4387  -0.3799  -0.3463
    -0.3047  -0.2738  -0.1132  -0.0266   0.0022   0.0664   0.1513   0.1677
     0.2252   0.2770   0.2986   0.3178   0.3465   0.4185   0.4271   0.5396
     0.6366   0.6890   0.6959   0.7037   0.7544   0.8052   0.8596   0.8924
     1.1136   1.1503   1.2704   1.2910   1.3180   1.3484   1.3709   1.4487
     1.4971   1.5010   1.5503   1.6236   1.7522   1.8318   1.8467   1.8675
     1.8845   1.9791   1.9880   2.0336   2.3399   2.3526   2.4851   2.5101
     2.8028   2.8345   2.8975   2.9214   3.0693   3.0887   3.2156   3.3009
     3.6887   3.7699   3.9504   4.3780   4.8304   5.0319   5.0982   5.2031
     5.3702   5.4752   5.4864   5.4944   5.5003   5.5113   5.5203   5.5271
     5.5348   5.6467   5.6773   5.7230   5.7689   5.8153   5.8916   5.9280
     5.9644   5.9741

     the Fermi energy is     4.4400 ev

!    total energy              =    -844.86095006 Ry
     Harris-Foulkes estimate   =    -844.86095027 Ry
     estimated scf accuracy    <       0.00000023 Ry

     The total energy is the sum of the following terms:

     one-electron contribution =    -741.86457200 Ry
     hartree contribution      =     471.71886590 Ry
     xc contribution           =    -334.24562681 Ry
     ewald contribution        =    -240.46982579 Ry
     smearing contrib. (-TS)   =       0.00020863 Ry

     convergence has been achieved in  17 iterations

     Forces acting on atoms (cartesian axes, Ry/au):

     atom    1 type  1   force =     0.00023779    0.00332632    0.00077406
     atom    2 type  1   force =     0.00045387    0.00308132   -0.00057195
     atom    3 type  1   force =     0.00140951    0.00296188   -0.00414242
     atom    4 type  1   force =     0.00085489    0.00272722   -0.00057301
     atom    5 type  1   force =    -0.00062702    0.00005916   -0.00358102
     atom    6 type  1   force =     0.00215867    0.00039697   -0.00247484
     atom    7 type  1   force =     0.00065817   -0.00199671   -0.00242280
     atom    8 type  1   force =     0.00081781    0.00115785   -0.00365984
     atom    9 type  1   force =    -0.00486749    0.05756074    0.01591006
     atom   10 type  1   force =     0.01029521    0.05947246    0.02621012
     atom   11 type  1   force =    -0.01475277   -0.05583795   -0.02348529
     atom   12 type  1   force =     0.01092124   -0.05319525   -0.01450074
     atom   13 type  2   force =     0.00089140    0.00154806   -0.00005156
     atom   14 type  2   force =     0.00016157    0.00223048    0.00225562
     atom   15 type  2   force =    -0.00026068    0.00108203    0.00605835
     atom   16 type  2   force =    -0.00141193    0.00224675   -0.00668700
     atom   17 type  2   force =     0.00289242    0.00996281    0.01225139
     atom   18 type  2   force =     0.00492931    0.05076192    0.08171851
     atom   19 type  2   force =     0.00014130   -0.00250936    0.00938762
     atom   20 type  2   force =     0.00016827   -0.00166272   -0.00120141
     atom   21 type  2   force =    -0.00096726   -0.00266404   -0.00168352
     atom   22 type  2   force =    -0.00145503   -0.00251821    0.00144461
     atom   23 type  2   force =     0.00072066    0.04692346   -0.00427034
     atom   24 type  2   force =     0.00064630    0.00811527   -0.04435017
     atom   25 type  2   force =    -0.00126049    0.00194188    0.00592045
     atom   26 type  2   force =    -0.00274768    0.00181503   -0.00926488
     atom   27 type  2   force =     0.00108644   -0.00486164   -0.00018267
     atom   28 type  2   force =    -0.00006942   -0.00526908    0.00134596
     atom   29 type  2   force =     0.00034541   -0.00496679    0.00219547
     atom   30 type  2   force =    -0.00073521   -0.00513308   -0.00125870
     atom   31 type  2   force =    -0.00234756   -0.05015715    0.01064910
     atom   32 type  2   force =    -0.00014155   -0.00822277    0.04809256
     atom   33 type  2   force =    -0.00077303    0.00242218   -0.00137498
     atom   34 type  2   force =    -0.00199974    0.00230663    0.00129159
     atom   35 type  2   force =    -0.00315041   -0.01694869   -0.01379095
     atom   36 type  2   force =    -0.00222299   -0.04615700   -0.08597735

     Total force =     0.210682     Total SCF correction =     0.000899

     General routines

     Parallel routines

   This run was terminated on:  22: 0:23  19Nov2021

   JOB DONE.