     Program PWSCF v.6.4 starts on  3Dec2021 at 17:46:25

     R & G space division:  proc/nbgrp/npool/nimage =      40
     Waiting for input...
     Reading input from standard input
Warning: card    &IONS ignored
Warning: card      ION_DYNAMICS = 'BFGS' ignored
Warning: card   / ignored
Warning: card    &CELL ignored
Warning: card      CELL_DYNAMICS = 'BFGS', ignored
Warning: card    / ignored

     Current dimensions of program PWSCF are:
     Max number of different atomic species (ntypx) = 10
     Max number of k-points (npk) =  40000
     Max angular momentum in pseudopotentials (lmaxx) =  3

     bravais-lattice index     =            0
     lattice parameter (alat)  =      12.1104  a.u.
     unit-cell volume          =   10813.8219 (a.u.)^3
     number of atoms/cell      =           36
     number of atomic types    =            2
     number of electrons       =       216.00
     number of Kohn-Sham states=          130
     kinetic-energy cutoff     =      45.0000  Ry
     charge density cutoff     =     360.0000  Ry
     convergence threshold     =      1.0E-06
     mixing beta               =       0.7000
     number of iterations used =            8  local-TF  mixing
     Exchange-correlation      = SLA PW GGX GGC ( 1  4  2  2 0 0)

     celldm(1)=  12.110435  celldm(2)=   0.000000  celldm(3)=   0.000000
     celldm(4)=   0.000000  celldm(5)=   0.000000  celldm(6)=   0.000000

     crystal axes: (cart. coord. in units of alat)
               a(1) = (   1.000000   0.000000   0.000000 )
               a(2) = (  -0.003299   1.739285   0.000000 )
               a(3) = (  -0.490091  -0.702373   3.500493 )

     reciprocal axes: (cart. coord. in units 2 pi/alat)
               b(1) = (  1.000000  0.001897  0.140387 )
               b(2) = (  0.000000  0.574949  0.115363 )
               b(3) = (  0.000000  0.000000  0.285674 )

     PseudoPot. # 1 for Mo read from file:
     ~/pseudo/Mo.pw91-n-van.UPF
     MD5 check sum: Not computed, couldn't open file
     Pseudo is Ultrasoft + core correction, Zval =  6.0
     Generated by new atomic code, or converted to UPF format
     Using radial grid of  965 points,  3 beta functions with:
                l(1) =   1
                l(2) =   2
                l(3) =   2
     Q(r) pseudized with  8 coefficients,  rinner =    1.000   1.000   1.000
                                                       1.200   1.200

     PseudoPot. # 2 for S  read from file:
     ~/pseudo/S.pw91-van_ak.UPF
     MD5 check sum: Not computed, couldn't open file
     Pseudo is Ultrasoft, Zval =  6.0
     Generated by new atomic code, or converted to UPF format
     Using radial grid of  811 points,  6 beta functions with:
                l(1) =   0
                l(2) =   0
                l(3) =   1
                l(4) =   1
                l(5) =   2
                l(6) =   2
     Q(r) pseudized with  8 coefficients,  rinner =    1.100   1.100   1.100
                                                       1.100   1.100

     atomic species   valence    mass     pseudopotential
        Mo             6.00    95.50000     Mo( 1.00)
        S              6.00    32.06500     S ( 1.00)

     No symmetry found

   Cartesian axes

     site n.     atom                  positions (alat units)
         1           Mo  tau(   1) = (   0.5381235   0.9716565   1.2991424  )
         2           Mo  tau(   2) = (   0.2893839   0.5366698   1.3000511  )
         3           Mo  tau(   3) = (   0.0381209   0.9716728   1.2991450  )
         4           Mo  tau(   4) = (   0.7884332   0.5366587   1.3000937  )
         5           Mo  tau(   5) = (   0.0398015   0.1017554   1.3005448  )
         6           Mo  tau(   6) = (   0.5397756   0.1022909   1.3009083  )
         7           Mo  tau(   7) = (   0.7873904   1.4063659   1.2995795  )
         8           Mo  tau(   8) = (   0.2872584   1.4063635   1.2994925  )
         9           Mo  tau(   9) = (   0.4110776   0.2031739   2.8129713  )
        10           Mo  tau(  10) = (   0.0808969   0.0098534   2.6630065  )
        11           Mo  tau(  11) = (   0.2399633   0.3554545   2.4351209  )
        12           Mo  tau(  12) = (  -0.2290531   0.2803413   2.4683826  )
        13           S   tau(  13) = (   0.2880827   0.8258504   1.0529595  )
        14           S   tau(  14) = (   0.5373272   1.2613856   1.0527628  )
        15           S   tau(  15) = (   0.7881285   0.8258273   1.0529945  )
        16           S   tau(  16) = (   0.0372904   1.2613446   1.0527071  )
        17           S   tau(  17) = (   0.1776825  -0.3068581   2.7186533  )
        18           S   tau(  18) = (   0.5326008   0.5224602   2.6498714  )
        19           S   tau(  19) = (   0.2882894   0.8266262   1.5463410  )
        20           S   tau(  20) = (   0.5375240   1.2609925   1.5462113  )
        21           S   tau(  21) = (  -0.2116304   0.8266745   1.5464449  )
        22           S   tau(  22) = (   0.0375554   1.2608987   1.5463121  )
        23           S   tau(  23) = (   0.5186945   0.2871534   2.1894463  )
        24           S   tau(  24) = (   0.0669638   0.3573595   2.7713921  )
        25           S   tau(  25) = (   0.0389072   0.3913417   1.0542312  )
        26           S   tau(  26) = (   0.5389044   0.3910949   1.0532966  )
        27           S   tau(  27) = (   0.0391289   0.3917410   1.5475321  )
        28           S   tau(  28) = (   0.5390710   0.3919277   1.5489391  )
        29           S   tau(  29) = (   0.7901153  -0.0439410   1.5477632  )
        30           S   tau(  30) = (   0.2899125  -0.0440355   1.5477052  )
        31           S   tau(  31) = (   0.3688576   0.1585538   3.1426572  )
        32           S   tau(  32) = (  -0.3031030  -0.0205693   2.7119542  )
        33           S   tau(  33) = (   0.7895932  -0.0427550   1.0540994  )
        34           S   tau(  34) = (   0.2899638  -0.0427329   1.0540191  )
        35           S   tau(  35) = (  -0.0104664   0.5749253   2.3250307  )
        36           S   tau(  36) = (   0.0477416   0.0582783   2.2996081  )

     number of k points=     4  Marzari-Vanderbilt smearing, width (Ry)=  0.0200
                       cart. coord. in units 2pi/alat
        k(    1) = (   0.0000000   0.0000000   0.0000000), wk =   0.3333333
        k(    2) = (   0.0000000  -0.2874744  -0.0576817), wk =   0.3333333
        k(    3) = (   0.3333333   0.0006323   0.0467956), wk =   0.6666667
        k(    4) = (   0.3333333  -0.2868421  -0.0108860), wk =   0.6666667

     Initial potential from superposition of free atoms

     starting charge  215.98107, renormalised to  216.00000

     negative rho (up, down):  5.585E-04 0.000E+00
     Starting wfcs are  204 randomized atomic wfcs

     Self-consistent Calculation

     iteration #  1     ecut=    45.00 Ry     beta= 0.70
     Davidson diagonalization with overlap
     ethr =  1.00E-02,  avg # of iterations =  2.0

     negative rho (up, down):  4.942E-05 0.000E+00

     total energy              =    -843.53674007 Ry
     Harris-Foulkes estimate   =    -846.34443311 Ry
     estimated scf accuracy    <       7.42400383 Ry

[...]

     iteration # 15     ecut=    45.00 Ry     beta= 0.70
     Davidson diagonalization with overlap
     c_bands:  1 eigenvalues not converged
     ethr =  1.85E-06,  avg # of iterations =  6.5

[...]

     iteration # 17     ecut=    45.00 Ry     beta= 0.70
     Davidson diagonalization with overlap
     c_bands:  1 eigenvalues not converged
     ethr =  1.48E-06,  avg # of iterations =  7.2

[...]

     total energy              =    -844.96442949 Ry
     Harris-Foulkes estimate   =    -844.96442927 Ry
     estimated scf accuracy    <       0.00000488 Ry

     iteration # 30     ecut=    45.00 Ry     beta= 0.70
     Davidson diagonalization with overlap
     ethr =  2.26E-09,  avg # of iterations =  1.0

[...]

     End of self-consistent calculation

          k = 0.0000 0.0000 0.0000 ( 55083 PWs)   bands (ev):

   -14.1597 -13.7708 -13.3942 -13.3917 -12.9869 -12.9723 -12.7299 -12.6082
   -12.6068 -12.5774 -12.5156 -12.4337 -12.4310 -12.4161 -12.4064 -12.3987
   -12.1640 -12.1508 -12.1416 -12.1334 -12.1278 -12.1239 -11.8937 -11.5568
    -5.7968  -5.7914  -5.7872  -5.6733  -5.6366  -5.2934  -5.1554  -5.1544
    -5.0188  -5.0176  -4.9423  -4.9422  -4.9231  -4.8675  -4.8593  -4.8545
    -4.8483  -4.3608  -4.1812  -4.1591  -4.1572  -4.1548  -4.1390  -4.0887
    -3.9255  -3.9185  -3.8547  -3.7222  -3.7195  -3.6424  -3.6258  -3.6186
    -3.5400  -3.4084  -3.3452  -3.3434  -3.2903  -3.2762  -3.2523  -3.2192
    -3.1378  -2.9911  -2.9874  -2.9859  -2.7454  -2.7245  -2.7006  -2.5455
    -2.5454  -2.5120  -2.4349  -2.3022  -2.1752  -2.1138  -2.0391  -2.0235
    -2.0141  -1.8833  -1.8790  -1.8778  -1.8317  -1.8113  -1.8006  -1.6280
    -1.6155  -1.5900  -1.4845  -1.4782  -1.3977  -1.1039  -1.0833  -1.0541
    -0.9199  -0.9100  -0.9074  -0.8270  -0.8104  -0.7977  -0.7855  -0.6815
    -0.6736  -0.3526  -0.3226  -0.2046  -0.0969   0.2336   0.3661   0.8769
     1.1797   1.3490   1.4630   1.8296   1.8769   1.8797   1.8828   1.8841
     1.9006   1.9031   1.9036   1.9491   2.0856   2.0932   2.1338   2.2611
     2.3910   2.3992

[...]

          k = 0.3333-0.2868-0.0109 ( 55138 PWs)   bands (ev):

   -13.6877 -13.6835 -13.6322 -13.0341 -13.0289 -12.9921 -12.7905 -12.7452
   -12.7421 -12.6527 -12.5861 -12.5812 -12.5128 -12.4338 -12.4286 -12.3233
   -12.3171 -12.2185 -12.2150 -12.1572 -12.0805 -12.0742 -11.8913 -11.5638
    -5.5201  -5.2544  -5.2483  -5.2084  -5.2054  -5.1553  -5.1512  -5.1434
    -5.1420  -5.1217  -5.1145  -5.1063  -4.9323  -4.6898  -4.6866  -4.6810
    -4.5503  -4.3776  -4.2632  -4.0909  -4.0854  -4.0753  -3.9942  -3.9865
    -3.9440  -3.9074  -3.9032  -3.8613  -3.8592  -3.7525  -3.6523  -3.6058
    -3.5970  -3.4735  -3.3428  -3.3391  -3.2632  -3.2542  -3.1971  -3.1238
    -3.1160  -3.0585  -2.9461  -2.9289  -2.9169  -2.9037  -2.9004  -2.7698
    -2.5827  -2.4273  -2.4173  -2.3601  -2.3438  -2.3333  -2.2271  -2.2255
    -2.2129  -2.1483  -2.0437  -2.0022  -1.9958  -1.8254  -1.7239  -1.7156
    -1.6950  -1.6626  -1.6522  -1.6499  -1.6458  -1.4413  -1.2158  -1.2109
    -1.0820  -1.0743  -1.0632  -0.8287  -0.7862  -0.7766  -0.6009  -0.5942
    -0.5113  -0.5074  -0.4052  -0.2302   0.2489   0.3962   0.5194   0.6801
     1.1285   1.3016   1.5409   1.7119   1.8043   1.8118   1.8548   1.8594
     1.9024   1.9159   1.9214   1.9448   1.9584   2.0239   2.0662   2.0720
     2.2389   2.2488

     the Fermi energy is    -0.1058 ev

!    total energy              =    -844.96443016 Ry
     Harris-Foulkes estimate   =    -844.96442960 Ry
     estimated scf accuracy    <       0.00000046 Ry

     The total energy is the sum of the following terms:

     one-electron contribution =   -3143.44425244 Ry
     hartree contribution      =    1643.18221322 Ry
     xc contribution           =    -333.44097794 Ry
     ewald contribution        =     988.72224325 Ry
     smearing contrib. (-TS)   =       0.01634375 Ry

     convergence has been achieved in  30 iterations

     negative rho (up, down):  8.989E-04 0.000E+00

     Forces acting on atoms (cartesian axes, Ry/au):

     atom    1 type  1   force =    -0.00119314   -0.00035203    0.00231488
     atom    2 type  1   force =    -0.00180652   -0.00048623    0.00393121
     atom    3 type  1   force =     0.00035990   -0.00111560    0.00251939
     atom    4 type  1   force =     0.00139165   -0.00052704    0.00401483
     atom    5 type  1   force =     0.00040311    0.00031109    0.00387746
     atom    6 type  1   force =    -0.00129192   -0.00065766    0.00338073
     atom    7 type  1   force =    -0.00078964    0.00014231    0.00222648
     atom    8 type  1   force =    -0.00010416    0.00025675    0.00233894
     atom    9 type  1   force =     0.07424665   -0.01401212    0.02046070
     atom   10 type  1   force =    -0.04788836   -0.06058785   -0.03752180
     atom   11 type  1   force =    -0.00581997    0.04080963   -0.04594229
     atom   12 type  1   force =    -0.00095927    0.02095173    0.01498311
     atom   13 type  2   force =     0.00092691    0.00045336   -0.00069968
     atom   14 type  2   force =     0.00051285    0.00021479   -0.00017292
     atom   15 type  2   force =    -0.00016412    0.00029591   -0.00045496
     atom   16 type  2   force =     0.00028763    0.00024565   -0.00017467
     atom   17 type  2   force =     0.01689758   -0.02474772    0.00809137
     atom   18 type  2   force =    -0.02583841   -0.01588798   -0.00439934
     atom   19 type  2   force =     0.00014538    0.00067290   -0.00182344
     atom   20 type  2   force =    -0.00013221    0.00026702   -0.00106363
     atom   21 type  2   force =    -0.00031053    0.00066414   -0.00181799
     atom   22 type  2   force =    -0.00023195    0.00037056   -0.00145827
     atom   23 type  2   force =     0.02409130   -0.01085553    0.02858557
     atom   24 type  2   force =    -0.02986544    0.06827513    0.03193931
     atom   25 type  2   force =     0.00033809    0.00005301   -0.00116751
     atom   26 type  2   force =     0.00043006    0.00035365    0.00113673
     atom   27 type  2   force =    -0.00010415    0.00026597   -0.00370260
     atom   28 type  2   force =     0.00000567   -0.00012520   -0.00652544
     atom   29 type  2   force =    -0.00014511    0.00075452   -0.00310752
     atom   30 type  2   force =    -0.00004375    0.00078187   -0.00309553
     atom   31 type  2   force =     0.01114408    0.00468729    0.01995663
     atom   32 type  2   force =     0.00045539    0.01566351   -0.01956169
     atom   33 type  2   force =     0.00023777    0.00001986   -0.00081570
     atom   34 type  2   force =     0.00052756    0.00011686   -0.00074377
     atom   35 type  2   force =    -0.01692355   -0.00619935   -0.00093268
     atom   36 type  2   force =     0.00121064   -0.02107322   -0.01457592

     Total force =     0.174095     Total SCF correction =     0.001531

     General routines

     Parallel routines

   This run was terminated on:  17:50:52   3Dec2021

   JOB DONE.