     Program PWSCF v.6.4 starts on  8Sep2021 at 12: 0:22

     R & G space division:  proc/nbgrp/npool/nimage =      40
     Waiting for input...
     Reading input from standard input
Warning: card    &IONS ignored
Warning: card      ION_DYNAMICS = 'BFGS' ignored
Warning: card   / ignored
Warning: card    &CELL ignored
Warning: card      CELL_DYNAMICS = 'BFGS', ignored
Warning: card    / ignored

     Current dimensions of program PWSCF are:
     Max number of different atomic species (ntypx) = 10
     Max number of k-points (npk) =  40000
     Max angular momentum in pseudopotentials (lmaxx) =  3

     bravais-lattice index     =            0
     lattice parameter (alat)  =       6.0525  a.u.
     unit-cell volume          =    5317.0782 (a.u.)^3
     number of atoms/cell      =           24
     number of atomic types    =            2
     number of electrons       =       144.00
     number of Kohn-Sham states=           86
     kinetic-energy cutoff     =      45.0000  Ry
     charge density cutoff     =     360.0000  Ry
     convergence threshold     =      1.0E-06
     mixing beta               =       0.7000
     number of iterations used =            8  local-TF  mixing
     Exchange-correlation      = SLA PW GGX GGC ( 1  4  2  2 0 0)

     celldm(1)=   6.052486  celldm(2)=   0.000000  celldm(3)=   0.000000
     celldm(4)=   0.000000  celldm(5)=   0.000000  celldm(6)=   0.000000

     crystal axes: (cart. coord. in units of alat)
               a(1) = (   1.000000  -0.000032   0.000457 )
               a(2) = (   0.000015   3.153524  -0.134466 )
               a(3) = (   0.200851   1.288526   7.549736 )

     reciprocal axes: (cart. coord. in units 2 pi/alat)
               b(1) = (  1.000012 -0.001131 -0.026411 )
               b(2) = (  0.000035  0.314814 -0.053731 )
               b(3) = ( -0.000060  0.005607  0.131500 )

     PseudoPot. # 1 for Mo read from file:
     ~/pseudo/Mo.pw91-n-van.UPF
     MD5 check sum: Not computed, couldn't open file
     Pseudo is Ultrasoft + core correction, Zval =  6.0
     Generated by new atomic code, or converted to UPF format
     Using radial grid of  965 points,  3 beta functions with:
                l(1) =   1
                l(2) =   2
                l(3) =   2
     Q(r) pseudized with  8 coefficients,  rinner =    1.000   1.000   1.000
                                                       1.200   1.200

     PseudoPot. # 2 for S  read from file:
     ~/pseudo/S.pw91-van_ak.UPF
     MD5 check sum: Not computed, couldn't open file
     Pseudo is Ultrasoft, Zval =  6.0
     Generated by new atomic code, or converted to UPF format
     Using radial grid of  811 points,  6 beta functions with:
                l(1) =   0
                l(2) =   0
                l(3) =   1
                l(4) =   1
                l(5) =   2
                l(6) =   2
     Q(r) pseudized with  8 coefficients,  rinner =    1.100   1.100   1.100
                                                       1.100   1.100

     atomic species   valence    mass     pseudopotential
        Mo             6.00    95.50000     Mo( 1.00)
        S              6.00    32.06500     S ( 1.00)

     No symmetry found

   Cartesian axes

     site n.     atom                  positions (alat units)
         1           Mo  tau(   1) = (   0.7866514   3.2232804   2.7770732  )
         2           Mo  tau(   2) = (   0.7870225   3.4353503   3.6889923  )
         3           Mo  tau(   3) = (   0.7950128   0.9512718   0.8148754  )
         4           Mo  tau(   4) = (   0.2955347   1.8512168   1.1897119  )
         5           Mo  tau(   5) = (   0.7882067   1.9704367   3.4684887  )
         6           Mo  tau(   6) = (   0.2881244   1.3180674   3.0753134  )
         7           Mo  tau(   7) = (   0.7960124   2.4829467   0.1010927  )
         8           Mo  tau(   8) = (   0.2955953   0.2282285   0.6068603  )
         9           S   tau(   9) = (   0.2869201   2.9811210   2.3097020  )
        10           S   tau(  10) = (   0.7951372   2.2446935   1.5710713  )
        11           S   tau(  11) = (   0.7878957   1.0584213   2.5778459  )
        12           S   tau(  12) = (   0.2868064   3.6905181   3.1409147  )
        13           S   tau(  13) = (   0.2863833   3.4634587   4.2247556  )
        14           S   tau(  14) = (   0.2952206   0.8869612   0.2501049  )
        15           S   tau(  15) = (   0.7958226   3.1755887  -0.1064784  )
        16           S   tau(  16) = (   0.2954322   1.1581900   1.3949746  )
        17           S   tau(  17) = (   0.2872752   2.0916001   4.0054721  )
        18           S   tau(  18) = (   0.7876108   2.7925262   3.3578910  )
        19           S   tau(  19) = (   0.7952262   0.2915511   1.1723361  )
        20           S   tau(  20) = (   0.2881326   2.0578795   2.9024873  )
        21           S   tau(  21) = (   0.4965468   3.3769592   7.2693326  )
        22           S   tau(  22) = (   0.7881449   1.2293528   3.6313442  )
        23           S   tau(  23) = (   0.7960029   1.7405016   0.6261728  )
        24           S   tau(  24) = (   0.2962185   2.5945585   0.6638941  )

     number of k points=     6  Marzari-Vanderbilt smearing, width (Ry)=  0.0200
                       cart. coord. in units 2pi/alat
        k(    1) = (   0.0000000   0.0000000   0.0000000), wk =   0.2000000
        k(    2) = (  -0.0000173  -0.1574072   0.0268654), wk =   0.2000000
        k(    3) = (   0.2000024  -0.0002262  -0.0052822), wk =   0.4000000
        k(    4) = (   0.1999852  -0.1576334   0.0215832), wk =   0.4000000
        k(    5) = (   0.4000049  -0.0004524  -0.0105644), wk =   0.4000000
        k(    6) = (   0.3999876  -0.1578596   0.0163010), wk =   0.4000000

     Initial potential from superposition of free atoms

     starting charge  143.98738, renormalised to  144.00000

     negative rho (up, down):  3.162E-04 0.000E+00
     Starting wfcs are  136 randomized atomic wfcs

     Self-consistent Calculation

     iteration #  1     ecut=    45.00 Ry     beta= 0.70
     Davidson diagonalization with overlap
     ethr =  1.00E-02,  avg # of iterations =  2.2

     negative rho (up, down):  8.859E-05 0.000E+00

     total energy              =    -561.95907424 Ry
     Harris-Foulkes estimate   =    -564.02104339 Ry
     estimated scf accuracy    <       5.69623558 Ry

[...]

     total energy              =    -563.02932238 Ry
     Harris-Foulkes estimate   =    -563.02932424 Ry
     estimated scf accuracy    <       0.00000125 Ry

     iteration # 16     ecut=    45.00 Ry     beta= 0.70
     Davidson diagonalization with overlap
     ethr =  8.71E-10,  avg # of iterations =  3.3

[...]

     End of self-consistent calculation

          k = 0.0000 0.0000 0.0000 ( 27177 PWs)   bands (ev):

   -12.5936 -12.2392 -11.5387 -11.4922 -11.4508 -11.2446 -11.1251 -10.8143
   -10.7782 -10.7470 -10.5471 -10.4416 -10.3339 -10.2578 -10.1463  -9.9487
    -3.9995  -3.9070  -3.7878  -3.7567  -3.2683  -3.1651  -3.0944  -3.0672
    -2.9241  -2.7451  -2.5800  -2.4158  -2.3329  -2.2988  -1.9447  -1.9393
    -1.5718  -1.4514  -1.3458  -1.2562  -1.1641  -1.1517  -1.1239  -1.1095
    -1.0730  -0.9316  -0.8621  -0.7745  -0.6585  -0.6191  -0.5453  -0.4197
    -0.3447  -0.0610   0.0834   0.1995   0.2355   0.2685   0.3300   0.4541
     0.5623   0.7480   0.8871   0.8880   0.9215   0.9356   1.2031   1.2673
     1.4417   1.4715   1.4912   1.6086   1.6556   1.6567   1.9264   2.0538
     2.0565   2.0895   2.1067   2.1661   2.2707   2.6769   2.7450   3.2979
     3.3683   3.4700   3.6959   3.8961   3.9305   3.9442

          k =-0.0000-0.1574 0.0269 ( 27192 PWs)   bands (ev):

[...]

          k = 0.4000-0.1579 0.0163 ( 27038 PWs)   bands (ev):

   -11.5049 -10.9514 -10.7958 -10.7860 -10.7100 -10.6432 -10.6231 -10.4040
   -10.3390 -10.3013 -10.0136  -9.9162  -9.8636  -9.8256  -9.6335  -9.5205
    -4.3251  -3.8604  -3.7270  -3.7175  -3.4295  -3.3642  -3.2339  -3.1185
    -3.0685  -2.9910  -2.7329  -2.6547  -2.6254  -2.5415  -2.3167  -2.2101
    -2.1175  -2.0081  -1.9688  -1.9434  -1.8767  -1.6027  -1.5901  -1.5338
    -1.5242  -1.2883  -1.2626  -1.2388  -1.1880  -1.1583  -1.1091  -1.0528
    -0.9551  -0.8614  -0.7520  -0.7354  -0.7157  -0.6117  -0.5800  -0.4849
    -0.3834  -0.3014  -0.1491  -0.0720   0.2941   0.4064   0.5247   0.7522
     0.7899   1.0708   1.0890   1.7188   1.8986   2.1659   2.2382   2.3965
     2.6410   2.7271   2.7674   2.8045   3.2037   3.2557   3.3802   3.6261
     3.6678   3.7370   3.7889   3.9107   3.9535   4.1273

     the Fermi energy is     2.1807 ev

!    total energy              =    -563.02932275 Ry
     Harris-Foulkes estimate   =    -563.02932256 Ry
     estimated scf accuracy    <       0.00000075 Ry

     The total energy is the sum of the following terms:

     one-electron contribution =   -2165.47190741 Ry
     hartree contribution      =    1140.83150669 Ry
     xc contribution           =    -222.30883750 Ry
     ewald contribution        =     683.91663012 Ry
     smearing contrib. (-TS)   =       0.00328535 Ry

     convergence has been achieved in  16 iterations

     negative rho (up, down):  4.872E-04 0.000E+00

     Forces acting on atoms (cartesian axes, Ry/au):

     atom    1 type  1   force =     0.00000885   -0.00685598    0.00563691
     atom    2 type  1   force =    -0.00032463    0.00083717    0.00164961
     atom    3 type  1   force =     0.00047148    0.00099872    0.00157782
     atom    4 type  1   force =    -0.00011857   -0.01607536    0.00558532
     atom    5 type  1   force =     0.00000787    0.00058691    0.00332878
     atom    6 type  1   force =    -0.00045959    0.00783905    0.00621972
     atom    7 type  1   force =    -0.00015121    0.01335309   -0.00463821
     atom    8 type  1   force =    -0.00019906    0.00069652   -0.00015279
     atom    9 type  2   force =     0.00015884   -0.00233859   -0.00688840
     atom   10 type  2   force =     0.00021604   -0.00623252   -0.00781675
     atom   11 type  2   force =     0.00088360   -0.00292302   -0.00828524
     atom   12 type  2   force =     0.00024721    0.00520164   -0.00926758
     atom   13 type  2   force =     0.00065154   -0.00598046   -0.00570469
     atom   14 type  2   force =     0.00020646    0.00570941   -0.00168396
     atom   15 type  2   force =     0.00008675    0.00226971   -0.00490213
     atom   16 type  2   force =    -0.00052347   -0.00187953    0.00451709
     atom   17 type  2   force =     0.00023081    0.01009652    0.00734419
     atom   18 type  2   force =    -0.00007311   -0.00342937    0.00254167
     atom   19 type  2   force =     0.00002195   -0.00335305    0.00065343
     atom   20 type  2   force =     0.00011424   -0.01422235   -0.01581121
     atom   21 type  2   force =     0.00045648    0.00609426    0.00768353
     atom   22 type  2   force =    -0.00061839    0.01048315    0.01845578
     atom   23 type  2   force =    -0.00062257    0.00286109   -0.00130155
     atom   24 type  2   force =    -0.00067154   -0.00373700    0.00125864

     Total force =     0.049000     Total SCF correction =     0.001980

     General routines

     Parallel routines

   This run was terminated on:  12: 1:25   8Sep2021

   JOB DONE.