     Program PWSCF v.6.4 starts on 23Dec2021 at 22:23:28

     R & G space division:  proc/nbgrp/npool/nimage =      40
     Waiting for input...
     Reading input from standard input
Warning: card    &IONS ignored
Warning: card      ION_DYNAMICS = 'BFGS' ignored
Warning: card   / ignored
Warning: card    &CELL ignored
Warning: card      CELL_DYNAMICS = 'BFGS', ignored
Warning: card    / ignored

     Current dimensions of program PWSCF are:
     Max number of different atomic species (ntypx) = 10
     Max number of k-points (npk) =  40000
     Max angular momentum in pseudopotentials (lmaxx) =  3

     bravais-lattice index     =            0
     lattice parameter (alat)  =      10.4220  a.u.
     unit-cell volume          =    3260.3820 (a.u.)^3
     number of atoms/cell      =           18
     number of atomic types    =            2
     number of electrons       =       108.00
     number of Kohn-Sham states=           65
     kinetic-energy cutoff     =      45.0000  Ry
     charge density cutoff     =     360.0000  Ry
     convergence threshold     =      1.0E-06
     mixing beta               =       0.7000
     number of iterations used =            8  local-TF  mixing
     Exchange-correlation      = SLA PW GGX GGC ( 1  4  2  2 0 0)

     celldm(1)=  10.421963  celldm(2)=   0.000000  celldm(3)=   0.000000
     celldm(4)=   0.000000  celldm(5)=   0.000000  celldm(6)=   0.000000

     crystal axes: (cart. coord. in units of alat)
               a(1) = (   1.000000   0.000000   0.000000 )
               a(2) = (   0.001487   1.169091   0.000000 )
               a(3) = (   0.383906  -0.025499   2.463608 )

     reciprocal axes: (cart. coord. in units 2 pi/alat)
               b(1) = (  1.000000 -0.001272 -0.155844 )
               b(2) = (  0.000000  0.855365  0.008853 )
               b(3) = (  0.000000  0.000000  0.405909 )

     PseudoPot. # 1 for Mo read from file:
     ~/pseudo/Mo.pw91-n-van.UPF
     MD5 check sum: Not computed, couldn't open file
     Pseudo is Ultrasoft + core correction, Zval =  6.0
     Generated by new atomic code, or converted to UPF format
     Using radial grid of  965 points,  3 beta functions with:
                l(1) =   1
                l(2) =   2
                l(3) =   2
     Q(r) pseudized with  8 coefficients,  rinner =    1.000   1.000   1.000
                                                       1.200   1.200

     PseudoPot. # 2 for S  read from file:
     ~/pseudo/S.pw91-van_ak.UPF
     MD5 check sum: Not computed, couldn't open file
     Pseudo is Ultrasoft, Zval =  6.0
     Generated by new atomic code, or converted to UPF format
     Using radial grid of  811 points,  6 beta functions with:
                l(1) =   0
                l(2) =   0
                l(3) =   1
                l(4) =   1
                l(5) =   2
                l(6) =   2
     Q(r) pseudized with  8 coefficients,  rinner =    1.100   1.100   1.100
                                                       1.100   1.100

     atomic species   valence    mass     pseudopotential
        Mo             6.00    95.50000     Mo( 1.00)
        S              6.00    32.06500     S ( 1.00)

     No symmetry found

   Cartesian axes

     site n.     atom                  positions (alat units)
         1           Mo  tau(   1) = (   0.7141607   0.7620705   2.0676295  )
         2           Mo  tau(   2) = (   0.7136955   0.1761692   2.0668352  )
         3           Mo  tau(   3) = (   1.2150311   1.0536944   2.0672566  )
         4           Mo  tau(   4) = (   1.2134137   0.4688284   2.0671752  )
         5           Mo  tau(   5) = (   0.9934349   0.4503590   0.8602786  )
         6           Mo  tau(   6) = (   0.4943596   0.4495750   0.8636918  )
         7           S   tau(   7) = (   0.5489230   1.0538978   2.3539460  )
         8           S   tau(   8) = (   0.5486844   0.4697049   2.3529428  )
         9           S   tau(   9) = (   1.0481675   0.1773250   2.3542922  )
        10           S   tau(  10) = (   1.0486655   0.7616631   2.3536445  )
        11           S   tau(  11) = (   0.7420165   0.7450953   0.7036855  )
        12           S   tau(  12) = (   0.2417878   0.6028576   1.1589464  )
        13           S   tau(  13) = (   0.5492907   1.0532174   1.7800553  )
        14           S   tau(  14) = (   0.5484169   0.4692148   1.7802322  )
        15           S   tau(  15) = (   1.0487070   0.1765666   1.7796587  )
        16           S   tau(  16) = (   1.0481085   0.7605851   1.7811994  )
        17           S   tau(  17) = (   0.2460018   0.2947175   0.5670359  )
        18           S   tau(  18) = (   0.7456190   0.1550015   1.0203277  )

     number of k points=    10  Marzari-Vanderbilt smearing, width (Ry)=  0.0200
                       cart. coord. in units 2pi/alat
        k(    1) = (   0.0000000   0.0000000   0.0000000), wk =   0.1111111
        k(    2) = (   0.0000000   0.0000000  -0.2029544), wk =   0.1111111
        k(    3) = (   0.0000000   0.2851218   0.0029510), wk =   0.2222222
        k(    4) = (   0.0000000   0.2851218  -0.2000033), wk =   0.2222222
        k(    5) = (   0.3333333  -0.0004240  -0.0519480), wk =   0.2222222
        k(    6) = (   0.3333333  -0.0004240  -0.2549023), wk =   0.2222222
        k(    7) = (   0.3333333   0.2846978  -0.0489969), wk =   0.2222222
        k(    8) = (   0.3333333   0.2846978  -0.2519513), wk =   0.2222222
        k(    9) = (   0.3333333  -0.2855457  -0.0548990), wk =   0.2222222
        k(   10) = (   0.3333333  -0.2855457  -0.2578534), wk =   0.2222222

     Initial potential from superposition of free atoms

     starting charge  107.99054, renormalised to  108.00000
     Starting wfcs are  102 randomized atomic wfcs

     Self-consistent Calculation

     iteration #  1     ecut=    45.00 Ry     beta= 0.70
     Davidson diagonalization with overlap
     ethr =  1.00E-02,  avg # of iterations =  2.0

     total energy              =    -421.97024625 Ry
     Harris-Foulkes estimate   =    -423.18190954 Ry
     estimated scf accuracy    <       3.08813131 Ry

[...]

     iteration # 20     ecut=    45.00 Ry     beta= 0.70
     Davidson diagonalization with overlap
     c_bands:  1 eigenvalues not converged
     ethr =  4.04E-07,  avg # of iterations =  5.6

[...]

     total energy              =    -422.56027796 Ry
     Harris-Foulkes estimate   =    -422.56027806 Ry
     estimated scf accuracy    <       0.00000122 Ry

     iteration # 25     ecut=    45.00 Ry     beta= 0.70
     Davidson diagonalization with overlap
     ethr =  1.13E-09,  avg # of iterations =  3.1

     End of self-consistent calculation

          k = 0.0000 0.0000 0.0000 ( 16557 PWs)   bands (ev):

   -10.4409  -9.2513  -9.1197  -8.7155  -8.7124  -8.6451  -8.6226  -8.5789
    -8.4749  -8.4150  -8.4113  -8.3784  -2.0573  -1.9398  -1.4007  -1.3995
    -1.2329  -1.1857  -1.1799  -1.1444  -0.5881  -0.4416  -0.3976  -0.1388
    -0.0823   0.0189   0.0391   0.1047   0.3987   0.4028   0.4088   0.7067
     0.7120   0.9676   1.0523   1.0901   1.1161   1.1995   1.6020   1.7467
     1.8525   1.8875   1.9477   1.9775   2.0998   2.1999   2.4024   2.6028
     2.6953   2.9808   3.1201   3.1234   3.5352   3.5499   3.7496   5.4629
     5.5449   5.5518   5.6432   5.6707   5.6969   6.1176   6.1639   6.1835
     6.2030

[...]

          k = 0.3333-0.2855-0.2579 ( 16640 PWs)   bands (ev):

    -9.8148  -9.2134  -9.0177  -8.9540  -8.8900  -8.6893  -8.6804  -8.6532
    -8.6148  -8.5663  -8.5411  -8.4044  -1.6327  -1.5373  -1.4242  -1.3270
    -1.1963  -0.6749  -0.5308  -0.4260  -0.3297  -0.2514  -0.2077  -0.1852
    -0.1222  -0.0990  -0.0499  -0.0061   0.3281   0.3796   0.4343   0.4938
     0.7516   0.8627   0.9710   0.9868   1.0870   1.0990   1.1800   1.3154
     1.4048   1.5153   1.6535   1.8612   1.9617   2.2226   2.3144   2.5757
     2.6006   2.8502   2.9671   3.0262   3.0905   3.6138   4.6043   4.8518
     4.9310   5.5151   5.5734   5.6012   5.6945   5.6979   5.8319   5.9760
     6.0120

     the Fermi energy is     3.7506 ev

!    total energy              =    -422.56027731 Ry
     Harris-Foulkes estimate   =    -422.56027815 Ry
     estimated scf accuracy    <       0.00000088 Ry

     The total energy is the sum of the following terms:

     one-electron contribution =    -285.86320205 Ry
     hartree contribution      =     193.73699598 Ry
     xc contribution           =    -166.86197488 Ry
     ewald contribution        =    -163.57466997 Ry
     smearing contrib. (-TS)   =       0.00257360 Ry

     convergence has been achieved in  25 iterations

     Forces acting on atoms (cartesian axes, Ry/au):

     atom    1 type  1   force =     0.00044917   -0.00316760   -0.00376364
     atom    2 type  1   force =     0.00196208    0.00323665   -0.00106352
     atom    3 type  1   force =    -0.00047298    0.00019817   -0.00219190
     atom    4 type  1   force =     0.00331618    0.00000459   -0.00215680
     atom    5 type  1   force =     0.00148540    0.00009494    0.00244239
     atom    6 type  1   force =    -0.00161299   -0.00003583    0.00076962
     atom    7 type  2   force =    -0.00001250    0.00044695    0.00382846
     atom    8 type  2   force =    -0.00143209   -0.00163014    0.00370850
     atom    9 type  2   force =    -0.00091606   -0.00144799    0.00142418
     atom   10 type  2   force =    -0.00010806   -0.00008405    0.00412044
     atom   11 type  2   force =     0.00061075   -0.00481970    0.00233935
     atom   12 type  2   force =     0.00119911   -0.00109963   -0.00566055
     atom   13 type  2   force =    -0.00110349    0.00104435   -0.00160830
     atom   14 type  2   force =    -0.00066698   -0.00002230    0.00043182
     atom   15 type  2   force =    -0.00226403   -0.00006061   -0.00004100
     atom   16 type  2   force =    -0.00007283    0.00264480   -0.00146672
     atom   17 type  2   force =    -0.00030812   -0.00016051    0.00103370
     atom   18 type  2   force =    -0.00005257    0.00485790   -0.00214602

     Total force =     0.015498     Total SCF correction =     0.001673
     SCF correction compared to forces is large: reduce conv_thr to get better values

     General routines

     Parallel routines

   This run was terminated on:  22:24:53  23Dec2021

   JOB DONE.