     Program PWSCF v.6.4 starts on 19Nov2021 at 19:58:38

     R & G space division:  proc/nbgrp/npool/nimage =      40
     Waiting for input...
     Reading input from standard input
Warning: card    &IONS ignored
Warning: card      ION_DYNAMICS = 'BFGS' ignored
Warning: card   / ignored
Warning: card    &CELL ignored
Warning: card      CELL_DYNAMICS = 'BFGS', ignored
Warning: card    / ignored

     Current dimensions of program PWSCF are:
     Max number of different atomic species (ntypx) = 10
     Max number of k-points (npk) =  40000
     Max angular momentum in pseudopotentials (lmaxx) =  3

     bravais-lattice index     =            0
     lattice parameter (alat)  =      11.7823  a.u.
     unit-cell volume          =    6816.7578 (a.u.)^3
     number of atoms/cell      =           36
     number of atomic types    =            2
     number of electrons       =       216.00
     number of Kohn-Sham states=          130
     kinetic-energy cutoff     =      45.0000  Ry
     charge density cutoff     =     360.0000  Ry
     convergence threshold     =      1.0E-06
     mixing beta               =       0.7000
     number of iterations used =            8  local-TF  mixing
     Exchange-correlation      = SLA PW GGX GGC ( 1  4  2  2 0 0)

     celldm(1)=  11.782314  celldm(2)=   0.000000  celldm(3)=   0.000000
     celldm(4)=   0.000000  celldm(5)=   0.000000  celldm(6)=   0.000000

     crystal axes: (cart. coord. in units of alat)
               a(1) = (   1.000000   0.000000   0.000000 )
               a(2) = (   0.020455   1.770056   0.000000 )
               a(3) = (   0.213470   0.543644   2.354503 )

     reciprocal axes: (cart. coord. in units 2 pi/alat)
               b(1) = (  1.000000 -0.011556 -0.087996 )
               b(2) = (  0.000000  0.564954 -0.130445 )
               b(3) = (  0.000000  0.000000  0.424718 )

     PseudoPot. # 1 for Mo read from file:
     ~/pseudo/Mo.pw91-n-van.UPF
     MD5 check sum: Not computed, couldn't open file
     Pseudo is Ultrasoft + core correction, Zval =  6.0
     Generated by new atomic code, or converted to UPF format
     Using radial grid of  965 points,  3 beta functions with:
                l(1) =   1
                l(2) =   2
                l(3) =   2
     Q(r) pseudized with  8 coefficients,  rinner =    1.000   1.000   1.000
                                                       1.200   1.200

     PseudoPot. # 2 for S  read from file:
     ~/pseudo/S.pw91-van_ak.UPF
     MD5 check sum: Not computed, couldn't open file
     Pseudo is Ultrasoft, Zval =  6.0
     Generated by new atomic code, or converted to UPF format
     Using radial grid of  811 points,  6 beta functions with:
                l(1) =   0
                l(2) =   0
                l(3) =   1
                l(4) =   1
                l(5) =   2
                l(6) =   2
     Q(r) pseudized with  8 coefficients,  rinner =    1.100   1.100   1.100
                                                       1.100   1.100

     atomic species   valence    mass     pseudopotential
        Mo             6.00    95.50000     Mo( 1.00)
        S              6.00    32.06500     S ( 1.00)

     No symmetry found

   Cartesian axes

     site n.     atom                  positions (alat units)
         1           Mo  tau(   1) = (   0.9945453   1.6473437   0.7611874  )
         2           Mo  tau(   2) = (   0.2279875   0.3204478   0.7696788  )
         3           Mo  tau(   3) = (   0.4941111   1.6480221   0.7607766  )
         4           Mo  tau(   4) = (   0.7295104   0.3207292   0.7695671  )
         5           Mo  tau(   5) = (   0.4841868   0.7639895   0.7690040  )
         6           Mo  tau(   6) = (   0.9836663   0.7626269   0.7674748  )
         7           Mo  tau(   7) = (   0.7391493   1.2057089   0.7612072  )
         8           Mo  tau(   8) = (   0.2392436   1.2064469   0.7607431  )
         9           Mo  tau(   9) = (   0.4637753   0.9307169   2.1718049  )
        10           Mo  tau(  10) = (   0.9632830   0.9258449   2.1691960  )
        11           Mo  tau(  11) = (   1.0159774   1.9922280   1.7683489  )
        12           Mo  tau(  12) = (   0.5176455   1.9947436   1.7691060  )
        13           S   tau(  13) = (   0.2439658   1.8036850   0.5046362  )
        14           S   tau(  14) = (   0.9887347   1.3578044   0.5019041  )
        15           S   tau(  15) = (   0.7447895   1.8034554   0.5056477  )
        16           S   tau(  16) = (   0.4896352   1.3590514   0.5021664  )
        17           S   tau(  17) = (   0.7651512   1.7259283   1.7393000  )
        18           S   tau(  18) = (   0.2660734   2.0440198   1.5098089  )
        19           S   tau(  19) = (   0.2450635   1.7929975   1.0222284  )
        20           S   tau(  20) = (   0.9902307   1.3540626   1.0189698  )
        21           S   tau(  21) = (   0.7459037   1.7928866   1.0208830  )
        22           S   tau(  22) = (   0.4905238   1.3541470   1.0185509  )
        23           S   tau(  23) = (   0.7512488   0.4908960   1.8016959  )
        24           S   tau(  24) = (   0.2664509   1.9494931   2.0349420  )
        25           S   tau(  25) = (   0.4783629   0.4710310   0.5154848  )
        26           S   tau(  26) = (   0.9786314   0.4707660   0.5101054  )
        27           S   tau(  27) = (   0.4803003   0.4669932   1.0291907  )
        28           S   tau(  28) = (   0.9796556   0.4672647   1.0289373  )
        29           S   tau(  29) = (   0.7356423   0.9116756   1.0240611  )
        30           S   tau(  30) = (   0.2346805   0.9130113   1.0226390  )
        31           S   tau(  31) = (   0.2120214   1.1494247   2.0155931  )
        32           S   tau(  32) = (   0.5041937   0.5403636   0.0264342  )
        33           S   tau(  33) = (   0.7340858   0.9110253   0.5068004  )
        34           S   tau(  34) = (   0.2334874   0.9113785   0.5073479  )
        35           S   tau(  35) = (   1.0019389   0.1758309  -0.0166947  )
        36           S   tau(  36) = (   0.7064858   0.7739611   1.9513938  )

     number of k points=     4  Marzari-Vanderbilt smearing, width (Ry)=  0.0200
                       cart. coord. in units 2pi/alat
        k(    1) = (   0.0000000   0.0000000   0.0000000), wk =   0.3333333
        k(    2) = (   0.0000000  -0.2824770   0.0652227), wk =   0.3333333
        k(    3) = (   0.3333333  -0.0038521  -0.0293321), wk =   0.6666667
        k(    4) = (   0.3333333  -0.2863291   0.0358906), wk =   0.6666667

     Initial potential from superposition of free atoms

     starting charge  215.98107, renormalised to  216.00000
     Starting wfcs are  204 randomized atomic wfcs

     Self-consistent Calculation

     iteration #  1     ecut=    45.00 Ry     beta= 0.70
     Davidson diagonalization with overlap
     ethr =  1.00E-02,  avg # of iterations =  2.5

     total energy              =    -843.86621254 Ry
     Harris-Foulkes estimate   =    -846.15048495 Ry
     estimated scf accuracy    <       5.82619202 Ry

[...]

     total energy              =    -844.95304748 Ry
     Harris-Foulkes estimate   =    -844.95304793 Ry
     estimated scf accuracy    <       0.00000175 Ry

     iteration # 16     ecut=    45.00 Ry     beta= 0.70
     Davidson diagonalization with overlap
     ethr =  8.12E-10,  avg # of iterations =  3.0

     End of self-consistent calculation

          k = 0.0000 0.0000 0.0000 ( 34795 PWs)   bands (ev):

   -12.5213 -11.0240 -10.2161 -10.1996  -9.8973  -9.5289  -9.4855  -9.4006
    -9.3179  -9.1384  -9.1002  -9.0812  -9.0710  -9.0320  -8.9915  -8.9233
    -8.8843  -8.8686  -8.8493  -8.7907  -8.7655  -8.7345  -8.7144  -8.5515
    -3.6924  -2.6984  -2.6755  -2.6475  -2.5257  -2.0315  -2.0202  -1.8990
    -1.8548  -1.8196  -1.8081  -1.7988  -1.7945  -1.7729  -1.7490  -1.3843
    -1.3177  -1.0727  -0.9663  -0.9445  -0.9129  -0.6901  -0.6704  -0.5325
    -0.4975  -0.4856  -0.4605  -0.3454  -0.3037  -0.2319  -0.2170  -0.1591
    -0.0742  -0.0633  -0.0527  -0.0254  -0.0095   0.0550   0.1024   0.2234
     0.2605   0.2704   0.2819   0.3042   0.3148   0.4084   0.5930   0.8537
     0.9074   0.9360   0.9659   0.9709   1.0360   1.0835   1.1697   1.2913
     1.3521   1.3842   1.4105   1.6043   1.6982   1.7069   1.7234   1.7434
     1.9003   1.9621   2.0279   2.1523   2.2278   2.2534   2.2565   2.3587
     2.3827   2.4756   2.5298   2.5433   2.6168   2.6344   2.8435   2.9294
     3.0281   3.1918   3.2991   3.4284   3.4892   4.1209   4.7851   4.9792
     5.0092   5.0696   5.0880   5.2290   5.2771   5.3039   5.3454   5.3624
     5.3647   5.3775   5.4054   5.4142   5.5355   5.5454   5.8188   5.8769
     5.8810   5.8836

[...]

          k = 0.3333-0.2863 0.0359 ( 34767 PWs)   bands (ev):

   -12.5143 -10.5250 -10.4912  -9.7949  -9.7559  -9.6553  -9.6076  -9.3403
    -9.3061  -9.2736  -9.2423  -9.2093  -9.1539  -9.0442  -9.0236  -8.9932
    -8.9613  -8.8972  -8.8683  -8.8370  -8.8038  -8.7451  -8.7044  -8.6508
    -3.6060  -2.0941  -2.0605  -2.0516  -2.0369  -2.0062  -1.9785  -1.9544
    -1.9377  -1.9269  -1.9151  -1.9093  -1.5152  -1.4664  -1.2823  -1.0243
    -0.9713  -0.8855  -0.7880  -0.7267  -0.6898  -0.6615  -0.6490  -0.6285
    -0.5798  -0.3874  -0.3364  -0.3104  -0.2572  -0.2316  -0.1976  -0.1777
    -0.1536  -0.1348  -0.1159  -0.0900  -0.0482  -0.0335   0.0336   0.0982
     0.2318   0.2546   0.3036   0.3153   0.3377   0.4196   0.4458   0.4782
     0.5354   0.6786   0.7483   0.8558   0.9087   0.9539   1.0054   1.0526
     1.0757   1.1565   1.1840   1.1953   1.2575   1.2791   1.3744   1.4541
     1.4879   1.5345   1.6921   1.7454   1.8288   2.0350   2.0868   2.1512
     2.1886   2.4262   2.5560   2.5606   2.5941   2.6183   2.8536   2.8757
     2.9804   3.5495   3.5807   3.9077   4.0841   4.4767   4.7251   4.8172
     5.1047   5.1161   5.1488   5.1714   5.2028   5.2311   5.2479   5.2720
     5.3711   5.4277   5.4413   5.4912   5.5229   5.5635   5.5962   5.6257
     5.6812   5.7180

     the Fermi energy is     3.8464 ev

!    total energy              =    -844.95304755 Ry
     Harris-Foulkes estimate   =    -844.95304778 Ry
     estimated scf accuracy    <       0.00000027 Ry

     The total energy is the sum of the following terms:

     one-electron contribution =    -873.27759029 Ry
     hartree contribution      =     534.79671654 Ry
     xc contribution           =    -334.24274093 Ry
     ewald contribution        =    -172.23617380 Ry
     smearing contrib. (-TS)   =       0.00674093 Ry

     convergence has been achieved in  16 iterations

     Forces acting on atoms (cartesian axes, Ry/au):

     atom    1 type  1   force =    -0.00244833    0.01109220    0.00010277
     atom    2 type  1   force =    -0.00190967    0.00103156    0.00144680
     atom    3 type  1   force =    -0.00284356    0.01117946    0.00562168
     atom    4 type  1   force =    -0.00410016    0.00067655   -0.00263412
     atom    5 type  1   force =    -0.00401060   -0.00384371   -0.00647391
     atom    6 type  1   force =    -0.00198821   -0.00039311   -0.00152517
     atom    7 type  1   force =    -0.00187351    0.00396864    0.00107940
     atom    8 type  1   force =    -0.00407591    0.00415941    0.00152505
     atom    9 type  1   force =    -0.04324474    0.00904898   -0.01222747
     atom   10 type  1   force =     0.03651686    0.00536255   -0.01907640
     atom   11 type  1   force =     0.02694556   -0.00139548    0.01500061
     atom   12 type  1   force =    -0.01920618    0.00283615    0.01182693
     atom   13 type  2   force =     0.00408187   -0.00907927    0.00970509
     atom   14 type  2   force =     0.00318477   -0.00899120    0.00580246
     atom   15 type  2   force =     0.00135530   -0.00823004    0.00610108
     atom   16 type  2   force =     0.00175169   -0.01172360    0.00484989
     atom   17 type  2   force =     0.00061862   -0.03534605   -0.01157074
     atom   18 type  2   force =     0.00483935    0.00871085   -0.05539228
     atom   19 type  2   force =     0.00117884   -0.00213649   -0.00890566
     atom   20 type  2   force =     0.00062429   -0.00102120   -0.00404291
     atom   21 type  2   force =    -0.00119749   -0.00035005   -0.00191244
     atom   22 type  2   force =    -0.00072865    0.00010413   -0.00342616
     atom   23 type  2   force =    -0.01695849   -0.07696850   -0.04790040
     atom   24 type  2   force =     0.00352875   -0.00198952    0.03776446
     atom   25 type  2   force =     0.00268233   -0.00528094    0.00776438
     atom   26 type  2   force =     0.00308242   -0.00326551    0.00786085
     atom   27 type  2   force =    -0.00055927    0.00637334   -0.01004543
     atom   28 type  2   force =     0.00058393    0.00648392   -0.00868874
     atom   29 type  2   force =     0.00017096    0.00843425   -0.00386575
     atom   30 type  2   force =    -0.00044384    0.00630828   -0.00086490
     atom   31 type  2   force =    -0.00156382    0.02270834   -0.02507069
     atom   32 type  2   force =    -0.00331703    0.04385914    0.04341225
     atom   33 type  2   force =     0.00151214   -0.00382677    0.00772582
     atom   34 type  2   force =     0.00449322   -0.00470599    0.00615414
     atom   35 type  2   force =    -0.00465884   -0.04602533    0.02574951
     atom   36 type  2   force =     0.01797741    0.07223503    0.02412999

     Total force =     0.188628     Total SCF correction =     0.001203

     General routines

     Parallel routines

   This run was terminated on:  20: 0:38  19Nov2021

   JOB DONE.