     Program PWSCF v.6.4 starts on  3Dec2021 at 23:32:33

     R & G space division:  proc/nbgrp/npool/nimage =      40
     Waiting for input...
     Reading input from standard input
Warning: card    &IONS ignored
Warning: card      ION_DYNAMICS = 'BFGS' ignored
Warning: card   / ignored
Warning: card    &CELL ignored
Warning: card      CELL_DYNAMICS = 'BFGS', ignored
Warning: card    / ignored

     Current dimensions of program PWSCF are:
     Max number of different atomic species (ntypx) = 10
     Max number of k-points (npk) =  40000
     Max angular momentum in pseudopotentials (lmaxx) =  3

     bravais-lattice index     =            0
     lattice parameter (alat)  =      11.7848  a.u.
     unit-cell volume          =   26219.4429 (a.u.)^3
     number of atoms/cell      =           36
     number of atomic types    =            2
     number of electrons       =       216.00
     number of Kohn-Sham states=          130
     kinetic-energy cutoff     =      45.0000  Ry
     charge density cutoff     =     360.0000  Ry
     convergence threshold     =      1.0E-06
     mixing beta               =       0.7000
     number of iterations used =            8  local-TF  mixing
     Exchange-correlation      = SLA PW GGX GGC ( 1  4  2  2 0 0)

     celldm(1)=  11.784802  celldm(2)=   0.000000  celldm(3)=   0.000000
     celldm(4)=   0.000000  celldm(5)=   0.000000  celldm(6)=   0.000000

     crystal axes: (cart. coord. in units of alat)
               a(1) = (   1.000000   0.000000   0.000000 )
               a(2) = (   0.464884   1.908309   0.000000 )
               a(3) = (   0.449038   0.138621   8.394753 )

     reciprocal axes: (cart. coord. in units 2 pi/alat)
               b(1) = (  1.000000 -0.243611 -0.049468 )
               b(2) = (  0.000000  0.524024 -0.008653 )
               b(3) = (  0.000000  0.000000  0.119122 )

     PseudoPot. # 1 for Mo read from file:
     ~/pseudo/Mo.pw91-n-van.UPF
     MD5 check sum: Not computed, couldn't open file
     Pseudo is Ultrasoft + core correction, Zval =  6.0
     Generated by new atomic code, or converted to UPF format
     Using radial grid of  965 points,  3 beta functions with:
                l(1) =   1
                l(2) =   2
                l(3) =   2
     Q(r) pseudized with  8 coefficients,  rinner =    1.000   1.000   1.000
                                                       1.200   1.200

     PseudoPot. # 2 for S  read from file:
     ~/pseudo/S.pw91-van_ak.UPF
     MD5 check sum: Not computed, couldn't open file
     Pseudo is Ultrasoft, Zval =  6.0
     Generated by new atomic code, or converted to UPF format
     Using radial grid of  811 points,  6 beta functions with:
                l(1) =   0
                l(2) =   0
                l(3) =   1
                l(4) =   1
                l(5) =   2
                l(6) =   2
     Q(r) pseudized with  8 coefficients,  rinner =    1.100   1.100   1.100
                                                       1.100   1.100

     atomic species   valence    mass     pseudopotential
        Mo             6.00    95.50000     Mo( 1.00)
        S              6.00    32.06500     S ( 1.00)

     No symmetry found

   Cartesian axes

     site n.     atom                  positions (alat units)
         1           Mo  tau(   1) = (   0.7606034   0.3502279   6.1130660  )
         2           Mo  tau(   2) = (   0.5086124   0.7796781   6.1577481  )
         3           Mo  tau(   3) = (   1.2609394   0.3490498   6.1120654  )
         4           Mo  tau(   4) = (   1.0086579   0.7794985   6.1575451  )
         5           Mo  tau(   5) = (   1.2585194   1.2353272   6.2198686  )
         6           Mo  tau(   6) = (   0.7595920   1.2360203   6.2215208  )
         7           Mo  tau(   7) = (   1.0096399   1.6653267   6.2977492  )
         8           Mo  tau(   8) = (   1.5137921   1.6662025   6.2956329  )
         9           Mo  tau(   9) = (   0.8805568   1.3461437   7.2286624  )
        10           Mo  tau(  10) = (   1.3809163   1.3462184   7.2254559  )
        11           Mo  tau(  11) = (   0.5416522   0.8978951   1.7537622  )
        12           Mo  tau(  12) = (   1.0415987   0.8977662   1.7529581  )
        13           S   tau(  13) = (   0.5091129   0.4488905   6.3826097  )
        14           S   tau(  14) = (   1.7605794   1.7951743   6.5565662  )
        15           S   tau(  15) = (   1.0099900   0.4489998   6.3824720  )
        16           S   tau(  16) = (   1.2621705   1.7886207   6.5607670  )
        17           S   tau(  17) = (   0.7923130   1.1202157   1.9051939  )
        18           S   tau(  18) = (   0.2921072   1.0487136   1.5304738  )
        19           S   tau(  19) = (   0.5090467   0.5096803   5.8658676  )
        20           S   tau(  20) = (   0.7633467   1.8807997   6.0613416  )
        21           S   tau(  21) = (   1.0087590   0.5096214   5.8659667  )
        22           S   tau(  22) = (   1.2611273   1.8808768   6.0721088  )
        23           S   tau(  23) = (   0.7909840   0.6754921   1.6015101  )
        24           S   tau(  24) = (   1.2911281   0.7472834   1.9765229  )
        25           S   tau(  25) = (   1.2586674   0.9021486   6.4280473  )
        26           S   tau(  26) = (   0.7591579   0.9022479   6.4280627  )
        27           S   tau(  27) = (   1.2586340   0.9725572   5.9290491  )
        28           S   tau(  28) = (   0.7586317   0.9741431   5.9305694  )
        29           S   tau(  29) = (   1.0088786   1.4248061   5.9906122  )
        30           S   tau(  30) = (   1.5097412   1.4241788   5.9884745  )
        31           S   tau(  31) = (   1.1312550   1.6135833   7.2483560  )
        32           S   tau(  32) = (   1.6281797   1.3155225   7.4956438  )
        33           S   tau(  33) = (   1.0088072   1.3370694   6.4980235  )
        34           S   tau(  34) = (   1.5083492   1.3394695   6.4923577  )
        35           S   tau(  35) = (   1.1297493   1.0802953   7.1804578  )
        36           S   tau(  36) = (   1.6336227   1.3920746   6.9634704  )

     number of k points=     4  Marzari-Vanderbilt smearing, width (Ry)=  0.0200
                       cart. coord. in units 2pi/alat
        k(    1) = (   0.0000000   0.0000000   0.0000000), wk =   0.3333333
        k(    2) = (   0.0000000  -0.2620121   0.0043266), wk =   0.3333333
        k(    3) = (   0.3333333  -0.0812036  -0.0164892), wk =   0.6666667
        k(    4) = (   0.3333333  -0.3432157  -0.0121627), wk =   0.6666667

     Initial potential from superposition of free atoms

     starting charge  215.98107, renormalised to  216.00000

     negative rho (up, down):  4.003E-03 0.000E+00
     Starting wfcs are  204 randomized atomic wfcs

     Self-consistent Calculation

     iteration #  1     ecut=    45.00 Ry     beta= 0.70
     Davidson diagonalization with overlap
     ethr =  1.00E-02,  avg # of iterations =  2.5

     negative rho (up, down):  8.252E-04 0.000E+00

     total energy              =    -843.39582234 Ry
     Harris-Foulkes estimate   =    -846.07346856 Ry
     estimated scf accuracy    <       6.92573846 Ry

[...]

     total energy              =    -844.73693893 Ry
     Harris-Foulkes estimate   =    -844.73693646 Ry
     estimated scf accuracy    <       0.00000321 Ry

     iteration # 23     ecut=    45.00 Ry     beta= 0.70
     Davidson diagonalization with overlap
     ethr =  1.49E-09,  avg # of iterations =  2.8

[...]

     End of self-consistent calculation

          k = 0.0000 0.0000 0.0000 (133697 PWs)   bands (ev):

   -17.5718 -17.0494 -16.6647 -16.4524 -16.2997 -16.1178 -16.0945 -16.0771
   -15.9255 -15.8838 -15.8618 -15.8315 -15.7793 -15.6221 -15.5491 -15.5175
   -15.4964 -15.4837 -15.4810 -15.4809 -15.3849 -15.3830 -15.3754 -14.7134
    -9.1846  -9.1574  -9.0742  -9.0030  -8.9476  -8.6892  -8.6034  -8.4993
    -8.4802  -8.4740  -8.4602  -8.1537  -8.1218  -8.0443  -7.9271  -7.7074
    -7.6071  -7.5617  -7.5442  -7.4810  -7.4253  -7.2977  -7.1901  -7.0553
    -7.0360  -6.9943  -6.9871  -6.9860  -6.9528  -6.9274  -6.8542  -6.8478
    -6.7220  -6.7183  -6.6482  -6.5636  -6.5178  -6.5107  -6.5066  -6.5013
    -6.4806  -6.4695  -6.3899  -6.3312  -6.0535  -5.9739  -5.8880  -5.8297
    -5.8090  -5.7986  -5.7576  -5.6978  -5.5863  -5.5134  -5.4061  -5.3047
    -5.2788  -5.2477  -5.2270  -5.1733  -5.1355  -5.0318  -5.0091  -5.0056
    -4.8812  -4.8649  -4.7233  -4.5881  -4.5384  -4.4731  -4.4381  -4.3938
    -4.2328  -4.1570  -4.0579  -4.0243  -3.8593  -3.7430  -3.4462  -3.3966
    -3.3956  -3.3889  -3.3736  -3.2199  -3.1302  -3.0786  -2.8518  -2.7222
    -2.6232  -2.3145  -1.8720  -1.7379  -1.6869  -1.6793  -1.6744  -1.5622
    -1.4000  -1.3716  -1.3026  -1.3014  -1.2180  -1.1451  -1.0412  -0.9920
    -0.9815  -0.9797

[...]

          k = 0.3333-0.3432-0.0122 (133586 PWs)   bands (ev):

   -17.2471 -16.8967 -16.5385 -16.3442 -16.2695 -16.2397 -16.1679 -15.9913
   -15.9696 -15.9377 -15.9104 -15.9101 -15.8559 -15.7802 -15.6555 -15.5834
   -15.5544 -15.5376 -15.4858 -15.4768 -15.4752 -15.4734 -15.2280 -14.8842
    -8.8161  -8.7878  -8.7493  -8.7123  -8.6801  -8.5356  -8.4590  -8.2957
    -8.2559  -8.1395  -7.9780  -7.9549  -7.7849  -7.7322  -7.6538  -7.5786
    -7.4569  -7.4221  -7.3807  -7.3524  -7.2748  -7.2050  -7.0976  -7.0209
    -6.9978  -6.9901  -6.9469  -6.9177  -6.9055  -6.9036  -6.8695  -6.8369
    -6.8279  -6.7867  -6.7596  -6.7055  -6.6659  -6.5966  -6.5601  -6.4582
    -6.4401  -6.4073  -6.3693  -6.3524  -6.3452  -6.2951  -6.2504  -6.1692
    -6.1648  -6.1249  -6.0333  -5.9150  -5.8242  -5.7467  -5.7357  -5.6411
    -5.5760  -5.5509  -5.5244  -5.5192  -5.4180  -5.3313  -5.3256  -5.3182
    -5.2802  -5.1383  -5.0700  -4.9861  -4.9757  -4.6412  -4.6063  -4.3640
    -4.3392  -4.2581  -4.0726  -4.0272  -3.8811  -3.8480  -3.7522  -3.2826
    -3.2679  -3.2498  -3.1290  -3.1290  -2.6702  -2.6350  -2.4943  -2.3830
    -2.3750  -2.2357  -1.9448  -1.7708  -1.6191  -1.6099  -1.5110  -1.4473
    -1.3890  -1.3845  -1.3787  -1.3625  -1.3394  -1.3367  -1.2581  -1.2114
    -1.1632  -1.1356

     the Fermi energy is    -3.0410 ev

!    total energy              =    -844.73693454 Ry
     Harris-Foulkes estimate   =    -844.73693907 Ry
     estimated scf accuracy    <       0.00000054 Ry

     The total energy is the sum of the following terms:

     one-electron contribution =  -13658.23830848 Ry
     hartree contribution      =    6874.64174603 Ry
     xc contribution           =    -333.35986310 Ry
     ewald contribution        =    6272.21508612 Ry
     smearing contrib. (-TS)   =       0.00440489 Ry

     convergence has been achieved in  23 iterations

     negative rho (up, down):  5.669E-03 0.000E+00

     Forces acting on atoms (cartesian axes, Ry/au):

     atom    1 type  1   force =     0.00128327   -0.03334629   -0.03147217
     atom    2 type  1   force =    -0.00100990    0.02457286    0.00128816
     atom    3 type  1   force =     0.00014067   -0.02939143   -0.02647919
     atom    4 type  1   force =    -0.00011371    0.02480413    0.00154471
     atom    5 type  1   force =    -0.00058397   -0.02297439   -0.01967579
     atom    6 type  1   force =    -0.00152418   -0.02714888   -0.02096890
     atom    7 type  1   force =     0.00952739    0.06384795    0.00148067
     atom    8 type  1   force =    -0.00985403    0.06386460    0.00121768
     atom    9 type  1   force =     0.00084460    0.00503683   -0.00163299
     atom   10 type  1   force =    -0.00192689    0.00246085   -0.00666840
     atom   11 type  1   force =     0.00030083    0.00096048    0.00003245
     atom   12 type  1   force =     0.00007417   -0.00010292   -0.00103232
     atom   13 type  2   force =     0.00257996    0.01111481    0.00543663
     atom   14 type  2   force =    -0.00042299   -0.00927405    0.00216212
     atom   15 type  2   force =     0.00365049    0.01079952    0.00521784
     atom   16 type  2   force =    -0.00225209   -0.00937717   -0.00652604
     atom   17 type  2   force =    -0.00063885    0.02411672    0.01619410
     atom   18 type  2   force =    -0.00048312    0.01664595   -0.02439327
     atom   19 type  2   force =     0.00361177    0.00683585    0.01353838
     atom   20 type  2   force =    -0.00802582   -0.01805822    0.01776193
     atom   21 type  2   force =     0.00485298    0.00610489    0.01342214
     atom   22 type  2   force =    -0.00527765   -0.01136021    0.01427581
     atom   23 type  2   force =     0.00076943   -0.02468398   -0.01612498
     atom   24 type  2   force =     0.00052960   -0.01694347    0.02396258
     atom   25 type  2   force =     0.00000744   -0.00573776    0.00251889
     atom   26 type  2   force =    -0.00126049   -0.00654692    0.00377727
     atom   27 type  2   force =    -0.00059310   -0.00906906   -0.00274362
     atom   28 type  2   force =    -0.00004783   -0.01103899   -0.00513399
     atom   29 type  2   force =     0.00065613   -0.00697177   -0.00253769
     atom   30 type  2   force =    -0.00034770   -0.00810277    0.00073225
     atom   31 type  2   force =    -0.00129117    0.02990803    0.01158859
     atom   32 type  2   force =     0.00157261   -0.00677142    0.02801514
     atom   33 type  2   force =     0.00292156   -0.00161631    0.00887762
     atom   34 type  2   force =    -0.00179677   -0.00563839    0.01207714
     atom   35 type  2   force =     0.00294943   -0.02920855    0.00119999
     atom   36 type  2   force =     0.00117796    0.00228948   -0.02093278

     Total force =     0.157678     Total SCF correction =     0.001571

     General routines

     Parallel routines

   This run was terminated on:  23:48:47   3Dec2021

   JOB DONE.