     Program PWSCF v.6.4 starts on 14Oct2021 at 10: 2:57

     R & G space division:  proc/nbgrp/npool/nimage =      40
     Waiting for input...
     Reading input from standard input
Warning: card    &IONS ignored
Warning: card      ION_DYNAMICS = 'BFGS' ignored
Warning: card   / ignored
Warning: card    &CELL ignored
Warning: card      CELL_DYNAMICS = 'BFGS', ignored
Warning: card    / ignored

     Current dimensions of program PWSCF are:
     Max number of different atomic species (ntypx) = 10
     Max number of k-points (npk) =  40000
     Max angular momentum in pseudopotentials (lmaxx) =  3

     bravais-lattice index     =            0
     lattice parameter (alat)  =      12.0406  a.u.
     unit-cell volume          =    8649.1156 (a.u.)^3
     number of atoms/cell      =           36
     number of atomic types    =            2
     number of electrons       =       216.00
     number of Kohn-Sham states=          130
     kinetic-energy cutoff     =      45.0000  Ry
     charge density cutoff     =     360.0000  Ry
     convergence threshold     =      1.0E-06
     mixing beta               =       0.7000
     number of iterations used =            8  local-TF  mixing
     Exchange-correlation      = SLA PW GGX GGC ( 1  4  2  2 0 0)

     celldm(1)=  12.040642  celldm(2)=   0.000000  celldm(3)=   0.000000
     celldm(4)=   0.000000  celldm(5)=   0.000000  celldm(6)=   0.000000

     crystal axes: (cart. coord. in units of alat)
               a(1) = (   1.000000   0.000000   0.000000 )
               a(2) = (   0.456143   0.866618   0.000000 )
               a(3) = (   0.145954   0.553890   5.717355 )

     reciprocal axes: (cart. coord. in units 2 pi/alat)
               b(1) = (  1.000000 -0.526349  0.025464 )
               b(2) = (  0.000000  1.153911 -0.111789 )
               b(3) = (  0.000000  0.000000  0.174906 )

     PseudoPot. # 1 for Mo read from file:
     ~/pseudo/Mo.pw91-n-van.UPF
     MD5 check sum: Not computed, couldn't open file
     Pseudo is Ultrasoft + core correction, Zval =  6.0
     Generated by new atomic code, or converted to UPF format
     Using radial grid of  965 points,  3 beta functions with:
                l(1) =   1
                l(2) =   2
                l(3) =   2
     Q(r) pseudized with  8 coefficients,  rinner =    1.000   1.000   1.000
                                                       1.200   1.200

     PseudoPot. # 2 for S  read from file:
     ~/pseudo/S.pw91-van_ak.UPF
     MD5 check sum: Not computed, couldn't open file
     Pseudo is Ultrasoft, Zval =  6.0
     Generated by new atomic code, or converted to UPF format
     Using radial grid of  811 points,  6 beta functions with:
                l(1) =   0
                l(2) =   0
                l(3) =   1
                l(4) =   1
                l(5) =   2
                l(6) =   2
     Q(r) pseudized with  8 coefficients,  rinner =    1.100   1.100   1.100
                                                       1.100   1.100

     atomic species   valence    mass     pseudopotential
        Mo             6.00    95.50000     Mo( 1.00)
        S              6.00    32.06500     S ( 1.00)

     No symmetry found

   Cartesian axes

     site n.     atom                  positions (alat units)
         1           Mo  tau(   1) = (   0.4166405   0.5765124   0.1558875  )
         2           Mo  tau(   2) = (   0.8254276   1.3026983   5.5158896  )
         3           Mo  tau(   3) = (   0.4780156   0.1267550   0.0988676  )
         4           Mo  tau(   4) = (   1.3066869   0.8856377   5.5749107  )
         5           Mo  tau(   5) = (   0.5366552   0.2861564   1.3363298  )
         6           Mo  tau(   6) = (   1.0367399   0.2858033   1.3372137  )
         7           Mo  tau(   7) = (   1.2650027   0.7193011   1.3368829  )
         8           Mo  tau(   8) = (   0.7645437   0.7193542   1.3368863  )
         9           Mo  tau(   9) = (   0.6903318   0.7275968   4.3977243  )
        10           Mo  tau(  10) = (   1.1905299   0.7275350   4.3982777  )
        11           Mo  tau(  11) = (   1.4184239   1.1608367   4.3972028  )
        12           Mo  tau(  12) = (   0.9185391   1.1609113   4.3978793  )
        13           S   tau(  13) = (   0.7481196   0.5401599   5.5535609  )
        14           S   tau(  14) = (   0.2954922   0.6326640   5.2873854  )
        15           S   tau(  15) = (   0.6265688   0.9690179   5.5833656  )
        16           S   tau(  16) = (   1.0586403   1.0104084   5.4068011  )
        17           S   tau(  17) = (   0.7904677   0.1412391   1.0873691  )
        18           S   tau(  18) = (   0.2899168   0.1411565   1.0872100  )
        19           S   tau(  19) = (   0.5183539   0.5749064   1.0863544  )
        20           S   tau(  20) = (   1.0181874   0.5743567   1.0883133  )
        21           S   tau(  21) = (   0.9439311   0.5831082   4.1479931  )
        22           S   tau(  22) = (   0.4436066   0.5828003   4.1480896  )
        23           S   tau(  23) = (   0.6720322   1.0161347   4.1477916  )
        24           S   tau(  24) = (   1.1716114   1.0157753   4.1480146  )
        25           S   tau(  25) = (   1.1802250   0.8668101   0.2668171  )
        26           S   tau(  26) = (   0.1591643   0.0421219   0.0905629  )
        27           S   tau(  27) = (   0.4933763   0.3794952   0.3843031  )
        28           S   tau(  28) = (   1.0353762   0.4701704   0.1199099  )
        29           S   tau(  29) = (   1.2459949   1.0076716   1.5866530  )
        30           S   tau(  30) = (   0.7466645   1.0077243   1.5867819  )
        31           S   tau(  31) = (   0.5182563   0.5741487   1.5867381  )
        32           S   tau(  32) = (   1.0182749   0.5744446   1.5867714  )
        33           S   tau(  33) = (   0.9438497   0.5822035   4.6470217  )
        34           S   tau(  34) = (   0.4444251   0.5825018   4.6482687  )
        35           S   tau(  35) = (   0.6717745   1.0161999   4.6468254  )
        36           S   tau(  36) = (   1.1724718   1.0162032   4.6475742  )

     number of k points=     5  Marzari-Vanderbilt smearing, width (Ry)=  0.0200
                       cart. coord. in units 2pi/alat
        k(    1) = (   0.0000000   0.0000000   0.0000000), wk =   0.2222222
        k(    2) = (   0.0000000   0.3846371  -0.0372631), wk =   0.4444444
        k(    3) = (   0.3333333  -0.1754496   0.0084879), wk =   0.4444444
        k(    4) = (   0.3333333   0.2091874  -0.0287752), wk =   0.4444444
        k(    5) = (   0.3333333  -0.5600867   0.0457510), wk =   0.4444444

     Initial potential from superposition of free atoms

     starting charge  215.98107, renormalised to  216.00000

     negative rho (up, down):  9.749E-04 0.000E+00
     Starting wfcs are  204 randomized atomic wfcs

     Self-consistent Calculation

     iteration #  1     ecut=    45.00 Ry     beta= 0.70
     Davidson diagonalization with overlap
     ethr =  1.00E-02,  avg # of iterations =  2.6

     negative rho (up, down):  1.004E-04 0.000E+00

     total energy              =    -843.23779736 Ry
     Harris-Foulkes estimate   =    -845.47939005 Ry
     estimated scf accuracy    <       5.74636835 Ry

[...]

     iteration #  5     ecut=    45.00 Ry     beta= 0.70
     Davidson diagonalization with overlap
     c_bands:  1 eigenvalues not converged
     ethr =  1.94E-05,  avg # of iterations =  8.8

[...]

     End of self-consistent calculation

          k = 0.0000 0.0000 0.0000 ( 44117 PWs)   bands (ev):

   -13.4732 -12.9211 -12.9179 -12.7487 -11.7768 -11.7512 -11.7477 -11.5628
   -11.1874 -11.1842 -11.1588 -11.0915 -11.0865 -11.0837 -10.9978 -10.9947
   -10.9942 -10.9920 -10.8714 -10.8681 -10.7419 -10.7385 -10.6541 -10.4222
    -5.3096  -4.9964  -4.6124  -4.6039  -4.6008  -4.5852  -4.5695  -4.5663
    -4.5049  -4.5016  -4.3938  -4.3891  -3.9813  -3.6908  -3.6870  -3.6390
    -3.6352  -3.6038  -3.5794  -3.5757  -3.4779  -3.4246  -3.1351  -3.0845
    -2.8995  -2.8957  -2.8750  -2.8719  -2.8625  -2.8585  -2.7306  -2.6359
    -2.4299  -2.4262  -2.2405  -2.2378  -1.9127  -1.9095  -1.8765  -1.7636
    -1.6398  -1.6116  -1.6093  -1.6092  -1.6057  -1.3490  -1.2240  -1.0932
    -1.0906  -0.8999  -0.8919  -0.7934  -0.7715  -0.7430  -0.7070  -0.6673
    -0.6582  -0.6537  -0.6502  -0.4201  -0.4178  -0.3959  -0.0390  -0.0359
     0.0076   0.0107   0.2170   0.2389   0.2916   0.2942   0.3130   0.3159
     0.4808   0.4841   0.5666   0.5698   0.6362   0.6403   0.9548   1.0011
     1.0050   1.4722   1.7881   2.0045   2.1726   2.5028   3.0259   3.1641
     3.1670   3.2377   3.2406   3.2629   3.2911   3.2940   3.3784   3.4051
     3.7368   3.7477   3.7527   3.8034   3.8063   3.8398   3.8439   3.8569
     3.8773   3.8803

[...]

     the Fermi energy is     2.1490 ev

!    total energy              =    -844.32938752 Ry
     Harris-Foulkes estimate   =    -844.32938441 Ry
     estimated scf accuracy    <       0.00000071 Ry

     The total energy is the sum of the following terms:

     one-electron contribution =   -6257.96391653 Ry
     hartree contribution      =    3211.45066273 Ry
     xc contribution           =    -335.81651580 Ry
     ewald contribution        =    2538.00288738 Ry
     smearing contrib. (-TS)   =      -0.00250530 Ry

     convergence has been achieved in  20 iterations

[...]

     Forces acting on atoms (cartesian axes, Ry/au):

     atom    1 type  1   force =    -0.18824619    0.26734290   -0.10207036
     atom    2 type  1   force =     0.18357112   -0.27285414    0.12081207
     atom    3 type  1   force =    -0.00866897    0.18488404    0.03833922
     atom    4 type  1   force =     0.00856395   -0.18333286   -0.04758636
     atom    5 type  1   force =    -0.00507764   -0.00053039    0.00212019
     atom    6 type  1   force =    -0.00531918   -0.00025391    0.00090775
     atom    7 type  1   force =    -0.00561754   -0.00061287    0.00129041
     atom    8 type  1   force =    -0.00480020   -0.00067638    0.00135860
     atom    9 type  1   force =    -0.00513469   -0.00075272   -0.00114364
     atom   10 type  1   force =    -0.00499270   -0.00049072   -0.00215131
     atom   11 type  1   force =    -0.00557265   -0.00010488   -0.00084975
     atom   12 type  1   force =    -0.00471380   -0.00001691   -0.00122823
     atom   13 type  2   force =     0.08626865   -0.13315958   -0.24162209
     atom   14 type  2   force =    -0.08900089    0.17004935   -0.30639960
     atom   15 type  2   force =     0.23100618    0.04995187   -0.19979456
     atom   16 type  2   force =    -0.20054377    0.10272295   -0.18216247
     atom   17 type  2   force =     0.00231345   -0.00007670    0.00009518
     atom   18 type  2   force =     0.00294271    0.00031679    0.00050985
     atom   19 type  2   force =     0.00250292   -0.00054898    0.00273677
     atom   20 type  2   force =     0.00279381    0.00034302   -0.00190827
     atom   21 type  2   force =     0.00284938    0.00000296    0.00169192
     atom   22 type  2   force =     0.00306874    0.00014320    0.00229714
     atom   23 type  2   force =     0.00285190   -0.00004656    0.00169546
     atom   24 type  2   force =     0.00315732    0.00028277    0.00182062
     atom   25 type  2   force =     0.20773336   -0.10881850    0.18494871
     atom   26 type  2   force =    -0.23435751   -0.05230083    0.19214658
     atom   27 type  2   force =     0.08829465   -0.16012825    0.30061216
     atom   28 type  2   force =    -0.08535757    0.13442466    0.24487383
     atom   29 type  2   force =     0.00280381    0.00062986   -0.00161205
     atom   30 type  2   force =     0.00254193    0.00033316   -0.00189865
     atom   31 type  2   force =     0.00274043    0.00057649   -0.00211398
     atom   32 type  2   force =     0.00259007    0.00048132   -0.00153607
     atom   33 type  2   force =     0.00231624    0.00120289    0.00011947
     atom   34 type  2   force =     0.00199970    0.00081956   -0.00331570
     atom   35 type  2   force =     0.00287795    0.00010290    0.00042178
     atom   36 type  2   force =     0.00161504    0.00009447   -0.00140462

     Total force =     1.048358     Total SCF correction =     0.002285

     General routines

     Parallel routines

   This run was terminated on:  10: 5:43  14Oct2021

   JOB DONE.

     Program PWSCF v.6.4 starts on 14Oct2021 at 10:46: 8

     R & G space division:  proc/nbgrp/npool/nimage =      40
     Waiting for input...
     Reading input from standard input
Warning: card    &IONS ignored
Warning: card      ION_DYNAMICS = 'BFGS' ignored
Warning: card   / ignored
Warning: card    &CELL ignored
Warning: card      CELL_DYNAMICS = 'BFGS', ignored
Warning: card    / ignored

     Current dimensions of program PWSCF are:
     Max number of different atomic species (ntypx) = 10
     Max number of k-points (npk) =  40000
     Max angular momentum in pseudopotentials (lmaxx) =  3

     bravais-lattice index     =            0
     lattice parameter (alat)  =      12.0406  a.u.
     unit-cell volume          =    8649.1156 (a.u.)^3
     number of atoms/cell      =           36
     number of atomic types    =            2
     number of electrons       =       216.00
     number of Kohn-Sham states=          130
     kinetic-energy cutoff     =      45.0000  Ry
     charge density cutoff     =     360.0000  Ry
     convergence threshold     =      1.0E-06
     mixing beta               =       0.7000
     number of iterations used =            8  local-TF  mixing
     Exchange-correlation      = SLA PW GGX GGC ( 1  4  2  2 0 0)

     celldm(1)=  12.040642  celldm(2)=   0.000000  celldm(3)=   0.000000
     celldm(4)=   0.000000  celldm(5)=   0.000000  celldm(6)=   0.000000

     crystal axes: (cart. coord. in units of alat)
               a(1) = (   1.000000   0.000000   0.000000 )
               a(2) = (   0.456143   0.866618   0.000000 )
               a(3) = (   0.145954   0.553890   5.717355 )

     reciprocal axes: (cart. coord. in units 2 pi/alat)
               b(1) = (  1.000000 -0.526349  0.025464 )
               b(2) = (  0.000000  1.153911 -0.111789 )
               b(3) = (  0.000000  0.000000  0.174906 )

     PseudoPot. # 1 for Mo read from file:
     ~/pseudo/Mo.pw91-n-van.UPF
     MD5 check sum: Not computed, couldn't open file
     Pseudo is Ultrasoft + core correction, Zval =  6.0
     Generated by new atomic code, or converted to UPF format
     Using radial grid of  965 points,  3 beta functions with:
                l(1) =   1
                l(2) =   2
                l(3) =   2
     Q(r) pseudized with  8 coefficients,  rinner =    1.000   1.000   1.000
                                                       1.200   1.200

     PseudoPot. # 2 for S  read from file:
     ~/pseudo/S.pw91-van_ak.UPF
     MD5 check sum: Not computed, couldn't open file
     Pseudo is Ultrasoft, Zval =  6.0
     Generated by new atomic code, or converted to UPF format
     Using radial grid of  811 points,  6 beta functions with:
                l(1) =   0
                l(2) =   0
                l(3) =   1
                l(4) =   1
                l(5) =   2
                l(6) =   2
     Q(r) pseudized with  8 coefficients,  rinner =    1.100   1.100   1.100
                                                       1.100   1.100

     atomic species   valence    mass     pseudopotential
        Mo             6.00    95.50000     Mo( 1.00)
        S              6.00    32.06500     S ( 1.00)

     No symmetry found

   Cartesian axes

     site n.     atom                  positions (alat units)
         1           Mo  tau(   1) = (   0.4166405   0.5765124   0.1558875  )
         2           Mo  tau(   2) = (   0.8254276   1.3026983   5.5158896  )
         3           Mo  tau(   3) = (   0.4780156   0.1267550   0.0988676  )
         4           Mo  tau(   4) = (   1.3066869   0.8856377   5.5749107  )
         5           Mo  tau(   5) = (   0.5366552   0.2861564   1.3363298  )
         6           Mo  tau(   6) = (   1.0367399   0.2858033   1.3372137  )
         7           Mo  tau(   7) = (   1.2650027   0.7193011   1.3368829  )
         8           Mo  tau(   8) = (   0.7645437   0.7193542   1.3368863  )
         9           Mo  tau(   9) = (   0.6903318   0.7275968   4.3977243  )
        10           Mo  tau(  10) = (   1.1905299   0.7275350   4.3982777  )
        11           Mo  tau(  11) = (   1.4184239   1.1608367   4.3972028  )
        12           Mo  tau(  12) = (   0.9185391   1.1609113   4.3978793  )
        13           S   tau(  13) = (   0.7481196   0.5401599   5.5535609  )
        14           S   tau(  14) = (   0.2954922   0.6326640   5.2873854  )
        15           S   tau(  15) = (   0.6265688   0.9690179   5.5833656  )
        16           S   tau(  16) = (   1.0586403   1.0104084   5.4068011  )
        17           S   tau(  17) = (   0.7904677   0.1412391   1.0873691  )
        18           S   tau(  18) = (   0.2899168   0.1411565   1.0872100  )
        19           S   tau(  19) = (   0.5183539   0.5749064   1.0863544  )
        20           S   tau(  20) = (   1.0181874   0.5743567   1.0883133  )
        21           S   tau(  21) = (   0.9439311   0.5831082   4.1479931  )
        22           S   tau(  22) = (   0.4436066   0.5828003   4.1480896  )
        23           S   tau(  23) = (   0.6720322   1.0161347   4.1477916  )
        24           S   tau(  24) = (   1.1716114   1.0157753   4.1480146  )
        25           S   tau(  25) = (   1.1802250   0.8668101   0.2668171  )
        26           S   tau(  26) = (   0.1591643   0.0421219   0.0905629  )
        27           S   tau(  27) = (   0.4933763   0.3794952   0.3843031  )
        28           S   tau(  28) = (   1.0353762   0.4701704   0.1199099  )
        29           S   tau(  29) = (   1.2459949   1.0076716   1.5866530  )
        30           S   tau(  30) = (   0.7466645   1.0077243   1.5867819  )
        31           S   tau(  31) = (   0.5182563   0.5741487   1.5867381  )
        32           S   tau(  32) = (   1.0182749   0.5744446   1.5867714  )
        33           S   tau(  33) = (   0.9438497   0.5822035   4.6470217  )
        34           S   tau(  34) = (   0.4444251   0.5825018   4.6482687  )
        35           S   tau(  35) = (   0.6717745   1.0161999   4.6468254  )
        36           S   tau(  36) = (   1.1724718   1.0162032   4.6475742  )

     number of k points=     5  Marzari-Vanderbilt smearing, width (Ry)=  0.0200
                       cart. coord. in units 2pi/alat
        k(    1) = (   0.0000000   0.0000000   0.0000000), wk =   0.2222222
        k(    2) = (   0.0000000   0.3846371  -0.0372631), wk =   0.4444444
        k(    3) = (   0.3333333  -0.1754496   0.0084879), wk =   0.4444444
        k(    4) = (   0.3333333   0.2091874  -0.0287752), wk =   0.4444444
        k(    5) = (   0.3333333  -0.5600867   0.0457510), wk =   0.4444444

     Initial potential from superposition of free atoms

     starting charge  215.98107, renormalised to  216.00000

     negative rho (up, down):  9.749E-04 0.000E+00
     Starting wfcs are  204 randomized atomic wfcs

     Self-consistent Calculation

[...]

     iteration #  5     ecut=    45.00 Ry     beta= 0.70
     Davidson diagonalization with overlap
     c_bands:  1 eigenvalues not converged
     ethr =  1.94E-05,  avg # of iterations =  8.8

[...]

     total energy              =    -844.32938425 Ry
     Harris-Foulkes estimate   =    -844.32938700 Ry
     estimated scf accuracy    <       0.00000159 Ry

     iteration # 20     ecut=    45.00 Ry     beta= 0.70
     Davidson diagonalization with overlap
     ethr =  7.37E-10,  avg # of iterations =  2.8

[...]

     End of self-consistent calculation

[...]

          k = 0.3333-0.5601 0.0458 ( 44119 PWs)   bands (ev):

   -13.0082 -12.8252 -12.1043 -11.9443 -11.9412 -11.8962 -11.8928 -11.8471
   -11.8440 -11.5494 -11.3677 -11.2952 -11.2920 -11.2446 -11.2412 -11.1910
   -11.1877 -11.0835 -10.8357 -10.8326 -10.7365 -10.6956 -10.6924 -10.4828
    -5.2161  -5.0329  -4.3684  -4.3392  -4.1615  -4.1585  -4.1482  -3.8898
    -3.6873  -3.6835  -3.6734  -3.6702  -3.6614  -3.6569  -3.4996  -3.3838
    -3.3804  -3.2364  -3.1897  -2.8592  -2.8559  -2.8456  -2.7593  -2.6343
    -2.6290  -2.6244  -2.6211  -2.6168  -2.6114  -2.5249  -2.4911  -2.4875
    -2.4632  -2.4554  -2.4367  -2.3814  -2.3780  -2.3639  -2.3604  -2.2518
    -2.1465  -2.0179  -2.0146  -1.9476  -1.9445  -1.9315  -1.9264  -1.8175
    -1.7665  -1.7635  -1.6904  -1.5337  -1.1965  -1.0618  -1.0582  -0.8237
    -0.7960  -0.7933  -0.7212  -0.7181  -0.6725  -0.6695  -0.4177   0.0278
     0.0327   0.0448   0.0675   0.0739   0.0935   0.0973   0.1816   0.2818
     0.2852   0.3335   0.3366   0.4273   0.4305   0.5619   0.9687   1.1352
     1.1382   1.2039   1.9724   2.0986   2.2950   2.4994   2.8080   2.8517
     2.8548   2.9214   2.9271   2.9494   2.9594   2.9919   2.9969   3.0285
     3.2335   3.3727   3.3975   3.4005   3.5282   3.5388   3.5541   3.5877
     3.6316   3.6337

     the Fermi energy is     2.1490 ev

!    total energy              =    -844.32938752 Ry
     Harris-Foulkes estimate   =    -844.32938441 Ry
     estimated scf accuracy    <       0.00000071 Ry

     The total energy is the sum of the following terms:

     one-electron contribution =   -6257.96391545 Ry
     hartree contribution      =    3211.45066160 Ry
     xc contribution           =    -335.81651576 Ry
     ewald contribution        =    2538.00288738 Ry
     smearing contrib. (-TS)   =      -0.00250530 Ry

     convergence has been achieved in  20 iterations

     negative rho (up, down):  1.362E-03 0.000E+00

     Forces acting on atoms (cartesian axes, Ry/au):

     atom    1 type  1   force =    -0.18824620    0.26734291   -0.10207041
     atom    2 type  1   force =     0.18357115   -0.27285415    0.12081200
     atom    3 type  1   force =    -0.00866894    0.18488409    0.03833920
     atom    4 type  1   force =     0.00856394   -0.18333290   -0.04758641
     atom    5 type  1   force =    -0.00507767   -0.00053040    0.00212026
     atom    6 type  1   force =    -0.00531920   -0.00025392    0.00090777
     atom    7 type  1   force =    -0.00561755   -0.00061289    0.00129036
     atom    8 type  1   force =    -0.00480022   -0.00067637    0.00135864
     atom    9 type  1   force =    -0.00513468   -0.00075271   -0.00114367
     atom   10 type  1   force =    -0.00499270   -0.00049073   -0.00215133
     atom   11 type  1   force =    -0.00557264   -0.00010489   -0.00084977
     atom   12 type  1   force =    -0.00471379   -0.00001691   -0.00122827
     atom   13 type  2   force =     0.08626871   -0.13315960   -0.24162220
     atom   14 type  2   force =    -0.08900089    0.17004935   -0.30639968
     atom   15 type  2   force =     0.23100618    0.04995186   -0.19979466
     atom   16 type  2   force =    -0.20054379    0.10272295   -0.18216253
     atom   17 type  2   force =     0.00231343   -0.00007669    0.00009525
     atom   18 type  2   force =     0.00294273    0.00031680    0.00050996
     atom   19 type  2   force =     0.00250293   -0.00054900    0.00273686
     atom   20 type  2   force =     0.00279381    0.00034303   -0.00190822
     atom   21 type  2   force =     0.00284939    0.00000299    0.00169192
     atom   22 type  2   force =     0.00306873    0.00014322    0.00229715
     atom   23 type  2   force =     0.00285192   -0.00004658    0.00169546
     atom   24 type  2   force =     0.00315731    0.00028276    0.00182063
     atom   25 type  2   force =     0.20773339   -0.10881852    0.18494865
     atom   26 type  2   force =    -0.23435754   -0.05230082    0.19214654
     atom   27 type  2   force =     0.08829462   -0.16012823    0.30061205
     atom   28 type  2   force =    -0.08535760    0.13442467    0.24487377
     atom   29 type  2   force =     0.00280378    0.00062988   -0.00161192
     atom   30 type  2   force =     0.00254196    0.00033317   -0.00189854
     atom   31 type  2   force =     0.00274044    0.00057646   -0.00211387
     atom   32 type  2   force =     0.00259005    0.00048134   -0.00153592
     atom   33 type  2   force =     0.00231625    0.00120290    0.00011949
     atom   34 type  2   force =     0.00199970    0.00081956   -0.00331572
     atom   35 type  2   force =     0.00287795    0.00010290    0.00042179
     atom   36 type  2   force =     0.00161505    0.00009446   -0.00140463

     Total force =     1.048358     Total SCF correction =     0.002287

     General routines

     Parallel routines

   This run was terminated on:  10:49:35  14Oct2021

   JOB DONE.