     Program PWSCF v.6.4 starts on 12Aug2021 at 13: 7:12

     R & G space division:  proc/nbgrp/npool/nimage =      40
     Waiting for input...
     Reading input from standard input
Warning: card    &IONS ignored
Warning: card      ION_DYNAMICS = 'BFGS' ignored
Warning: card   / ignored
Warning: card    &CELL ignored
Warning: card      CELL_DYNAMICS = 'BFGS', ignored
Warning: card    / ignored

     Current dimensions of program PWSCF are:
     Max number of different atomic species (ntypx) = 10
     Max number of k-points (npk) =  40000
     Max angular momentum in pseudopotentials (lmaxx) =  3

     bravais-lattice index     =            0
     lattice parameter (alat)  =      12.1326  a.u.
     unit-cell volume          =    6853.9256 (a.u.)^3
     number of atoms/cell      =           36
     number of atomic types    =            2
     number of electrons       =       216.00
     number of Kohn-Sham states=          130
     kinetic-energy cutoff     =      45.0000  Ry
     charge density cutoff     =     360.0000  Ry
     convergence threshold     =      1.0E-06
     mixing beta               =       0.7000
     number of iterations used =            8  local-TF  mixing
     Exchange-correlation      = SLA PW GGX GGC ( 1  4  2  2 0 0)

     celldm(1)=  12.132604  celldm(2)=   0.000000  celldm(3)=   0.000000
     celldm(4)=   0.000000  celldm(5)=   0.000000  celldm(6)=   0.000000

     crystal axes: (cart. coord. in units of alat)
               a(1) = (   0.999775   0.000973   0.021199 )
               a(2) = (  -0.498193   0.866452  -0.037315 )
               a(3) = (  -0.058493  -0.223029   4.433433 )

     reciprocal axes: (cart. coord. in units 2 pi/alat)
               b(1) = (  0.998770  0.576088  0.042158 )
               b(2) = ( -0.002357  1.155278  0.058087 )
               b(3) = ( -0.004796  0.006969  0.225846 )

     PseudoPot. # 1 for Mo read from file:
     ~/pseudo/Mo.pw91-n-van.UPF
     MD5 check sum: Not computed, couldn't open file
     Pseudo is Ultrasoft + core correction, Zval =  6.0
     Generated by new atomic code, or converted to UPF format
     Using radial grid of  965 points,  3 beta functions with:
                l(1) =   1
                l(2) =   2
                l(3) =   2
     Q(r) pseudized with  8 coefficients,  rinner =    1.000   1.000   1.000
                                                       1.200   1.200

     PseudoPot. # 2 for S  read from file:
     ~/pseudo/S.pw91-van_ak.UPF
     MD5 check sum: Not computed, couldn't open file
     Pseudo is Ultrasoft, Zval =  6.0
     Generated by new atomic code, or converted to UPF format
     Using radial grid of  811 points,  6 beta functions with:
                l(1) =   0
                l(2) =   0
                l(3) =   1
                l(4) =   1
                l(5) =   2
                l(6) =   2
     Q(r) pseudized with  8 coefficients,  rinner =    1.100   1.100   1.100
                                                       1.100   1.100

     atomic species   valence    mass     pseudopotential
        Mo             6.00    95.50000     Mo( 1.00)
        S              6.00    32.06500     S ( 1.00)

     No symmetry found

   Cartesian axes

     site n.     atom                  positions (alat units)
         1           Mo  tau(   1) = (   0.2503420   0.1278028   0.0133114  )
         2           Mo  tau(   2) = (  -0.0042314   0.5546574  -0.0044300  )
         3           Mo  tau(   3) = (   0.7476364   0.1169631   0.0230991  )
         4           Mo  tau(   4) = (   0.5016716   0.5557363   0.0128055  )
         5           Mo  tau(   5) = (  -0.0321770   0.1397135   3.4103272  )
         6           Mo  tau(   6) = (  -0.2856312   0.5766223   3.3895244  )
         7           Mo  tau(   7) = (   0.4667397   0.1523053   3.4192412  )
         8           Mo  tau(   8) = (   0.2066524   0.5809992   3.4000568  )
         9           Mo  tau(   9) = (  -0.0203132   0.2325943   0.9882729  )
        10           Mo  tau(  10) = (  -0.2742807   0.6739439   0.9759977  )
        11           Mo  tau(  11) = (   0.4880793   0.2312668   1.0015147  )
        12           Mo  tau(  12) = (   0.2285176   0.6565126   0.9848253  )
        13           S   tau(  13) = (  -0.0082139   0.2646322   0.2468620  )
        14           S   tau(  14) = (  -0.2455128   0.7189663   0.2382126  )
        15           S   tau(  15) = (   0.4994145   0.2634518   0.2645046  )
        16           S   tau(  16) = (   0.2387688   0.7102428   0.2512253  )
        17           S   tau(  17) = (   0.2181521  -0.0070456   3.6670589  )
        18           S   tau(  18) = (  -0.0425809   0.4393168   3.6466615  )
        19           S   tau(  19) = (   0.7125642   0.0011738   3.6772152  )
        20           S   tau(  20) = (   0.4588611   0.4457698   3.6556695  )
        21           S   tau(  21) = (   0.2258804   0.1015664   1.2478521  )
        22           S   tau(  22) = (  -0.0229754   0.5138280   1.2307275  )
        23           S   tau(  23) = (   0.7366582   0.0840323   1.2562687  )
        24           S   tau(  24) = (   0.4717502   0.5185405   1.2451353  )
        25           S   tau(  25) = (  -0.0585852   0.0392408   4.1857211  )
        26           S   tau(  26) = (  -0.3173256   0.4739184   4.1788807  )
        27           S   tau(  27) = (   0.4437977   0.0396433   4.1982473  )
        28           S   tau(  28) = (   0.2000307   0.4667020   4.1845045  )
        29           S   tau(  29) = (   0.2203817   0.0050829   3.1716334  )
        30           S   tau(  30) = (  -0.0404906   0.4195330   3.1511124  )
        31           S   tau(  31) = (   0.7180759   0.0012919   3.1833910  )
        32           S   tau(  32) = (   0.4580620   0.4296326   3.1606568  )
        33           S   tau(  33) = (   0.2379337   0.0837358   0.7548575  )
        34           S   tau(  34) = (  -0.0252064   0.5272958   0.7361494  )
        35           S   tau(  35) = (   0.7325265   0.0778790   0.7623711  )
        36           S   tau(  36) = (   0.4920897   0.5175858   0.7495012  )

     number of k points=     5  Marzari-Vanderbilt smearing, width (Ry)=  0.0200
                       cart. coord. in units 2pi/alat
        k(    1) = (   0.0000000   0.0000000   0.0000000), wk =   0.2222222
        k(    2) = (  -0.0007855   0.3850927   0.0193622), wk =   0.4444444
        k(    3) = (   0.3329235   0.1920294   0.0140527), wk =   0.4444444
        k(    4) = (   0.3321380   0.5771221   0.0334149), wk =   0.4444444
        k(    5) = (   0.3337090  -0.1930633  -0.0053095), wk =   0.4444444

     Initial potential from superposition of free atoms

     starting charge  215.98107, renormalised to  216.00000

     negative rho (up, down):  5.626E-04 0.000E+00
     Starting wfcs are  204 randomized atomic wfcs

     Self-consistent Calculation

     iteration #  1     ecut=    45.00 Ry     beta= 0.70
     Davidson diagonalization with overlap
     ethr =  1.00E-02,  avg # of iterations =  2.0

     negative rho (up, down):  1.668E-05 0.000E+00

     total energy              =    -844.18293424 Ry
     Harris-Foulkes estimate   =    -846.79894119 Ry
     estimated scf accuracy    <       6.70117575 Ry

[...]

     total energy              =    -845.48603715 Ry
     Harris-Foulkes estimate   =    -845.48604285 Ry
     estimated scf accuracy    <       0.00001182 Ry

     iteration # 16     ecut=    45.00 Ry     beta= 0.70
     Davidson diagonalization with overlap
     ethr =  5.42E-09,  avg # of iterations =  2.0

[...]

     End of self-consistent calculation

          k = 0.0000 0.0000 0.0000 ( 34855 PWs)   bands (ev):

   -11.0725 -10.9764 -10.9285  -9.9533  -9.8095  -9.7464  -9.3021  -9.2911
    -9.2603  -9.2473  -9.2235  -9.2118  -9.2087  -9.1949  -9.1721  -9.0352
    -9.0178  -9.0100  -9.0061  -8.9725  -8.9517  -8.9441  -8.9369  -8.9315
    -2.7787  -2.7247  -2.7013  -2.6900  -2.6083  -2.6020  -2.5878  -2.5682
    -2.5643  -2.5358  -2.4807  -2.2335  -1.8415  -1.8215  -1.7851  -1.7401
    -1.7367  -1.6726  -1.6585  -1.6537  -1.6366  -1.1477  -1.1403  -1.0886
    -0.9499  -0.9358  -0.9286  -0.8689  -0.8314  -0.7741  -0.1243  -0.1032
    -0.0789  -0.0691  -0.0499  -0.0463  -0.0281  -0.0262  -0.0022   0.4360
     0.4447   0.4787   0.4842   0.4916   0.5134   0.6764   0.8508   0.9540
     1.0050   1.1024   1.1086   1.1314   1.2021   1.2390   1.2471   1.3203
     1.4795   1.5166   1.5710   1.5835   1.5987   1.6091   1.8730   2.0399
     2.0696   2.0729   2.0953   2.1119   2.1278   2.1334   2.1439   2.1811
     2.2325   2.2904   2.3173   2.3601   2.3799   2.3834   2.4232   2.4463
     2.4476   2.7126   3.1194   3.3588   4.9975   5.0077   5.0152   5.0202
     5.0295   5.0380   5.0492   5.0635   5.0750   5.4574   5.4601   5.4720
     5.5502   5.5561   5.5654   5.5806   5.5905   5.5971   5.6206   5.6357
     5.6486   5.6962

          k =-0.0008 0.3851 0.0194 ( 34928 PWs)   bands (ev):

[...]

          k = 0.3337-0.1931-0.0053 ( 34896 PWs)   bands (ev):

   -10.7068 -10.6115 -10.5649  -9.8743  -9.7876  -9.7270  -9.7087  -9.6122
    -9.5607  -9.3359  -9.3171  -9.2898  -9.2663  -9.2558  -9.2145  -9.2013
    -9.1660  -9.1364  -9.0394  -9.0223  -8.9698  -8.9538  -8.9267  -8.8968
    -2.3691  -2.2725  -2.2508  -2.2074  -2.1589  -2.1404  -2.1196  -2.0940
    -2.0763  -2.0548  -1.9812  -1.8566  -1.7772  -1.7683  -1.7461  -1.7273
    -1.7138  -1.6769  -1.2551  -1.1615  -1.0443  -0.9617  -0.9217  -0.8866
    -0.7865  -0.7698  -0.7284  -0.6816  -0.6554  -0.6287  -0.3297  -0.2726
    -0.2530  -0.2382  -0.2003  -0.1217  -0.0876  -0.0403  -0.0239   0.0032
     0.1731   0.2119   0.2412   0.2779   0.4252   0.5838   0.6372   0.6868
     0.7082   0.7411   0.7767   0.8776   0.8978   0.9062   0.9793   1.0328
     1.0791   1.1022   1.1399   1.1972   1.2823   1.3050   1.3686   1.3938
     1.4325   1.5166   1.6854   1.7139   1.7264   1.7483   1.9133   2.0028
     2.0760   2.1509   2.1931   2.4552   2.4745   2.5205   2.5530   2.5728
     2.5901   2.6128   2.7670   2.8301   4.9026   4.9130   4.9635   4.9806
     4.9842   5.0254   5.0540   5.0764   5.1083   5.1245   5.1343   5.1923
     5.2109   5.3090   5.3309   5.3887   5.4154   5.4469   5.4649   5.4856
     5.5047   5.5326

     the Fermi energy is     3.1802 ev

!    total energy              =    -845.48603540 Ry
     Harris-Foulkes estimate   =    -845.48603837 Ry
     estimated scf accuracy    <       0.00000067 Ry

     The total energy is the sum of the following terms:

     one-electron contribution =   -4575.42411574 Ry
     hartree contribution      =    2384.71011223 Ry
     xc contribution           =    -334.10027643 Ry
     ewald contribution        =    1679.31029503 Ry
     smearing contrib. (-TS)   =       0.01794951 Ry

     convergence has been achieved in  16 iterations

     negative rho (up, down):  8.070E-04 0.000E+00

     Forces acting on atoms (cartesian axes, Ry/au):

     atom    1 type  1   force =    -0.01008238   -0.01467670   -0.00540226
     atom    2 type  1   force =     0.01092397    0.00857380    0.00438484
     atom    3 type  1   force =     0.00220867    0.01387733   -0.00953372
     atom    4 type  1   force =    -0.01907670   -0.00135695    0.02078417
     atom    5 type  1   force =    -0.01123559    0.01710258    0.01715148
     atom    6 type  1   force =    -0.01268615    0.00023663   -0.02832102
     atom    7 type  1   force =    -0.00895346   -0.02795796    0.01567179
     atom    8 type  1   force =     0.01629455   -0.01623688   -0.01465760
     atom    9 type  1   force =     0.00280534   -0.00701642   -0.01779826
     atom   10 type  1   force =     0.01867661   -0.03644535    0.02443001
     atom   11 type  1   force =    -0.02178800   -0.00373372    0.01092537
     atom   12 type  1   force =     0.01272475    0.02306212   -0.00929556
     atom   13 type  2   force =    -0.00093715    0.02384009    0.00128760
     atom   14 type  2   force =    -0.02240564   -0.02315363   -0.02006008
     atom   15 type  2   force =    -0.00724215    0.02827465   -0.01045918
     atom   16 type  2   force =     0.01175359   -0.02145028   -0.03033234
     atom   17 type  2   force =    -0.00797319    0.03970741   -0.00796550
     atom   18 type  2   force =     0.00026063   -0.00912517   -0.00494644
     atom   19 type  2   force =    -0.00944723    0.02423914   -0.00542214
     atom   20 type  2   force =    -0.00967991   -0.00043254   -0.00352292
     atom   21 type  2   force =     0.00460854   -0.00092183   -0.00260905
     atom   22 type  2   force =    -0.01937994    0.03763904   -0.00362154
     atom   23 type  2   force =    -0.02123044    0.01164656   -0.00061529
     atom   24 type  2   force =     0.01267113    0.01916421   -0.01215470
     atom   25 type  2   force =     0.00376992   -0.00459881    0.01836988
     atom   26 type  2   force =     0.03287199   -0.00498386   -0.00733926
     atom   27 type  2   force =     0.00966133   -0.00023546    0.01997009
     atom   28 type  2   force =    -0.01167426   -0.00917577    0.01092428
     atom   29 type  2   force =     0.00962166   -0.03159497    0.00426722
     atom   30 type  2   force =     0.01713749    0.00869135    0.00876727
     atom   31 type  2   force =     0.00097291   -0.01530926    0.00146496
     atom   32 type  2   force =     0.01708199    0.00898384    0.01014983
     atom   33 type  2   force =    -0.00211324    0.00908364    0.00484391
     atom   34 type  2   force =     0.01232969   -0.02842339    0.00694506
     atom   35 type  2   force =     0.01562351   -0.00865460    0.01223394
     atom   36 type  2   force =    -0.01609284   -0.00863883    0.00148515

     Total force =     0.161167     Total SCF correction =     0.002232

     General routines

     Parallel routines

   This run was terminated on:  13: 9:25  12Aug2021

   JOB DONE.