     Program PWSCF v.6.4 starts on  3Dec2021 at 17:36: 1

     R & G space division:  proc/nbgrp/npool/nimage =      40
     Waiting for input...
     Reading input from standard input
Warning: card    &IONS ignored
Warning: card      ION_DYNAMICS = 'BFGS' ignored
Warning: card   / ignored
Warning: card    &CELL ignored
Warning: card      CELL_DYNAMICS = 'BFGS', ignored
Warning: card    / ignored

     Current dimensions of program PWSCF are:
     Max number of different atomic species (ntypx) = 10
     Max number of k-points (npk) =  40000
     Max angular momentum in pseudopotentials (lmaxx) =  3

     bravais-lattice index     =            0
     lattice parameter (alat)  =      12.0791  a.u.
     unit-cell volume          =   14991.4941 (a.u.)^3
     number of atoms/cell      =           36
     number of atomic types    =            2
     number of electrons       =       216.00
     number of Kohn-Sham states=          130
     kinetic-energy cutoff     =      45.0000  Ry
     charge density cutoff     =     360.0000  Ry
     convergence threshold     =      1.0E-06
     mixing beta               =       0.7000
     number of iterations used =            8  local-TF  mixing
     Exchange-correlation      = SLA PW GGX GGC ( 1  4  2  2 0 0)

     celldm(1)=  12.079144  celldm(2)=   0.000000  celldm(3)=   0.000000
     celldm(4)=   0.000000  celldm(5)=   0.000000  celldm(6)=   0.000000

     crystal axes: (cart. coord. in units of alat)
               a(1) = (   1.000000   0.000000   0.000000 )
               a(2) = (   0.002531   1.747620   0.000000 )
               a(3) = (  -0.069796  -0.043933   4.867314 )

     reciprocal axes: (cart. coord. in units 2 pi/alat)
               b(1) = (  1.000000 -0.001449  0.014327 )
               b(2) = (  0.000000  0.572207  0.005165 )
               b(3) = (  0.000000  0.000000  0.205452 )

     PseudoPot. # 1 for Mo read from file:
     ~/pseudo/Mo.pw91-n-van.UPF
     MD5 check sum: Not computed, couldn't open file
     Pseudo is Ultrasoft + core correction, Zval =  6.0
     Generated by new atomic code, or converted to UPF format
     Using radial grid of  965 points,  3 beta functions with:
                l(1) =   1
                l(2) =   2
                l(3) =   2
     Q(r) pseudized with  8 coefficients,  rinner =    1.000   1.000   1.000
                                                       1.200   1.200

     PseudoPot. # 2 for S  read from file:
     ~/pseudo/S.pw91-van_ak.UPF
     MD5 check sum: Not computed, couldn't open file
     Pseudo is Ultrasoft, Zval =  6.0
     Generated by new atomic code, or converted to UPF format
     Using radial grid of  811 points,  6 beta functions with:
                l(1) =   0
                l(2) =   0
                l(3) =   1
                l(4) =   1
                l(5) =   2
                l(6) =   2
     Q(r) pseudized with  8 coefficients,  rinner =    1.100   1.100   1.100
                                                       1.100   1.100

     atomic species   valence    mass     pseudopotential
        Mo             6.00    95.50000     Mo( 1.00)
        S              6.00    32.06500     S ( 1.00)

     No symmetry found

   Cartesian axes

     site n.     atom                  positions (alat units)
         1           Mo  tau(   1) = (   0.1233480   0.2328559   3.7045842  )
         2           Mo  tau(   2) = (   0.3747437   1.5421066   3.7047612  )
         3           Mo  tau(   3) = (   0.6229634   0.2329076   3.7047762  )
         4           Mo  tau(   4) = (   0.8748322   1.5421161   3.7047946  )
         5           Mo  tau(   5) = (   0.6245039   1.1057585   3.6983112  )
         6           Mo  tau(   6) = (   0.1244550   1.1057125   3.6982968  )
         7           Mo  tau(   7) = (   0.8740079   0.6677908   3.6991359  )
         8           Mo  tau(   8) = (   0.3740791   0.6677545   3.6989686  )
         9           Mo  tau(   9) = (   0.9360804   0.9964656   0.1430101  )
        10           Mo  tau(  10) = (   0.4478450   0.9983320   0.1414265  )
        11           Mo  tau(  11) = (   0.1265138   0.7245668   4.6963752  )
        12           Mo  tau(  12) = (   0.6240560   0.7245364   4.6926507  )
        13           S   tau(  13) = (   0.3729277   0.0847127   3.9520878  )
        14           S   tau(  14) = (   0.1240978   0.5255332   3.9479328  )
        15           S   tau(  15) = (   0.8731267   0.0848727   3.9517281  )
        16           S   tau(  16) = (   0.6238760   0.5256024   3.9482719  )
        17           S   tau(  17) = (   0.6240119   1.0855061   4.7537372  )
        18           S   tau(  18) = (   0.4457315   0.6366191   0.0837781  )
        19           S   tau(  19) = (   0.3730671   0.0864194   3.4581589  )
        20           S   tau(  20) = (   0.1237124   0.5208777   3.4524411  )
        21           S   tau(  21) = (   0.8729403   0.0866491   3.4584034  )
        22           S   tau(  22) = (   0.6239841   0.5207943   3.4526092  )
        23           S   tau(  23) = (   0.8753315   0.6505651   4.4373899  )
        24           S   tau(  24) = (   0.3752657   0.6281056   4.4423529  )
        25           S   tau(  25) = (   0.6246377   1.3936265   3.9511284  )
        26           S   tau(  26) = (   0.1246566   1.3938112   3.9513565  )
        27           S   tau(  27) = (   0.6246045   1.3986321   3.4553792  )
        28           S   tau(  28) = (   0.1246230   1.3986437   3.4555603  )
        29           S   tau(  29) = (   0.8744461   0.9578500   3.4507018  )
        30           S   tau(  30) = (   0.3743125   0.9579501   3.4505887  )
        31           S   tau(  31) = (   0.9443953   0.6341933   0.0788613  )
        32           S   tau(  32) = (   0.1912779   1.1168087   0.3821525  )
        33           S   tau(  33) = (   0.8744773   0.9594174   3.9434157  )
        34           S   tau(  34) = (   0.3745101   0.9592485   3.9432322  )
        35           S   tau(  35) = (   0.6913187   1.0770917   0.4058902  )
        36           S   tau(  36) = (   0.1207917   1.0841408   4.7567755  )

     number of k points=     4  Marzari-Vanderbilt smearing, width (Ry)=  0.0200
                       cart. coord. in units 2pi/alat
        k(    1) = (   0.0000000   0.0000000   0.0000000), wk =   0.3333333
        k(    2) = (   0.0000000  -0.2861034  -0.0025824), wk =   0.3333333
        k(    3) = (   0.3333333  -0.0004828   0.0047755), wk =   0.6666667
        k(    4) = (   0.3333333  -0.2865862   0.0021931), wk =   0.6666667

     Initial potential from superposition of free atoms

     starting charge  215.98107, renormalised to  216.00000

     negative rho (up, down):  2.248E-03 0.000E+00
     Starting wfcs are  204 randomized atomic wfcs

     Self-consistent Calculation

     iteration #  1     ecut=    45.00 Ry     beta= 0.70
     Davidson diagonalization with overlap
     ethr =  1.00E-02,  avg # of iterations =  2.5

     negative rho (up, down):  7.437E-04 0.000E+00

     total energy              =    -843.81409233 Ry
     Harris-Foulkes estimate   =    -846.53868298 Ry
     estimated scf accuracy    <       7.01737864 Ry

[...]

     iteration #  6     ecut=    45.00 Ry     beta= 0.70
     Davidson diagonalization with overlap
     c_bands:  1 eigenvalues not converged
     ethr =  6.03E-06,  avg # of iterations =  6.8

[...]

     iteration # 38     ecut=    45.00 Ry     beta= 0.70
     Davidson diagonalization with overlap
     c_bands:  2 eigenvalues not converged
     ethr =  1.19E-07,  avg # of iterations =  5.8

[...]

     total energy              =    -845.17146106 Ry
     Harris-Foulkes estimate   =    -845.17146301 Ry
     estimated scf accuracy    <       0.00000248 Ry

     iteration # 45     ecut=    45.00 Ry     beta= 0.70
     Davidson diagonalization with overlap
     ethr =  6.74E-10,  avg # of iterations =  1.0

[...]

     End of self-consistent calculation

          k = 0.0000 0.0000 0.0000 ( 76351 PWs)   bands (ev):

   -15.7684 -15.3905 -15.0122 -14.9999 -14.9603 -14.5776 -14.3514 -14.3175
   -14.2398 -14.2051 -14.0840 -14.0443 -14.0339 -14.0271 -14.0048 -13.9892
   -13.9326 -13.7749 -13.7592 -13.7332 -13.7184 -13.7119 -13.5823 -13.4939
    -7.4062  -7.3992  -7.3903  -7.2903  -7.2214  -7.2166  -7.0587  -6.8564
    -6.7841  -6.7648  -6.6277  -6.6036  -6.5577  -6.5533  -6.4714  -6.4552
    -6.4430  -6.1671  -6.0601  -6.0111  -5.7776  -5.7676  -5.7458  -5.5777
    -5.5415  -5.5206  -5.4952  -5.4233  -5.3693  -5.3283  -5.3151  -5.2974
    -5.2818  -5.2578  -5.2127  -4.9660  -4.9441  -4.8940  -4.8751  -4.7918
    -4.6601  -4.6481  -4.5794  -4.5752  -4.5707  -4.3715  -4.2824  -4.2680
    -4.2466  -4.1299  -4.1123  -3.7642  -3.6701  -3.6453  -3.5940  -3.5586
    -3.5329  -3.5091  -3.4707  -3.4533  -3.4203  -3.4092  -3.3857  -3.3311
    -3.2396  -3.1764  -3.0756  -3.0550  -2.7228  -2.6940  -2.6264  -2.5752
    -2.5228  -2.5073  -2.4693  -2.4293  -2.4012  -2.3861  -2.3291  -2.3126
    -2.2554  -1.8125  -1.7753  -1.7298  -1.4686  -1.2742  -0.7316  -0.6767
    -0.3040   0.0580   0.1261   0.2813   0.2877   0.2931   0.2976   0.2996
     0.3306   0.3460   0.4920   0.5467   0.6460   0.7829   0.7991   0.8159
     0.8293   0.8392

[...]

          k = 0.3333-0.2866 0.0022 ( 76417 PWs)   bands (ev):

   -15.3086 -15.2778 -15.1408 -14.7898 -14.6486 -14.6204 -14.6050 -14.4444
   -14.3676 -14.3329 -14.2048 -14.1868 -14.0483 -14.0175 -14.0076 -13.9325
   -13.9149 -13.8763 -13.8244 -13.8135 -13.7627 -13.6819 -13.6671 -13.6388
    -6.8832  -6.8561  -6.8426  -6.8149  -6.8130  -6.7944  -6.7663  -6.7503
    -6.7351  -6.7229  -6.7008  -6.6158  -6.5478  -6.5274  -6.4706  -6.2974
    -6.2690  -6.1221  -5.9362  -5.7986  -5.7068  -5.6949  -5.6835  -5.6273
    -5.5936  -5.5806  -5.5393  -5.4990  -5.4854  -5.4641  -5.4420  -5.2391
    -5.2040  -5.2027  -5.1942  -4.9455  -4.9211  -4.8805  -4.8615  -4.8113
    -4.7455  -4.7077  -4.5771  -4.5565  -4.5480  -4.5156  -4.5081  -4.4251
    -4.3251  -4.1350  -4.0811  -4.0319  -4.0110  -3.9677  -3.9535  -3.8785
    -3.8355  -3.8200  -3.7784  -3.6113  -3.5911  -3.5783  -3.3473  -3.3120
    -3.3004  -3.2692  -3.2593  -3.2356  -3.2264  -3.1191  -2.8037  -2.7814
    -2.6807  -2.6665  -2.4282  -2.3743  -2.3652  -2.2062  -2.1833  -2.1742
    -2.0972  -2.0911  -2.0789  -1.8204  -1.5671  -0.9131  -0.6709  -0.5069
    -0.4372  -0.4111   0.2034   0.2098   0.2599   0.2674   0.3247   0.3286
     0.3626   0.3757   0.4658   0.4905   0.5640   0.6245   0.6352   0.6595
     0.6655   0.6845

     the Fermi energy is    -1.6539 ev

!    total energy              =    -845.17145945 Ry
     Harris-Foulkes estimate   =    -845.17146131 Ry
     estimated scf accuracy    <       0.00000049 Ry

     The total energy is the sum of the following terms:

     one-electron contribution =   -8515.87657013 Ry
     hartree contribution      =    4316.67356628 Ry
     xc contribution           =    -333.84532965 Ry
     ewald contribution        =    3687.86341447 Ry
     smearing contrib. (-TS)   =       0.01345957 Ry

     convergence has been achieved in  45 iterations

     negative rho (up, down):  3.154E-03 0.000E+00

     Forces acting on atoms (cartesian axes, Ry/au):

     atom    1 type  1   force =    -0.00140858   -0.00433398   -0.00063129
     atom    2 type  1   force =     0.00102256    0.00009813   -0.00281611
     atom    3 type  1   force =     0.00180949   -0.00460318   -0.00073589
     atom    4 type  1   force =    -0.00059630   -0.00017951   -0.00326921
     atom    5 type  1   force =     0.00083433   -0.00227484   -0.00064313
     atom    6 type  1   force =    -0.00081451   -0.00165517    0.00026720
     atom    7 type  1   force =    -0.00040365    0.00205480    0.00143137
     atom    8 type  1   force =    -0.00006220    0.00255182    0.00092727
     atom    9 type  1   force =     0.01173670    0.00127064   -0.01661779
     atom   10 type  1   force =    -0.01258857    0.00639135   -0.02178303
     atom   11 type  1   force =    -0.00214138   -0.00131565    0.02078565
     atom   12 type  1   force =     0.00505559   -0.00789008    0.03065275
     atom   13 type  2   force =    -0.00033971    0.00355007   -0.00040140
     atom   14 type  2   force =    -0.00035077   -0.00097830   -0.00049099
     atom   15 type  2   force =    -0.00007464    0.00340097    0.00043639
     atom   16 type  2   force =    -0.00009163   -0.00120338   -0.00089288
     atom   17 type  2   force =    -0.00386614    0.03135905   -0.00691966
     atom   18 type  2   force =     0.00151317   -0.03017338    0.00621694
     atom   19 type  2   force =     0.00004192   -0.00151673   -0.00101197
     atom   20 type  2   force =     0.00050411   -0.00178805    0.00153975
     atom   21 type  2   force =    -0.00028341   -0.00176786   -0.00137113
     atom   22 type  2   force =    -0.00021569   -0.00171909    0.00129810
     atom   23 type  2   force =     0.00222106   -0.00785380   -0.02419386
     atom   24 type  2   force =    -0.00557745   -0.00568612   -0.01944144
     atom   25 type  2   force =     0.00023532    0.00058769   -0.00343975
     atom   26 type  2   force =     0.00007323   -0.00019469   -0.00397043
     atom   27 type  2   force =     0.00019732    0.00135234   -0.00030534
     atom   28 type  2   force =     0.00024209    0.00137095   -0.00067026
     atom   29 type  2   force =    -0.00038933    0.00369515    0.00047059
     atom   30 type  2   force =     0.00040975    0.00354196    0.00073395
     atom   31 type  2   force =    -0.00249036   -0.02661755    0.00499390
     atom   32 type  2   force =     0.00130479    0.00360650    0.01714155
     atom   33 type  2   force =    -0.00016238    0.00030395    0.00592111
     atom   34 type  2   force =    -0.00034151    0.00053113    0.00651455
     atom   35 type  2   force =     0.00108368    0.00466607    0.01430525
     atom   36 type  2   force =     0.00391309    0.03141883   -0.00403076

     Total force =     0.090637     Total SCF correction =     0.001478

     General routines

     Parallel routines

   This run was terminated on:  17:47:44   3Dec2021

   JOB DONE.