     Program PWSCF v.6.4 starts on 18Nov2021 at 16:58: 4

     R & G space division:  proc/nbgrp/npool/nimage =      40
     Waiting for input...
     Reading input from standard input
Warning: card    &IONS ignored
Warning: card      ION_DYNAMICS = 'BFGS' ignored
Warning: card   / ignored
Warning: card    &CELL ignored
Warning: card      CELL_DYNAMICS = 'BFGS', ignored
Warning: card    / ignored

     Current dimensions of program PWSCF are:
     Max number of different atomic species (ntypx) = 10
     Max number of k-points (npk) =  40000
     Max angular momentum in pseudopotentials (lmaxx) =  3

     bravais-lattice index     =            0
     lattice parameter (alat)  =      11.8109  a.u.
     unit-cell volume          =    3479.3777 (a.u.)^3
     number of atoms/cell      =           18
     number of atomic types    =            2
     number of electrons       =       108.00
     number of Kohn-Sham states=           65
     kinetic-energy cutoff     =      45.0000  Ry
     charge density cutoff     =     360.0000  Ry
     convergence threshold     =      1.0E-06
     mixing beta               =       0.7000
     number of iterations used =            8  local-TF  mixing
     Exchange-correlation      = SLA PW GGX GGC ( 1  4  2  2 0 0)

     celldm(1)=  11.810946  celldm(2)=   0.000000  celldm(3)=   0.000000
     celldm(4)=   0.000000  celldm(5)=   0.000000  celldm(6)=   0.000000

     crystal axes: (cart. coord. in units of alat)
               a(1) = (   1.000000   0.000000   0.000000 )
               a(2) = (   0.502589   0.907491   0.000000 )
               a(3) = (   0.213495   0.334534   2.327047 )

     reciprocal axes: (cart. coord. in units 2 pi/alat)
               b(1) = (  1.000000 -0.553823 -0.012128 )
               b(2) = (  0.000000  1.101939 -0.158414 )
               b(3) = (  0.000000  0.000000  0.429729 )

     PseudoPot. # 1 for Mo read from file:
     ~/pseudo/Mo.pw91-n-van.UPF
     MD5 check sum: Not computed, couldn't open file
     Pseudo is Ultrasoft + core correction, Zval =  6.0
     Generated by new atomic code, or converted to UPF format
     Using radial grid of  965 points,  3 beta functions with:
                l(1) =   1
                l(2) =   2
                l(3) =   2
     Q(r) pseudized with  8 coefficients,  rinner =    1.000   1.000   1.000
                                                       1.200   1.200

     PseudoPot. # 2 for S  read from file:
     ~/pseudo/S.pw91-van_ak.UPF
     MD5 check sum: Not computed, couldn't open file
     Pseudo is Ultrasoft, Zval =  6.0
     Generated by new atomic code, or converted to UPF format
     Using radial grid of  811 points,  6 beta functions with:
                l(1) =   0
                l(2) =   0
                l(3) =   1
                l(4) =   1
                l(5) =   2
                l(6) =   2
     Q(r) pseudized with  8 coefficients,  rinner =    1.100   1.100   1.100
                                                       1.100   1.100

     atomic species   valence    mass     pseudopotential
        Mo             6.00    95.50000     Mo( 1.00)
        S              6.00    32.06500     S ( 1.00)

     No symmetry found

   Cartesian axes

     site n.     atom                  positions (alat units)
         1           Mo  tau(   1) = (   0.5661148   0.5987375   0.8310130  )
         2           Mo  tau(   2) = (   0.3145223   0.1460950   0.8340681  )
         3           Mo  tau(   3) = (   1.0649497   0.5990759   0.8308928  )
         4           Mo  tau(   4) = (   0.8141471   0.1472783   0.8314091  )
         5           Mo  tau(   5) = (   1.0538850   0.2705505   1.7863851  )
         6           Mo  tau(   6) = (   0.5553508   0.2640758   1.7961628  )
         7           S   tau(   7) = (   0.3148368   0.4413317   0.5762169  )
         8           S   tau(   8) = (   0.5689307   0.9003596   0.5769914  )
         9           S   tau(   9) = (   0.8147557   0.4451608   0.5742032  )
        10           S   tau(  10) = (   1.0638935   0.9004703   0.5765705  )
        11           S   tau(  11) = (   0.8098938   1.0630728   1.5444646  )
        12           S   tau(  12) = (   1.3137744   0.9217843   1.8987412  )
        13           S   tau(  13) = (   0.3154213   0.4457781   1.0876475  )
        14           S   tau(  14) = (   0.5660663   0.8989517   1.0875262  )
        15           S   tau(  15) = (   0.8157723   0.4452384   1.0863390  )
        16           S   tau(  16) = (   1.0676284   0.8989706   1.0876038  )
        17           S   tau(  17) = (   0.2982465   0.3878823   2.0390023  )
        18           S   tau(  18) = (   0.8005507   0.5179781   1.6871895  )

     number of k points=     5  Marzari-Vanderbilt smearing, width (Ry)=  0.0200
                       cart. coord. in units 2pi/alat
        k(    1) = (   0.0000000   0.0000000   0.0000000), wk =   0.2222222
        k(    2) = (   0.0000000   0.3673131  -0.0528046), wk =   0.4444444
        k(    3) = (   0.3333333  -0.1846075  -0.0040426), wk =   0.4444444
        k(    4) = (   0.3333333   0.1827056  -0.0568472), wk =   0.4444444
        k(    5) = (   0.3333333  -0.5519206   0.0487619), wk =   0.4444444

     Initial potential from superposition of free atoms

     starting charge  107.99054, renormalised to  108.00000
     Starting wfcs are  102 randomized atomic wfcs

     Self-consistent Calculation

     iteration #  1     ecut=    45.00 Ry     beta= 0.70
     Davidson diagonalization with overlap
     ethr =  1.00E-02,  avg # of iterations =  2.4

     total energy              =    -421.85780517 Ry
     Harris-Foulkes estimate   =    -423.18455607 Ry
     estimated scf accuracy    <       3.39206023 Ry

[...]

     iteration # 17     ecut=    45.00 Ry     beta= 0.70
     Davidson diagonalization with overlap
     c_bands:  1 eigenvalues not converged
     ethr =  4.85E-07,  avg # of iterations = 13.6

[...]

     total energy              =    -422.52509552 Ry
     Harris-Foulkes estimate   =    -422.52509604 Ry
     estimated scf accuracy    <       0.00000151 Ry

     iteration # 29     ecut=    45.00 Ry     beta= 0.70
     Davidson diagonalization with overlap
     ethr =  1.40E-09,  avg # of iterations =  2.0

     End of self-consistent calculation

          k = 0.0000 0.0000 0.0000 ( 17709 PWs)   bands (ev):

   -10.9918  -9.9073  -9.7835  -9.3068  -9.2466  -9.1678  -9.1340  -9.1102
    -9.0643  -8.9934  -8.9037  -8.8907  -2.6830  -2.6224  -2.6161  -2.5079
    -1.9207  -1.7549  -1.7311  -1.6642  -1.0372  -0.9887  -0.9742  -0.7143
    -0.5301  -0.3900  -0.2983  -0.2457  -0.2198  -0.1891  -0.1554  -0.1281
     0.3166   0.3320   0.5939   0.6451   0.7983   1.0059   1.1137   1.1734
     1.2423   1.4389   1.5299   1.8369   1.8824   1.9961   2.0264   2.1994
     2.4241   2.4578   2.4688   2.8822   2.9057   2.9262   3.1864   4.2215
     4.6447   4.9874   5.0427   5.0711   5.1161   5.1981   5.5392   5.6295
     5.6648

[...]

          k = 0.3333-0.5519 0.0488 ( 17717 PWs)   bands (ev):

   -10.0361  -9.9977  -9.9293  -9.5227  -9.4030  -9.3700  -9.3160  -9.2616
    -9.2259  -9.0786  -8.9440  -8.7981  -2.2200  -1.8453  -1.7688  -1.7357
    -1.4836  -1.2357  -0.9560  -0.8329  -0.8220  -0.7769  -0.7494  -0.6814
    -0.6213  -0.5711  -0.5454  -0.5061  -0.4517  -0.3985  -0.3196  -0.2522
    -0.1297  -0.0976  -0.0138   0.1064   0.2300   0.3801   0.7205   0.7536
     0.9923   1.1178   1.1468   1.2202   1.3055   1.9127   1.9266   1.9827
     2.1665   2.2607   2.2755   2.8869   3.0105   3.1111   3.8736   4.6781
     4.7013   4.7111   4.8113   4.8229   4.8973   4.9776   5.2795   5.3116
     5.3889

     the Fermi energy is     3.1944 ev

!    total energy              =    -422.52509554 Ry
     Harris-Foulkes estimate   =    -422.52509592 Ry
     estimated scf accuracy    <       0.00000039 Ry

     The total energy is the sum of the following terms:

     one-electron contribution =    -455.41866859 Ry
     hartree contribution      =     276.20997811 Ry
     xc contribution           =    -166.65367106 Ry
     ewald contribution        =     -76.66823479 Ry
     smearing contrib. (-TS)   =       0.00550079 Ry

     convergence has been achieved in  29 iterations

     Forces acting on atoms (cartesian axes, Ry/au):

     atom    1 type  1   force =    -0.00442198   -0.00047491   -0.00134543
     atom    2 type  1   force =    -0.00110704   -0.00510585   -0.00130335
     atom    3 type  1   force =     0.00399753   -0.00194697   -0.00161486
     atom    4 type  1   force =     0.00122609   -0.01037313   -0.00388601
     atom    5 type  1   force =     0.00448240   -0.00558051    0.01807078
     atom    6 type  1   force =    -0.00696053    0.00564108    0.00822763
     atom    7 type  2   force =     0.00090799    0.01051093    0.00966485
     atom    8 type  2   force =    -0.00623131   -0.00120725    0.00870462
     atom    9 type  2   force =     0.00106416    0.00246559    0.01017573
     atom   10 type  2   force =     0.00722055   -0.00112520    0.00915307
     atom   11 type  2   force =     0.00395694    0.00088952   -0.00348833
     atom   12 type  2   force =    -0.00313839    0.00588555    0.00121457
     atom   13 type  2   force =    -0.00020052    0.00477046   -0.01179123
     atom   14 type  2   force =    -0.00180023   -0.00066344   -0.01173043
     atom   15 type  2   force =    -0.00122126    0.00324888   -0.00706316
     atom   16 type  2   force =     0.00102711   -0.00042989   -0.01085528
     atom   17 type  2   force =     0.00650877   -0.01156479   -0.00387207
     atom   18 type  2   force =    -0.00531028    0.00505993   -0.00826110

     Total force =     0.046513     Total SCF correction =     0.001196

     General routines

     Parallel routines

   This run was terminated on:  16:59: 5  18Nov2021

   JOB DONE.