     Program PWSCF v.6.4 starts on 24Dec2021 at  0:32:13

     R & G space division:  proc/nbgrp/npool/nimage =      40
     Waiting for input...
     Reading input from standard input
Warning: card    &IONS ignored
Warning: card      ION_DYNAMICS = 'BFGS' ignored
Warning: card   / ignored
Warning: card    &CELL ignored
Warning: card      CELL_DYNAMICS = 'BFGS', ignored
Warning: card    / ignored

     Current dimensions of program PWSCF are:
     Max number of different atomic species (ntypx) = 10
     Max number of k-points (npk) =  40000
     Max angular momentum in pseudopotentials (lmaxx) =  3

     bravais-lattice index     =            0
     lattice parameter (alat)  =      17.1296  a.u.
     unit-cell volume          =    6066.2861 (a.u.)^3
     number of atoms/cell      =           27
     number of atomic types    =            2
     number of electrons       =       162.00
     number of Kohn-Sham states=           97
     kinetic-energy cutoff     =      45.0000  Ry
     charge density cutoff     =     360.0000  Ry
     convergence threshold     =      1.0E-06
     mixing beta               =       0.7000
     number of iterations used =            8  local-TF  mixing
     Exchange-correlation      = SLA PW GGX GGC ( 1  4  2  2 0 0)

     celldm(1)=  17.129571  celldm(2)=   0.000000  celldm(3)=   0.000000
     celldm(4)=   0.000000  celldm(5)=   0.000000  celldm(6)=   0.000000

     crystal axes: (cart. coord. in units of alat)
               a(1) = (   1.000000   0.000000   0.000000 )
               a(2) = (  -0.245015   1.036159   0.000000 )
               a(3) = (  -0.200890  -0.537694   1.164815 )

     reciprocal axes: (cart. coord. in units 2 pi/alat)
               b(1) = (  1.000000  0.236465  0.281621 )
               b(2) = (  0.000000  0.965103  0.445505 )
               b(3) = (  0.000000  0.000000  0.858505 )

     PseudoPot. # 1 for Mo read from file:
     ~/pseudo/Mo.pw91-n-van.UPF
     MD5 check sum: Not computed, couldn't open file
     Pseudo is Ultrasoft + core correction, Zval =  6.0
     Generated by new atomic code, or converted to UPF format
     Using radial grid of  965 points,  3 beta functions with:
                l(1) =   1
                l(2) =   2
                l(3) =   2
     Q(r) pseudized with  8 coefficients,  rinner =    1.000   1.000   1.000
                                                       1.200   1.200

     PseudoPot. # 2 for S  read from file:
     ~/pseudo/S.pw91-van_ak.UPF
     MD5 check sum: Not computed, couldn't open file
     Pseudo is Ultrasoft, Zval =  6.0
     Generated by new atomic code, or converted to UPF format
     Using radial grid of  811 points,  6 beta functions with:
                l(1) =   0
                l(2) =   0
                l(3) =   1
                l(4) =   1
                l(5) =   2
                l(6) =   2
     Q(r) pseudized with  8 coefficients,  rinner =    1.100   1.100   1.100
                                                       1.100   1.100

     atomic species   valence    mass     pseudopotential
        Mo             6.00    95.50000     Mo( 1.00)
        S              6.00    32.06500     S ( 1.00)

     No symmetry found

   Cartesian axes

     site n.     atom                  positions (alat units)
         1           Mo  tau(   1) = (   0.0171771   0.4245461   0.5338073  )
         2           Mo  tau(   2) = (   0.1201983   0.4200881   0.8237811  )
         3           Mo  tau(   3) = (   0.3890617  -0.0262615   0.0575235  )
         4           Mo  tau(   4) = (   0.7702117   0.5507558   0.3349361  )
         5           Mo  tau(   5) = (   0.3193490   0.0786974   0.3293196  )
         6           Mo  tau(   6) = (  -0.0447342   0.8294291   0.2362433  )
         7           Mo  tau(   7) = (   0.6994830   0.3945526   0.5937071  )
         8           Mo  tau(   8) = (   0.5495642   0.3024503   0.3413034  )
         9           Mo  tau(   9) = (   0.3658550   0.3606436   0.6197544  )
        10           S   tau(  10) = (   0.1533611   0.0398490   0.1310141  )
        11           S   tau(  11) = (   0.5639357   0.0413839   0.2356861  )
        12           S   tau(  12) = (   0.5457931   0.4766284   0.7974445  )
        13           S   tau(  13) = (  -0.1602311   0.6302386   0.5896595  )
        14           S   tau(  14) = (   0.0334240   0.5640649   0.2920074  )
        15           S   tau(  15) = (   0.2043270   0.5799774   0.6436197  )
        16           S   tau(  16) = (   0.5556646   0.1594882   0.5763162  )
        17           S   tau(  17) = (  -0.1675731   0.2751120   0.3722688  )
        18           S   tau(  18) = (   0.0810230   0.7694999   0.0119004  )
        19           S   tau(  19) = (   0.1697254   0.1905109   0.5302809  )
        20           S   tau(  20) = (   0.3279177  -0.1535444   0.4556298  )
        21           S   tau(  21) = (   0.5075804   0.5483793   0.4552128  )
        22           S   tau(  22) = (  -0.0906939   0.2942732   0.7452426  )
        23           S   tau(  23) = (   0.6999402   0.8040672   0.2806313  )
        24           S   tau(  24) = (   0.3026864   0.3409951   0.2456681  )
        25           S   tau(  25) = (   0.2907813  -0.4589304   1.0115285  )
        26           S   tau(  26) = (   0.6362424   0.4476404   0.1246524  )
        27           S   tau(  27) = (   0.3047584   0.2460923   0.8597703  )

     number of k points=     8  Marzari-Vanderbilt smearing, width (Ry)=  0.0200
                       cart. coord. in units 2pi/alat
        k(    1) = (   0.0000000   0.0000000   0.0000000), wk =   0.2500000
        k(    2) = (   0.0000000   0.0000000  -0.4292526), wk =   0.2500000
        k(    3) = (   0.0000000  -0.4825515  -0.2227523), wk =   0.2500000
        k(    4) = (   0.0000000  -0.4825515  -0.6520049), wk =   0.2500000
        k(    5) = (  -0.5000000  -0.1182323  -0.1408103), wk =   0.2500000
        k(    6) = (  -0.5000000  -0.1182323  -0.5700630), wk =   0.2500000
        k(    7) = (  -0.5000000  -0.6007838  -0.3635626), wk =   0.2500000
        k(    8) = (  -0.5000000  -0.6007838  -0.7928152), wk =   0.2500000

     Initial potential from superposition of free atoms

     starting charge  161.98581, renormalised to  162.00000
     Starting wfcs are  153 randomized atomic wfcs

     Self-consistent Calculation

     iteration #  1     ecut=    45.00 Ry     beta= 0.70
     Davidson diagonalization with overlap
     ethr =  1.00E-02,  avg # of iterations =  2.0

     total energy              =    -631.88364349 Ry
     Harris-Foulkes estimate   =    -634.40991421 Ry
     estimated scf accuracy    <       6.73713473 Ry

[...]

     negative rho (up, down):  1.997E-08 0.000E+00

[...]

     total energy              =    -633.19583041 Ry
     Harris-Foulkes estimate   =    -633.19582978 Ry
     estimated scf accuracy    <       0.00000261 Ry

     iteration # 14     ecut=    45.00 Ry     beta= 0.70
     Davidson diagonalization with overlap
     ethr =  1.61E-09,  avg # of iterations =  2.1

[...]

     End of self-consistent calculation

          k = 0.0000 0.0000 0.0000 ( 30983 PWs)   bands (ev):

   -11.6967 -11.1924 -10.9974 -10.9537 -10.9141 -10.8063 -10.6960 -10.5685
   -10.5016 -10.4649 -10.3863 -10.2516 -10.2473 -10.1633  -9.9796  -9.8695
    -9.6927  -9.5538  -3.4846  -3.3572  -3.2937  -3.1730  -3.1268  -2.9796
    -2.8882  -2.6950  -2.6582  -2.5239  -2.4760  -2.3550  -2.3252  -2.2314
    -2.1758  -2.1487  -2.0898  -1.9238  -1.8947  -1.8668  -1.8063  -1.6949
    -1.6690  -1.6023  -1.5460  -1.4832  -1.3582  -1.3484  -1.3177  -1.2813
    -1.2062  -1.1295  -1.0282  -0.9761  -0.9269  -0.8592  -0.6893  -0.6441
    -0.5873  -0.5231  -0.4510  -0.3828  -0.2839  -0.1764  -0.1448   0.0238
     0.1934   0.3633   0.4604   0.6659   0.7035   0.8732   0.8793   0.9419
     1.1779   1.2095   1.3559   1.4544   1.5691   1.5996   1.7008   1.7918
     1.8711   2.0457   2.1212   2.3178   2.4573   2.5241   2.7599   2.8411
     3.0312   3.0682   3.1793   3.2430   3.3905   3.4706   3.5905   3.6861
     3.8367

[...]

          k = 0.0000-0.4826-0.6520 ( 30902 PWs)   bands (ev):

[...]

          k =-0.5000-0.1182-0.1408 ( 30962 PWs)   bands (ev):

[...]

          k =-0.5000-0.6008-0.7928 ( 30908 PWs)   bands (ev):

   -11.4965 -11.3629 -11.2000 -10.9611 -10.8499 -10.7691 -10.6988 -10.5980
   -10.4955 -10.4242 -10.3475 -10.3144 -10.2163 -10.1338 -10.0008  -9.8378
    -9.6586  -9.5559  -3.5264  -3.4445  -3.2963  -3.0512  -3.0214  -2.9057
    -2.8017  -2.7295  -2.6372  -2.6041  -2.4271  -2.4091  -2.3402  -2.2871
    -2.2540  -2.1600  -2.0379  -2.0184  -1.9966  -1.8841  -1.8390  -1.7280
    -1.6832  -1.6228  -1.5490  -1.4982  -1.4340  -1.4107  -1.3062  -1.1934
    -1.1305  -1.1014  -1.0388  -0.9658  -0.8837  -0.8123  -0.7192  -0.6389
    -0.6000  -0.4743  -0.4019  -0.2766  -0.2245  -0.1118  -0.0186   0.0708
     0.2227   0.2741   0.3880   0.4538   0.6621   0.6837   0.9198   0.9913
     1.1643   1.2097   1.2887   1.4526   1.5470   1.6983   1.7448   1.8080
     1.9206   2.0629   2.1529   2.3185   2.4521   2.5866   2.7340   2.8186
     2.8610   3.0362   3.1575   3.2201   3.4413   3.5358   3.6136   3.6839
     3.7962

     the Fermi energy is     1.9860 ev

!    total energy              =    -633.19583053 Ry
     Harris-Foulkes estimate   =    -633.19583067 Ry
     estimated scf accuracy    <       0.00000061 Ry

     The total energy is the sum of the following terms:

     one-electron contribution =    -530.21751672 Ry
     hartree contribution      =     330.41900924 Ry
     xc contribution           =    -249.21309902 Ry
     ewald contribution        =    -184.18653919 Ry
     smearing contrib. (-TS)   =       0.00231516 Ry

     convergence has been achieved in  14 iterations

     negative rho (up, down):  4.025E-07 0.000E+00

     Forces acting on atoms (cartesian axes, Ry/au):

     atom    1 type  1   force =    -0.01723747   -0.00814269   -0.01281467
     atom    2 type  1   force =     0.00611162   -0.01158038    0.03175942
     atom    3 type  1   force =     0.01021828   -0.00064164   -0.04052738
     atom    4 type  1   force =     0.03405381   -0.05077406   -0.01075353
     atom    5 type  1   force =     0.00017862    0.00672413    0.02725378
     atom    6 type  1   force =    -0.00561611    0.00636746    0.06511897
     atom    7 type  1   force =    -0.06742191    0.04256899    0.00525637
     atom    8 type  1   force =    -0.00653025    0.05875442   -0.00115135
     atom    9 type  1   force =     0.01097729    0.01901017   -0.01221568
     atom   10 type  2   force =    -0.02412287    0.00391308    0.00607623
     atom   11 type  2   force =    -0.00594562   -0.01818020   -0.01392691
     atom   12 type  2   force =     0.00846541   -0.03042474   -0.02283110
     atom   13 type  2   force =     0.01397756   -0.02043733    0.00459434
     atom   14 type  2   force =    -0.02568759    0.00847001   -0.00585594
     atom   15 type  2   force =     0.00661302    0.00116463   -0.00381140
     atom   16 type  2   force =    -0.00999887    0.00749104   -0.00885069
     atom   17 type  2   force =    -0.00239809    0.02524166    0.00660579
     atom   18 type  2   force =     0.02581776   -0.00640735   -0.00178000
     atom   19 type  2   force =     0.00059783   -0.00064705   -0.00075612
     atom   20 type  2   force =    -0.02350355   -0.00285517   -0.02084565
     atom   21 type  2   force =     0.00598771   -0.04637995    0.01145228
     atom   22 type  2   force =     0.00337442   -0.00079417    0.00377633
     atom   23 type  2   force =     0.03304232    0.00711562   -0.01998797
     atom   24 type  2   force =     0.03877211   -0.02699600    0.01011328
     atom   25 type  2   force =     0.00317547    0.00467930   -0.01133151
     atom   26 type  2   force =     0.01439116    0.00627374    0.02657353
     atom   27 type  2   force =    -0.02729204    0.02648649   -0.01114043

     Total force =     0.196535     Total SCF correction =     0.001335

     General routines

     Parallel routines

   This run was terminated on:   0:34: 0  24Dec2021

   JOB DONE.