     Program PWSCF v.6.4 starts on  6Oct2021 at 12:18:52

     R & G space division:  proc/nbgrp/npool/nimage =      40
     Waiting for input...
     Reading input from standard input
Warning: card    &IONS ignored
Warning: card      ION_DYNAMICS = 'BFGS' ignored
Warning: card   / ignored
Warning: card    &CELL ignored
Warning: card      CELL_DYNAMICS = 'BFGS', ignored
Warning: card    / ignored

     Current dimensions of program PWSCF are:
     Max number of different atomic species (ntypx) = 10
     Max number of k-points (npk) =  40000
     Max angular momentum in pseudopotentials (lmaxx) =  3

     bravais-lattice index     =            0
     lattice parameter (alat)  =      11.3018  a.u.
     unit-cell volume          =    3524.2609 (a.u.)^3
     number of atoms/cell      =           12
     number of atomic types    =            2
     number of electrons       =        72.00
     number of Kohn-Sham states=           43
     kinetic-energy cutoff     =      45.0000  Ry
     charge density cutoff     =     360.0000  Ry
     convergence threshold     =      1.0E-06
     mixing beta               =       0.7000
     number of iterations used =            8  local-TF  mixing
     Exchange-correlation      = SLA PW GGX GGC ( 1  4  2  2 0 0)

     celldm(1)=  11.301838  celldm(2)=   0.000000  celldm(3)=   0.000000
     celldm(4)=   0.000000  celldm(5)=   0.000000  celldm(6)=   0.000000

     crystal axes: (cart. coord. in units of alat)
               a(1) = (   1.000000   0.000000   0.000000 )
               a(2) = (  -0.529596   0.992734   0.000000 )
               a(3) = (  -0.192187  -0.522147   2.459165 )

     reciprocal axes: (cart. coord. in units 2 pi/alat)
               b(1) = (  1.000000  0.533472  0.191422 )
               b(2) = (  0.000000  1.007319  0.213881 )
               b(3) = (  0.000000  0.000000  0.406642 )

     PseudoPot. # 1 for Mo read from file:
     ~/pseudo/Mo.pw91-n-van.UPF
     MD5 check sum: Not computed, couldn't open file
     Pseudo is Ultrasoft + core correction, Zval =  6.0
     Generated by new atomic code, or converted to UPF format
     Using radial grid of  965 points,  3 beta functions with:
                l(1) =   1
                l(2) =   2
                l(3) =   2
     Q(r) pseudized with  8 coefficients,  rinner =    1.000   1.000   1.000
                                                       1.200   1.200

     PseudoPot. # 2 for S  read from file:
     ~/pseudo/S.pw91-van_ak.UPF
     MD5 check sum: Not computed, couldn't open file
     Pseudo is Ultrasoft, Zval =  6.0
     Generated by new atomic code, or converted to UPF format
     Using radial grid of  811 points,  6 beta functions with:
                l(1) =   0
                l(2) =   0
                l(3) =   1
                l(4) =   1
                l(5) =   2
                l(6) =   2
     Q(r) pseudized with  8 coefficients,  rinner =    1.100   1.100   1.100
                                                       1.100   1.100

     atomic species   valence    mass     pseudopotential
        Mo             6.00    95.50000     Mo( 1.00)
        S              6.00    32.06500     S ( 1.00)

     No symmetry found

   Cartesian axes

     site n.     atom                  positions (alat units)
         1           Mo  tau(   1) = (   0.3149242   0.9708296  -0.0236014  )
         2           Mo  tau(   2) = (  -0.1777771   0.9359238   0.0139517  )
         3           Mo  tau(   3) = (  -0.1359058   0.4488824   0.0373139  )
         4           Mo  tau(   4) = (   0.3570644   0.4833392  -0.0009498  )
         5           S   tau(   5) = (  -0.0561089  -0.3207040   2.2252804  )
         6           S   tau(   6) = (   0.4496086  -0.2683215   2.2093286  )
         7           S   tau(   7) = (  -0.1325794   0.1664707   2.2214618  )
         8           S   tau(   8) = (   0.3533312   0.2254712   2.2019925  )
         9           S   tau(   9) = (   0.0668375   0.1728712   0.2632092  )
        10           S   tau(  10) = (   0.5720927   0.2254748   0.2468579  )
        11           S   tau(  11) = (   0.1194755   0.7307523   0.2509893  )
        12           S   tau(  12) = (   0.6336188   0.6720552   0.2703897  )

     number of k points=     5  Marzari-Vanderbilt smearing, width (Ry)=  0.0200
                       cart. coord. in units 2pi/alat
        k(    1) = (   0.0000000   0.0000000   0.0000000), wk =   0.2222222
        k(    2) = (   0.0000000   0.3357729   0.0712936), wk =   0.4444444
        k(    3) = (   0.3333333   0.1778240   0.0638072), wk =   0.4444444
        k(    4) = (   0.3333333   0.5135969   0.1351008), wk =   0.4444444
        k(    5) = (   0.3333333  -0.1579489  -0.0074864), wk =   0.4444444

     Initial potential from superposition of free atoms

     starting charge   71.99369, renormalised to   72.00000

     negative rho (up, down):  4.158E-04 0.000E+00
     Starting wfcs are   68 randomized atomic wfcs

     Self-consistent Calculation

     iteration #  1     ecut=    45.00 Ry     beta= 0.70
     Davidson diagonalization with overlap
     ethr =  1.00E-02,  avg # of iterations =  2.8

     negative rho (up, down):  7.188E-06 0.000E+00

     total energy              =    -280.99924127 Ry
     Harris-Foulkes estimate   =    -281.87820242 Ry
     estimated scf accuracy    <       2.23840083 Ry

[...]

     total energy              =    -281.46553147 Ry
     Harris-Foulkes estimate   =    -281.46553123 Ry
     estimated scf accuracy    <       0.00000163 Ry

     iteration # 14     ecut=    45.00 Ry     beta= 0.70
     Davidson diagonalization with overlap
     ethr =  2.26E-09,  avg # of iterations =  1.0

[...]

     End of self-consistent calculation

          k = 0.0000 0.0000 0.0000 ( 17943 PWs)   bands (ev):

   -14.6129 -13.3581 -12.7376 -12.4770 -12.4706 -12.4472 -11.9550 -11.7435
    -6.5180  -5.8881  -5.7086  -5.6724  -5.3248  -5.2016  -5.0342  -4.4067
    -4.1354  -3.6879  -3.4166  -3.2720  -2.9931  -2.9684  -2.4564  -2.3820
    -2.2540  -1.9953  -1.8403  -1.8025  -1.6325  -1.0760  -0.8016  -0.7638
    -0.7463  -0.2469   0.1097   0.4313   0.9717   1.1860   1.2909   1.7130
     1.9034   2.3838   2.3866

[...]

          k = 0.3333-0.1579-0.0075 ( 17984 PWs)   bands (ev):

   -14.1985 -13.3774 -12.9708 -12.7614 -12.4788 -12.4201 -12.2363 -11.7604
    -6.0628  -5.4466  -5.3579  -5.1547  -4.9896  -4.7152  -4.5333  -4.3609
    -4.1530  -3.9115  -3.7808  -3.4232  -3.3624  -3.1231  -2.6746  -2.5049
    -2.4137  -2.0642  -1.9857  -1.8229  -1.5270  -1.2789  -1.2555  -0.8520
    -0.7511  -0.6833  -0.2623   0.1817   0.7068   0.8484   1.4941   1.6511
     2.0973   2.2588   2.3693

     the Fermi energy is     0.4813 ev

!    total energy              =    -281.46553147 Ry
     Harris-Foulkes estimate   =    -281.46553153 Ry
     estimated scf accuracy    <       0.00000065 Ry

     The total energy is the sum of the following terms:

     one-electron contribution =   -1044.87317951 Ry
     hartree contribution      =     546.47172025 Ry
     xc contribution           =    -111.49587328 Ry
     ewald contribution        =     328.42970964 Ry
     smearing contrib. (-TS)   =       0.00209142 Ry

     convergence has been achieved in  14 iterations

     negative rho (up, down):  6.039E-04 0.000E+00

     Forces acting on atoms (cartesian axes, Ry/au):

     atom    1 type  1   force =    -0.00890298    0.00390832    0.00555334
     atom    2 type  1   force =    -0.01844202    0.01210005    0.01278429
     atom    3 type  1   force =     0.00955592   -0.00517824   -0.00709413
     atom    4 type  1   force =     0.01768694   -0.01131771   -0.01282818
     atom    5 type  2   force =     0.01660009    0.00856453   -0.00399759
     atom    6 type  2   force =    -0.00259015   -0.00033098   -0.00019676
     atom    7 type  2   force =    -0.00657123    0.01584363   -0.00774479
     atom    8 type  2   force =    -0.00104838   -0.02531085    0.00557628
     atom    9 type  2   force =     0.00244093    0.00060105    0.00025785
     atom   10 type  2   force =    -0.01567794   -0.00882698    0.00481701
     atom   11 type  2   force =     0.00625584   -0.01545268    0.00800262
     atom   12 type  2   force =     0.00069298    0.02539986   -0.00512995

     Total force =     0.065691     Total SCF correction =     0.001228

     General routines

     Parallel routines

   This run was terminated on:  12:19:16   6Oct2021

   JOB DONE.