     Program PWSCF v.6.4 starts on 24Dec2021 at 20: 6: 0

     R & G space division:  proc/nbgrp/npool/nimage =      40
     Waiting for input...
     Reading input from standard input
Warning: card    &IONS ignored
Warning: card      ION_DYNAMICS = 'BFGS' ignored
Warning: card   / ignored
Warning: card    &CELL ignored
Warning: card      CELL_DYNAMICS = 'BFGS', ignored
Warning: card    / ignored

     Current dimensions of program PWSCF are:
     Max number of different atomic species (ntypx) = 10
     Max number of k-points (npk) =  40000
     Max angular momentum in pseudopotentials (lmaxx) =  3

     bravais-lattice index     =            0
     lattice parameter (alat)  =      18.6494  a.u.
     unit-cell volume          =    6298.3337 (a.u.)^3
     number of atoms/cell      =           42
     number of atomic types    =            2
     number of electrons       =       252.00
     number of Kohn-Sham states=          151
     kinetic-energy cutoff     =      45.0000  Ry
     charge density cutoff     =     360.0000  Ry
     convergence threshold     =      1.0E-06
     mixing beta               =       0.7000
     number of iterations used =            8  local-TF  mixing
     Exchange-correlation      = SLA PW GGX GGC ( 1  4  2  2 0 0)

     celldm(1)=  18.649359  celldm(2)=   0.000000  celldm(3)=   0.000000
     celldm(4)=   0.000000  celldm(5)=   0.000000  celldm(6)=   0.000000

     crystal axes: (cart. coord. in units of alat)
               a(1) = (   1.000000   0.000000   0.000000 )
               a(2) = (  -0.021511   0.988381   0.000000 )
               a(3) = (   0.002939   0.018370   0.982448 )

     reciprocal axes: (cart. coord. in units 2 pi/alat)
               b(1) = (  1.000000  0.021764 -0.003398 )
               b(2) = (  0.000000  1.011756 -0.018918 )
               b(3) = (  0.000000  0.000000  1.017865 )

     PseudoPot. # 1 for Mo read from file:
     ~/pseudo/Mo.pw91-n-van.UPF
     MD5 check sum: Not computed, couldn't open file
     Pseudo is Ultrasoft + core correction, Zval =  6.0
     Generated by new atomic code, or converted to UPF format
     Using radial grid of  965 points,  3 beta functions with:
                l(1) =   1
                l(2) =   2
                l(3) =   2
     Q(r) pseudized with  8 coefficients,  rinner =    1.000   1.000   1.000
                                                       1.200   1.200

     PseudoPot. # 2 for S  read from file:
     ~/pseudo/S.pw91-van_ak.UPF
     MD5 check sum: Not computed, couldn't open file
     Pseudo is Ultrasoft, Zval =  6.0
     Generated by new atomic code, or converted to UPF format
     Using radial grid of  811 points,  6 beta functions with:
                l(1) =   0
                l(2) =   0
                l(3) =   1
                l(4) =   1
                l(5) =   2
                l(6) =   2
     Q(r) pseudized with  8 coefficients,  rinner =    1.100   1.100   1.100
                                                       1.100   1.100

     atomic species   valence    mass     pseudopotential
        Mo             6.00    95.50000     Mo( 1.00)
        S              6.00    32.06500     S ( 1.00)

     No symmetry found

   Cartesian axes

     site n.     atom                  positions (alat units)
         1           Mo  tau(   1) = (   0.6018360   0.8836992   0.3944752  )
         2           Mo  tau(   2) = (   0.8703856   0.6094817   0.3891371  )
         3           Mo  tau(   3) = (   0.7881593   0.8201943   0.1665590  )
         4           Mo  tau(   4) = (   0.5842852   0.5889255   0.1065144  )
         5           Mo  tau(   5) = (   0.5857451   0.4018801   0.8696493  )
         6           Mo  tau(   6) = (   0.7985638   0.1692458   0.8384271  )
         7           Mo  tau(   7) = (   0.8867052   0.4109983   0.6024330  )
         8           Mo  tau(   8) = (   0.6002584   0.1242615   0.6100079  )
         9           Mo  tau(   9) = (   0.3749100   0.6078051   0.8647356  )
        10           Mo  tau(  10) = (   0.3876132   0.8835570   0.6141079  )
        11           Mo  tau(  11) = (   0.1113150   0.6181420   0.6068019  )
        12           Mo  tau(  12) = (   0.1087824   0.4268415   0.3852458  )
        13           Mo  tau(  13) = (   0.4193699   0.1135406   0.3823145  )
        14           Mo  tau(  14) = (   0.3863398   0.3840958   0.1114720  )
        15           S   tau(  15) = (   0.8552634   0.8731412   0.3949072  )
        16           S   tau(  16) = (   0.6155233   0.6301563   0.3626945  )
        17           S   tau(  17) = (   0.6194535   0.6412217   0.8573869  )
        18           S   tau(  18) = (   0.1282276   0.3593176   0.1479235  )
        19           S   tau(  19) = (   0.8645268   0.6594660   0.6345690  )
        20           S   tau(  20) = (   0.6309747   0.8744897   0.6448303  )
        21           S   tau(  21) = (   0.3624794   0.6241792   0.6191057  )
        22           S   tau(  22) = (   0.8483573   0.4015082   0.8483991  )
        23           S   tau(  23) = (   0.5680324   0.1417079   0.8564813  )
        24           S   tau(  24) = (   0.6484910   0.1324349   0.3691174  )
        25           S   tau(  25) = (   0.8711893   0.3669712   0.3632473  )
        26           S   tau(  26) = (   0.8773611   0.9926723   0.0129171  )
        27           S   tau(  27) = (   0.6187355   0.3534254   0.1361502  )
        28           S   tau(  28) = (   0.1271738   0.8733882   0.6357812  )
        29           S   tau(  29) = (   0.5727658   0.8492207   0.1356953  )
        30           S   tau(  30) = (   0.3407479   0.8621623   0.8580008  )
        31           S   tau(  31) = (   0.1113202   0.6573212   0.3647870  )
        32           S   tau(  32) = (   0.3536109   0.8657202   0.3614940  )
        33           S   tau(  33) = (   0.3535771   0.6187367   0.1326794  )
        34           S   tau(  34) = (   0.8409948   0.5962861   0.1266992  )
        35           S   tau(  35) = (   0.3560855   0.3561952   0.3715550  )
        36           S   tau(  36) = (   0.6270116   0.3818043   0.6267251  )
        37           S   tau(  37) = (   0.1199127   0.6357081   0.8512716  )
        38           S   tau(  38) = (   0.3478856   0.1267413   0.1574446  )
        39           S   tau(  39) = (   0.3421038   0.3701633   0.8613450  )
        40           S   tau(  40) = (   0.3562715   0.1369279   0.6132040  )
        41           S   tau(  41) = (   0.1185694   0.3659617   0.6254433  )
        42           S   tau(  42) = (   0.8645058   0.1473797   0.6134526  )

     number of k points=     8  Marzari-Vanderbilt smearing, width (Ry)=  0.0200
                       cart. coord. in units 2pi/alat
        k(    1) = (   0.0000000   0.0000000   0.0000000), wk =   0.2500000
        k(    2) = (   0.0000000   0.0000000  -0.5089327), wk =   0.2500000
        k(    3) = (   0.0000000  -0.5058778   0.0094592), wk =   0.2500000
        k(    4) = (   0.0000000  -0.5058778  -0.4994735), wk =   0.2500000
        k(    5) = (  -0.5000000  -0.0108818   0.0016990), wk =   0.2500000
        k(    6) = (  -0.5000000  -0.0108818  -0.5072337), wk =   0.2500000
        k(    7) = (  -0.5000000  -0.5167596   0.0111582), wk =   0.2500000
        k(    8) = (  -0.5000000  -0.5167596  -0.4977745), wk =   0.2500000

     Initial potential from superposition of free atoms

     starting charge  251.97792, renormalised to  252.00000
     Starting wfcs are  238 randomized atomic wfcs

     Self-consistent Calculation

     iteration #  1     ecut=    45.00 Ry     beta= 0.70
     Davidson diagonalization with overlap
     ethr =  1.00E-02,  avg # of iterations =  2.0

     total energy              =    -983.34817636 Ry
     Harris-Foulkes estimate   =    -987.12600057 Ry
     estimated scf accuracy    <      10.28586456 Ry

[...]

     total energy              =    -985.34089073 Ry
     Harris-Foulkes estimate   =    -985.34089117 Ry
     estimated scf accuracy    <       0.00000339 Ry

     iteration # 14     ecut=    45.00 Ry     beta= 0.70
     Davidson diagonalization with overlap
     ethr =  1.34E-09,  avg # of iterations =  1.0

     End of self-consistent calculation

          k = 0.0000 0.0000 0.0000 ( 32117 PWs)   bands (ev):

    -8.2893  -7.7516  -7.6010  -7.5728  -7.5118  -7.4114  -7.2483  -7.1559
    -7.1004  -7.0579  -7.0536  -6.9903  -6.9547  -6.9378  -6.8205  -6.7872
    -6.7646  -6.7040  -6.6473  -6.5926  -6.4244  -6.3600  -6.2076  -6.1577
    -5.8619  -5.7600  -5.6499  -5.5122  -0.1040  -0.0621  -0.0377   0.0483
     0.3284   0.4411   0.4587   0.6151   0.6714   0.7153   0.7373   0.8192
     0.8769   0.9089   0.9984   1.1229   1.1975   1.3219   1.4195   1.4601
     1.4791   1.5299   1.5633   1.5846   1.6402   1.6794   1.7417   1.7586
     1.7824   1.8349   1.8633   1.8935   1.9373   2.0083   2.0273   2.0865
     2.1384   2.1827   2.1999   2.2214   2.2861   2.2960   2.3209   2.3493
     2.4214   2.4826   2.5026   2.5117   2.5330   2.5822   2.6450   2.7107
     2.7726   2.8161   2.8465   2.9223   2.9590   2.9913   3.0555   3.0710
     3.1685   3.1903   3.2444   3.2899   3.3873   3.4915   3.5900   3.6961
     3.7444   3.8232   3.8920   3.9879   4.1172   4.1310   4.1587   4.2090
     4.3223   4.3680   4.4310   4.5191   4.5789   4.6252   4.6379   4.8225
     4.8774   4.9011   5.0267   5.1434   5.1874   5.2220   5.3330   5.4196
     5.4331   5.4728   5.6088   5.6122   5.7498   5.8073   5.9043   5.9823
     6.0804   6.2179   6.2502   6.2997   6.3943   6.6867   6.7526   6.8806
     6.9325   7.0931   7.1052   7.1865   7.2486   7.2893   7.3320   7.4256
     7.4500   7.5174   7.5960   7.6464   7.7015   7.7702   7.8803

[...]

          k = 0.0000-0.5059-0.4995 ( 32090 PWs)   bands (ev):

[...]

          k =-0.5000-0.0109 0.0017 ( 32118 PWs)   bands (ev):

[...]

          k =-0.5000-0.5168-0.4978 ( 32074 PWs)   bands (ev):

    -8.0255  -7.8593  -7.7735  -7.6555  -7.4888  -7.4327  -7.3435  -7.2072
    -7.1126  -7.0454  -7.0290  -6.9507  -6.9396  -6.9167  -6.9000  -6.7923
    -6.7633  -6.7190  -6.6380  -6.4977  -6.3260  -6.2784  -6.2240  -6.1715
    -5.8637  -5.7543  -5.6450  -5.5094   0.1877   0.2120   0.2715   0.3177
     0.3859   0.5258   0.5897   0.6643   0.6898   0.7539   0.8154   0.8630
     0.9031   0.9386   0.9825   0.9911   1.0521   1.0936   1.1389   1.1443
     1.1643   1.2139   1.2338   1.2940   1.4473   1.4690   1.5563   1.6081
     1.6532   1.7346   1.7815   1.8239   1.9310   1.9753   1.9843   2.0259
     2.0683   2.1313   2.1898   2.2130   2.2286   2.2903   2.2929   2.3445
     2.4259   2.4650   2.5345   2.5864   2.6531   2.7019   2.7229   2.7501
     2.8008   2.8485   2.8665   2.9517   2.9735   3.0559   3.0906   3.1937
     3.2224   3.3249   3.4389   3.5036   3.5882   3.6691   3.7617   3.8534
     3.8750   3.8989   3.9285   3.9768   4.0085   4.1214   4.2042   4.2287
     4.2837   4.3125   4.4990   4.5180   4.6164   4.7583   4.8494   4.8599
     4.9082   4.9635   5.0244   5.1057   5.1504   5.2017   5.2845   5.3478
     5.4009   5.5558   5.5898   5.6776   5.7470   5.8854   5.9080   5.9892
     6.0866   6.1114   6.2091   6.2159   6.4564   6.5951   6.7057   6.8236
     6.9102   7.0052   7.0836   7.1666   7.2510   7.3045   7.3798   7.4449
     7.5326   7.5478   7.6077   7.6999   7.7372   7.7954   7.8390

     the Fermi energy is     5.8579 ev

!    total energy              =    -985.34089042 Ry
     Harris-Foulkes estimate   =    -985.34089097 Ry
     estimated scf accuracy    <       0.00000077 Ry

     The total energy is the sum of the following terms:

     one-electron contribution =    -154.97291479 Ry
     hartree contribution      =     214.15656807 Ry
     xc contribution           =    -388.68421099 Ry
     ewald contribution        =    -655.84311204 Ry
     smearing contrib. (-TS)   =       0.00277934 Ry

     convergence has been achieved in  14 iterations

     Forces acting on atoms (cartesian axes, Ry/au):

     atom    1 type  1   force =    -0.03693474   -0.01362761    0.02166920
     atom    2 type  1   force =     0.01580049    0.01673090    0.03555658
     atom    3 type  1   force =     0.10444451    0.02504025    0.02027355
     atom    4 type  1   force =     0.04307610    0.01422466    0.01874658
     atom    5 type  1   force =     0.02939358   -0.02513383    0.05415368
     atom    6 type  1   force =     0.00427296    0.02281913   -0.01850463
     atom    7 type  1   force =    -0.01796662    0.03183154   -0.02582434
     atom    8 type  1   force =     0.04951679   -0.02577895    0.01204994
     atom    9 type  1   force =    -0.00278723    0.02907469    0.02943103
     atom   10 type  1   force =    -0.01226866    0.01077100   -0.03454621
     atom   11 type  1   force =    -0.04321986    0.00080965    0.04132124
     atom   12 type  1   force =    -0.02137081   -0.06172221   -0.03532210
     atom   13 type  1   force =    -0.03225902   -0.02426369   -0.01834273
     atom   14 type  1   force =    -0.04584505   -0.00828357    0.01582728
     atom   15 type  2   force =    -0.00976809   -0.01953098   -0.05232174
     atom   16 type  2   force =     0.01639333   -0.00908978    0.01060341
     atom   17 type  2   force =    -0.01107445    0.01247429   -0.03592745
     atom   18 type  2   force =     0.00955808    0.00980125    0.02968903
     atom   19 type  2   force =     0.00820085   -0.04974369   -0.02693442
     atom   20 type  2   force =    -0.02585586   -0.00014574   -0.02356293
     atom   21 type  2   force =     0.00495430    0.00894285   -0.01516922
     atom   22 type  2   force =    -0.00141294   -0.01983751    0.04314276
     atom   23 type  2   force =     0.00746356    0.00621306    0.01468117
     atom   24 type  2   force =     0.02546468    0.03571583   -0.02074322
     atom   25 type  2   force =     0.00546650    0.00780944   -0.00023835
     atom   26 type  2   force =    -0.02015189   -0.01446846    0.00780284
     atom   27 type  2   force =     0.01794688   -0.01469213   -0.01598180
     atom   28 type  2   force =     0.02986908   -0.03098653    0.00399340
     atom   29 type  2   force =    -0.07380215    0.02195836   -0.00917087
     atom   30 type  2   force =    -0.01417470   -0.00538646   -0.02383004
     atom   31 type  2   force =     0.01014462    0.01700341   -0.02166356
     atom   32 type  2   force =     0.01338773   -0.00123212    0.04737627
     atom   33 type  2   force =    -0.05225569    0.00408888    0.00021126
     atom   34 type  2   force =     0.01856041    0.01624740    0.00865952
     atom   35 type  2   force =    -0.01066722    0.02263779   -0.00531239
     atom   36 type  2   force =    -0.01165376   -0.00894824   -0.02380054
     atom   37 type  2   force =     0.02710659    0.00274935    0.00437066
     atom   38 type  2   force =    -0.00353665    0.01766587   -0.00849144
     atom   39 type  2   force =    -0.00461260   -0.01183567   -0.01847593
     atom   40 type  2   force =    -0.00147466   -0.00629696    0.00970141
     atom   41 type  2   force =     0.02690361    0.02332270   -0.01221435
     atom   42 type  2   force =    -0.01483199   -0.00692816    0.01711741

     Total force =     0.289190     Total SCF correction =     0.001473

     General routines

     Parallel routines

   This run was terminated on:  20: 9: 2  24Dec2021

   JOB DONE.