     Program PWSCF v.6.4 starts on  2Dec2021 at 10:59: 9

     R & G space division:  proc/nbgrp/npool/nimage =      40
     Waiting for input...
     Reading input from standard input
Warning: card    &IONS ignored
Warning: card      ION_DYNAMICS = 'BFGS' ignored
Warning: card   / ignored
Warning: card    &CELL ignored
Warning: card      CELL_DYNAMICS = 'BFGS', ignored
Warning: card    / ignored

     Current dimensions of program PWSCF are:
     Max number of different atomic species (ntypx) = 10
     Max number of k-points (npk) =  40000
     Max angular momentum in pseudopotentials (lmaxx) =  3

     bravais-lattice index     =            0
     lattice parameter (alat)  =      12.7633  a.u.
     unit-cell volume          =    3223.5125 (a.u.)^3
     number of atoms/cell      =           24
     number of atomic types    =            2
     number of electrons       =       144.00
     number of Kohn-Sham states=           86
     kinetic-energy cutoff     =      45.0000  Ry
     charge density cutoff     =     360.0000  Ry
     convergence threshold     =      1.0E-06
     mixing beta               =       0.7000
     number of iterations used =            8  local-TF  mixing
     Exchange-correlation      = SLA PW GGX GGC ( 1  4  2  2 0 0)

     celldm(1)=  12.763332  celldm(2)=   0.000000  celldm(3)=   0.000000
     celldm(4)=   0.000000  celldm(5)=   0.000000  celldm(6)=   0.000000

     crystal axes: (cart. coord. in units of alat)
               a(1) = (   1.000000   0.000000   0.000000 )
               a(2) = (   0.490057   0.885518   0.000000 )
               a(3) = (   0.516013  -0.153228   1.750813 )

     reciprocal axes: (cart. coord. in units 2 pi/alat)
               b(1) = (  1.000000 -0.553413 -0.343162 )
               b(2) = (  0.000000  1.129283  0.098833 )
               b(3) = (  0.000000  0.000000  0.571163 )

     PseudoPot. # 1 for Mo read from file:
     ~/pseudo/Mo.pw91-n-van.UPF
     MD5 check sum: Not computed, couldn't open file
     Pseudo is Ultrasoft + core correction, Zval =  6.0
     Generated by new atomic code, or converted to UPF format
     Using radial grid of  965 points,  3 beta functions with:
                l(1) =   1
                l(2) =   2
                l(3) =   2
     Q(r) pseudized with  8 coefficients,  rinner =    1.000   1.000   1.000
                                                       1.200   1.200

     PseudoPot. # 2 for S  read from file:
     ~/pseudo/S.pw91-van_ak.UPF
     MD5 check sum: Not computed, couldn't open file
     Pseudo is Ultrasoft, Zval =  6.0
     Generated by new atomic code, or converted to UPF format
     Using radial grid of  811 points,  6 beta functions with:
                l(1) =   0
                l(2) =   0
                l(3) =   1
                l(4) =   1
                l(5) =   2
                l(6) =   2
     Q(r) pseudized with  8 coefficients,  rinner =    1.100   1.100   1.100
                                                       1.100   1.100

     atomic species   valence    mass     pseudopotential
        Mo             6.00    95.50000     Mo( 1.00)
        S              6.00    32.06500     S ( 1.00)

     No symmetry found

   Cartesian axes

     site n.     atom                  positions (alat units)
         1           Mo  tau(   1) = (   0.4298134   0.4675981   0.1420273  )
         2           Mo  tau(   2) = (   0.6370412   0.5946788   0.5828263  )
         3           Mo  tau(   3) = (   0.6470538   0.0057791   1.2035276  )
         4           Mo  tau(   4) = (   0.6280403   0.8372853   0.1460842  )
         5           Mo  tau(   5) = (   0.6408187   0.3650983   0.8995675  )
         6           Mo  tau(   6) = (   0.8648993   0.4968824   0.1392782  )
         7           Mo  tau(   7) = (   1.4433710   0.7002158   0.9032353  )
         8           Mo  tau(   8) = (   0.8333106   0.7030403   0.9006492  )
         9           S   tau(   9) = (   1.3718854   0.1618356   1.1234977  )
        10           S   tau(  10) = (   0.6466396   0.0020421   0.7731630  )
        11           S   tau(  11) = (   1.6410889   0.5884890   1.1757065  )
        12           S   tau(  12) = (   1.3530834   0.4203734   0.7088759  )
        13           S   tau(  13) = (   1.1495692   0.4419384   1.6408226  )
        14           S   tau(  14) = (   0.9030156   0.7653915   0.3449231  )
        15           S   tau(  15) = (   1.1393742   0.5706142   1.1324265  )
        16           S   tau(  16) = (   0.9251167   0.4228524   0.7041179  )
        17           S   tau(  17) = (   1.6492575   0.4216797   1.6982087  )
        18           S   tau(  18) = (   1.3605136   0.7437045   0.3437837  )
        19           S   tau(  19) = (   0.9198371   0.1641943   1.1226733  )
        20           S   tau(  20) = (   1.1440700   0.0334253   0.7126726  )
        21           S   tau(  21) = (   0.5817887  -0.0133750   1.5573137  )
        22           S   tau(  22) = (   0.6751506   0.2154262   0.1704266  )
        23           S   tau(  23) = (   0.8786935   0.0032503   1.6556483  )
        24           S   tau(  24) = (   1.1335724   0.2898275   0.2917913  )

     number of k points=    10  Marzari-Vanderbilt smearing, width (Ry)=  0.0200
                       cart. coord. in units 2pi/alat
        k(    1) = (   0.0000000   0.0000000   0.0000000), wk =   0.1111111
        k(    2) = (   0.0000000   0.0000000  -0.2855816), wk =   0.1111111
        k(    3) = (   0.0000000   0.3764275   0.0329444), wk =   0.2222222
        k(    4) = (   0.0000000   0.3764275  -0.2526372), wk =   0.2222222
        k(    5) = (   0.3333333  -0.1844710  -0.1143872), wk =   0.2222222
        k(    6) = (   0.3333333  -0.1844710  -0.3999688), wk =   0.2222222
        k(    7) = (   0.3333333   0.1919565  -0.0814429), wk =   0.2222222
        k(    8) = (   0.3333333   0.1919565  -0.3670245), wk =   0.2222222
        k(    9) = (   0.3333333  -0.5608985  -0.1473316), wk =   0.2222222
        k(   10) = (   0.3333333  -0.5608985  -0.4329132), wk =   0.2222222

     Initial potential from superposition of free atoms

     starting charge  143.98738, renormalised to  144.00000
     Starting wfcs are  136 randomized atomic wfcs

     Self-consistent Calculation

     iteration #  1     ecut=    45.00 Ry     beta= 0.70
     Davidson diagonalization with overlap
     ethr =  1.00E-02,  avg # of iterations =  2.1

     total energy              =    -562.18926521 Ry
     Harris-Foulkes estimate   =    -563.71309495 Ry
     estimated scf accuracy    <       4.07880147 Ry

[...]

     total energy              =    -562.91685201 Ry
     Harris-Foulkes estimate   =    -562.91685274 Ry
     estimated scf accuracy    <       0.00000601 Ry

     iteration # 12     ecut=    45.00 Ry     beta= 0.70
     Davidson diagonalization with overlap
     ethr =  4.17E-09,  avg # of iterations =  1.9

     End of self-consistent calculation

          k = 0.0000 0.0000 0.0000 ( 16403 PWs)   bands (ev):

    -8.0589  -6.9871  -6.4988  -5.9878  -5.7811  -5.6401  -5.5653  -5.4811
    -5.4047  -5.3558  -5.3019  -5.2767  -5.0533  -4.8666  -4.6893  -4.0483
     1.0335   1.0874   1.2762   1.3351   1.3617   1.6013   1.7573   2.0379
     2.0974   2.2777   2.3259   2.5502   2.5919   2.6449   2.7700   2.9807
     3.0544   3.1308   3.3379   3.4793   3.5183   3.5476   3.6150   3.6618
     3.7793   3.8779   3.8854   4.0316   4.1349   4.1678   4.2100   4.3164
     4.3541   4.4191   4.5656   4.5880   4.7095   4.8053   5.0973   5.2218
     5.2783   5.4171   5.5342   5.5841   5.6473   5.7104   5.8219   5.9724
     6.1603   6.2019   6.4501   6.7279   6.8679   6.9232   6.9798   7.3283
     7.6125   7.7707   7.8401   8.0276   8.2885   8.4457   8.6312   8.7984
     9.0141   9.2109   9.3312   9.3808   9.5257   9.6777

[...]

          k = 0.3333-0.5609-0.4329 ( 16447 PWs)   bands (ev):

    -7.9887  -6.4172  -6.2600  -6.1064  -5.9990  -5.9421  -5.8127  -5.6844
    -5.4912  -5.4322  -5.3849  -5.1745  -5.1419  -4.7907  -4.6547  -3.9623
     1.3011   1.3366   1.6217   1.6913   1.8145   1.9232   1.9922   2.0332
     2.1353   2.2106   2.3356   2.4893   2.5281   2.7055   2.7683   2.8938
     2.9773   3.0174   3.1861   3.2383   3.3134   3.4025   3.4284   3.5140
     3.5999   3.7173   3.7727   3.8769   4.0083   4.1365   4.1983   4.3133
     4.4650   4.5830   4.6407   4.6997   4.8418   4.8865   4.9301   5.0451
     5.2046   5.2881   5.4087   5.4625   5.6870   5.7961   5.8933   5.9248
     6.1935   6.2605   6.3379   6.4593   6.6567   6.9583   7.1369   7.2779
     7.3985   7.7873   7.9106   8.0437   8.1349   8.3936   8.5287   8.6618
     8.8494   8.9985   9.2134   9.3204   9.3522   9.4321

     the Fermi energy is     7.3804 ev

!    total energy              =    -562.91685237 Ry
     Harris-Foulkes estimate   =    -562.91685271 Ry
     estimated scf accuracy    <       0.00000044 Ry

     The total energy is the sum of the following terms:

     one-electron contribution =      -6.91199081 Ry
     hartree contribution      =      88.76151552 Ry
     xc contribution           =    -223.14034272 Ry
     ewald contribution        =    -421.62958284 Ry
     smearing contrib. (-TS)   =       0.00354847 Ry

     convergence has been achieved in  12 iterations

     Forces acting on atoms (cartesian axes, Ry/au):

     atom    1 type  1   force =    -0.03328696   -0.01918319   -0.02653325
     atom    2 type  1   force =    -0.00128182    0.02553775   -0.18364338
     atom    3 type  1   force =    -0.00881222   -0.01581982    0.02496907
     atom    4 type  1   force =     0.02559573   -0.00505294   -0.03669782
     atom    5 type  1   force =     0.00387589   -0.17134962    0.08953783
     atom    6 type  1   force =     0.01056633   -0.01476547   -0.01215064
     atom    7 type  1   force =    -0.15058879    0.07196875    0.10009037
     atom    8 type  1   force =     0.14334159    0.06786160    0.10437066
     atom    9 type  2   force =    -0.03160107    0.01515198   -0.02265800
     atom   10 type  2   force =     0.00414247    0.00135876    0.00377072
     atom   11 type  2   force =    -0.00079385    0.00017785   -0.00339021
     atom   12 type  2   force =     0.02141558    0.01419273   -0.01894201
     atom   13 type  2   force =     0.01803525   -0.00447665   -0.02908326
     atom   14 type  2   force =    -0.02017811    0.00734766    0.04202514
     atom   15 type  2   force =     0.00225691   -0.02768473   -0.02563630
     atom   16 type  2   force =    -0.02319833    0.01667626   -0.01542096
     atom   17 type  2   force =     0.01698993    0.02098147   -0.03223937
     atom   18 type  2   force =     0.00865151   -0.00769268    0.04103132
     atom   19 type  2   force =     0.02654409    0.01552601   -0.01725276
     atom   20 type  2   force =     0.00161228    0.00386905   -0.02199810
     atom   21 type  2   force =     0.00666178    0.02515070   -0.01473051
     atom   22 type  2   force =    -0.02649115   -0.02750017    0.03117731
     atom   23 type  2   force =     0.00003074   -0.00687108    0.01041597
     atom   24 type  2   force =     0.00651221    0.01459578    0.01298818

     Total force =     0.411423     Total SCF correction =     0.001316

     General routines

     Parallel routines

   This run was terminated on:  11: 0:11   2Dec2021

   JOB DONE.