     Program PWSCF v.6.4 starts on 23Dec2021 at 23:39:44

     R & G space division:  proc/nbgrp/npool/nimage =      40
     Waiting for input...
     Reading input from standard input
Warning: card    &IONS ignored
Warning: card      ION_DYNAMICS = 'BFGS' ignored
Warning: card   / ignored
Warning: card    &CELL ignored
Warning: card      CELL_DYNAMICS = 'BFGS', ignored
Warning: card    / ignored

     Current dimensions of program PWSCF are:
     Max number of different atomic species (ntypx) = 10
     Max number of k-points (npk) =  40000
     Max angular momentum in pseudopotentials (lmaxx) =  3

     bravais-lattice index     =            0
     lattice parameter (alat)  =      12.2207  a.u.
     unit-cell volume          =    3282.0048 (a.u.)^3
     number of atoms/cell      =           24
     number of atomic types    =            2
     number of electrons       =       144.00
     number of Kohn-Sham states=           86
     kinetic-energy cutoff     =      45.0000  Ry
     charge density cutoff     =     360.0000  Ry
     convergence threshold     =      1.0E-06
     mixing beta               =       0.7000
     number of iterations used =            8  local-TF  mixing
     Exchange-correlation      = SLA PW GGX GGC ( 1  4  2  2 0 0)

     celldm(1)=  12.220718  celldm(2)=   0.000000  celldm(3)=   0.000000
     celldm(4)=   0.000000  celldm(5)=   0.000000  celldm(6)=   0.000000

     crystal axes: (cart. coord. in units of alat)
               a(1) = (   1.000000   0.000000   0.000000 )
               a(2) = (  -0.053452   1.027339   0.000000 )
               a(3) = (  -0.462276  -0.463641   1.750391 )

     reciprocal axes: (cart. coord. in units 2 pi/alat)
               b(1) = (  1.000000  0.052030  0.277881 )
               b(2) = (  0.000000  0.973388  0.257830 )
               b(3) = (  0.000000  0.000000  0.571301 )

     PseudoPot. # 1 for Mo read from file:
     ~/pseudo/Mo.pw91-n-van.UPF
     MD5 check sum: Not computed, couldn't open file
     Pseudo is Ultrasoft + core correction, Zval =  6.0
     Generated by new atomic code, or converted to UPF format
     Using radial grid of  965 points,  3 beta functions with:
                l(1) =   1
                l(2) =   2
                l(3) =   2
     Q(r) pseudized with  8 coefficients,  rinner =    1.000   1.000   1.000
                                                       1.200   1.200

     PseudoPot. # 2 for S  read from file:
     ~/pseudo/S.pw91-van_ak.UPF
     MD5 check sum: Not computed, couldn't open file
     Pseudo is Ultrasoft, Zval =  6.0
     Generated by new atomic code, or converted to UPF format
     Using radial grid of  811 points,  6 beta functions with:
                l(1) =   0
                l(2) =   0
                l(3) =   1
                l(4) =   1
                l(5) =   2
                l(6) =   2
     Q(r) pseudized with  8 coefficients,  rinner =    1.100   1.100   1.100
                                                       1.100   1.100

     atomic species   valence    mass     pseudopotential
        Mo             6.00    95.50000     Mo( 1.00)
        S              6.00    32.06500     S ( 1.00)

     No symmetry found

   Cartesian axes

     site n.     atom                  positions (alat units)
         1           Mo  tau(   1) = (   0.6390652   0.0325798   0.1557880  )
         2           Mo  tau(   2) = (   0.4102093   0.5681458   0.6119202  )
         3           Mo  tau(   3) = (   0.4060199   0.5312004   1.4693290  )
         4           Mo  tau(   4) = (   0.6539487   0.6377830   0.2275537  )
         5           Mo  tau(   5) = (   0.1521685   0.5415718   1.0416343  )
         6           Mo  tau(   6) = (  -0.0979726   0.5332667   1.4728807  )
         7           Mo  tau(   7) = (  -0.0994960   0.5732928   0.6130867  )
         8           Mo  tau(   8) = (   0.6536948   0.5419100   1.0450339  )
         9           S   tau(   9) = (  -0.0441955  -0.2447901   1.1914733  )
        10           S   tau(  10) = (   0.1558386   0.3213690   0.7393898  )
        11           S   tau(  11) = (   0.4024806   0.2972455   1.1792218  )
        12           S   tau(  12) = (   0.6626866   0.3187922   0.7437164  )
        13           S   tau(  13) = (  -0.1305585   0.9271247   0.3430855  )
        14           S   tau(  14) = (   0.3518924   0.8280829   0.3343338  )
        15           S   tau(  15) = (  -0.0944901   0.2976482   1.1840257  )
        16           S   tau(  16) = (   0.1491112   0.8033804   0.7690193  )
        17           S   tau(  17) = (  -0.3465029   0.2887641   1.6109315  )
        18           S   tau(  18) = (   0.2103582  -0.2375865   1.5937934  )
        19           S   tau(  19) = (   0.4546248  -0.2457599   1.1887623  )
        20           S   tau(  20) = (   0.6482022   0.8064130   0.7712862  )
        21           S   tau(  21) = (  -0.2926434  -0.2668574   1.6222071  )
        22           S   tau(  22) = (   0.4522802   0.3320573   0.3073461  )
        23           S   tau(  23) = (   0.1552482   0.2965527   1.6295998  )
        24           S   tau(  24) = (  -0.0475167   0.4300508   0.2787284  )

     number of k points=    10  Marzari-Vanderbilt smearing, width (Ry)=  0.0200
                       cart. coord. in units 2pi/alat
        k(    1) = (   0.0000000   0.0000000   0.0000000), wk =   0.1111111
        k(    2) = (   0.0000000   0.0000000  -0.2856504), wk =   0.1111111
        k(    3) = (   0.0000000   0.3244627   0.0859432), wk =   0.2222222
        k(    4) = (   0.0000000   0.3244627  -0.1997072), wk =   0.2222222
        k(    5) = (   0.3333333   0.0173433   0.0926268), wk =   0.2222222
        k(    6) = (   0.3333333   0.0173433  -0.1930236), wk =   0.2222222
        k(    7) = (   0.3333333   0.3418061   0.1785700), wk =   0.2222222
        k(    8) = (   0.3333333   0.3418061  -0.1070804), wk =   0.2222222
        k(    9) = (   0.3333333  -0.3071194   0.0066836), wk =   0.2222222
        k(   10) = (   0.3333333  -0.3071194  -0.2789668), wk =   0.2222222

     Initial potential from superposition of free atoms

     starting charge  143.98738, renormalised to  144.00000
     Starting wfcs are  136 randomized atomic wfcs

     Self-consistent Calculation

     iteration #  1     ecut=    45.00 Ry     beta= 0.70
     Davidson diagonalization with overlap
     ethr =  1.00E-02,  avg # of iterations =  2.0

     total energy              =    -562.12833537 Ry
     Harris-Foulkes estimate   =    -564.13960736 Ry
     estimated scf accuracy    <       5.27462466 Ry

[...]

     total energy              =    -563.15680970 Ry
     Harris-Foulkes estimate   =    -563.15680994 Ry
     estimated scf accuracy    <       0.00000242 Ry

     iteration # 14     ecut=    45.00 Ry     beta= 0.70
     Davidson diagonalization with overlap
     ethr =  1.68E-09,  avg # of iterations =  1.5

     End of self-consistent calculation

          k = 0.0000 0.0000 0.0000 ( 16735 PWs)   bands (ev):

    -7.4261  -6.8198  -6.6074  -6.1610  -6.0025  -5.9122  -5.8518  -5.8367
    -5.6050  -5.5845  -5.4632  -5.4223  -5.3912  -5.2744  -5.1731  -4.6644
     0.8224   0.9454   1.0774   1.0851   1.2327   1.4534   1.5188   1.6301
     1.8002   1.8371   1.9162   2.1155   2.1918   2.3162   2.4292   2.4801
     2.5305   2.6247   2.7026   2.8979   3.0844   3.2796   3.3216   3.4741
     3.5685   3.6177   3.6988   3.9110   4.0902   4.1219   4.2660   4.3248
     4.4143   4.5591   4.6533   4.7115   4.7786   4.9396   4.9713   5.1023
     5.1418   5.2780   5.3941   5.5038   5.5455   5.6417   5.7078   5.7817
     5.9216   5.9438   6.0353   6.1633   6.3951   6.5305   6.8119   6.9907
     7.1197   7.2239   7.5032   7.7695   8.0736   8.2486   8.3505   8.5390
     8.6090   8.6470   8.6840   8.7551   8.7794   8.9678

[...]

          k = 0.3333-0.3071-0.2790 ( 16737 PWs)   bands (ev):

    -7.0287  -6.8029  -6.3492  -6.2873  -6.0985  -6.0147  -5.9016  -5.8348
    -5.7790  -5.6770  -5.6406  -5.4673  -5.4497  -5.3227  -5.2081  -4.7380
     1.2190   1.3717   1.3938   1.4984   1.5864   1.6981   1.7810   1.8268
     1.9012   2.0046   2.0791   2.2648   2.3970   2.4939   2.6648   2.7876
     2.8192   2.8941   2.9227   3.0174   3.1102   3.1745   3.2449   3.3488
     3.3599   3.4373   3.5080   3.5993   3.6711   3.8068   3.8497   3.9314
     4.1313   4.2446   4.3778   4.4507   4.5142   4.5507   4.7333   4.8048
     4.8437   4.9764   5.0092   5.1075   5.2411   5.3258   5.4636   5.6868
     5.9560   5.9981   6.0783   6.1436   6.4056   6.5218   6.8586   7.0420
     7.1588   7.3817   7.5254   7.7402   7.9613   8.2817   8.4005   8.5189
     8.6154   8.6572   8.7527   8.8291   8.8975   8.9334

     the Fermi energy is     7.0933 ev

!    total energy              =    -563.15680933 Ry
     Harris-Foulkes estimate   =    -563.15680985 Ry
     estimated scf accuracy    <       0.00000061 Ry

     The total energy is the sum of the following terms:

     one-electron contribution =       0.05786163 Ry
     hartree contribution      =      83.62970072 Ry
     xc contribution           =    -222.43033464 Ry
     ewald contribution        =    -424.41053617 Ry
     smearing contrib. (-TS)   =      -0.00350087 Ry

     convergence has been achieved in  14 iterations

     Forces acting on atoms (cartesian axes, Ry/au):

     atom    1 type  1   force =     0.01783887   -0.00145336    0.02075507
     atom    2 type  1   force =    -0.01362889   -0.00093622    0.03264344
     atom    3 type  1   force =     0.00676336   -0.00260805    0.00559405
     atom    4 type  1   force =     0.01583940   -0.01189519    0.00059749
     atom    5 type  1   force =    -0.00000029    0.02083089   -0.00051546
     atom    6 type  1   force =    -0.00714498   -0.00230427   -0.00505128
     atom    7 type  1   force =     0.00960927    0.00810433    0.00663105
     atom    8 type  1   force =    -0.00395019    0.01892547   -0.00971606
     atom    9 type  2   force =     0.00021442   -0.00455687   -0.00179530
     atom   10 type  2   force =    -0.00401240   -0.00492689   -0.01175804
     atom   11 type  2   force =    -0.00044861   -0.01254301   -0.00838461
     atom   12 type  2   force =    -0.00211444    0.00259850   -0.00685405
     atom   13 type  2   force =    -0.01885937   -0.00794789    0.00039676
     atom   14 type  2   force =     0.00017649   -0.00391937   -0.01173062
     atom   15 type  2   force =    -0.00363247   -0.01068243   -0.01028605
     atom   16 type  2   force =     0.01119116   -0.01076677   -0.00118790
     atom   17 type  2   force =     0.00062876    0.00740458    0.00245704
     atom   18 type  2   force =    -0.00332558    0.00374267    0.00661734
     atom   19 type  2   force =     0.00571685   -0.00086799    0.00242063
     atom   20 type  2   force =     0.00529681   -0.00809740    0.00217750
     atom   21 type  2   force =     0.00120566    0.00521877    0.00674826
     atom   22 type  2   force =     0.00098251   -0.00228734   -0.02202834
     atom   23 type  2   force =    -0.00411113    0.02672570   -0.00047712
     atom   24 type  2   force =    -0.01423521   -0.00775788    0.00274620

     Total force =     0.083891     Total SCF correction =     0.001994

     General routines

     Parallel routines

   This run was terminated on:  23:40:50  23Dec2021

   JOB DONE.