     Program PWSCF v.6.4 starts on 10Nov2021 at 18: 8:56

     R & G space division:  proc/nbgrp/npool/nimage =      40
     Waiting for input...
     Reading input from standard input
Warning: card    &IONS ignored
Warning: card      ION_DYNAMICS = 'BFGS' ignored
Warning: card   / ignored
Warning: card    &CELL ignored
Warning: card      CELL_DYNAMICS = 'BFGS', ignored
Warning: card    / ignored

     Current dimensions of program PWSCF are:
     Max number of different atomic species (ntypx) = 10
     Max number of k-points (npk) =  40000
     Max angular momentum in pseudopotentials (lmaxx) =  3

     bravais-lattice index     =            0
     lattice parameter (alat)  =       6.0843  a.u.
     unit-cell volume          =     883.0773 (a.u.)^3
     number of atoms/cell      =            6
     number of atomic types    =            2
     number of electrons       =        36.00
     number of Kohn-Sham states=           22
     kinetic-energy cutoff     =      45.0000  Ry
     charge density cutoff     =     360.0000  Ry
     convergence threshold     =      1.0E-06
     mixing beta               =       0.7000
     number of iterations used =            8  local-TF  mixing
     Exchange-correlation      = SLA PW GGX GGC ( 1  4  2  2 0 0)

     celldm(1)=   6.084293  celldm(2)=   0.000000  celldm(3)=   0.000000
     celldm(4)=   0.000000  celldm(5)=   0.000000  celldm(6)=   0.000000

     crystal axes: (cart. coord. in units of alat)
               a(1) = (   1.000000   0.000000   0.000000 )
               a(2) = (  -0.500694   0.866411   0.000000 )
               a(3) = (  -0.286331  -0.206661   4.525269 )

     reciprocal axes: (cart. coord. in units 2 pi/alat)
               b(1) = (  1.000000  0.577894  0.089665 )
               b(2) = (  0.000000  1.154187  0.052710 )
               b(3) = (  0.000000  0.000000  0.220981 )

     PseudoPot. # 1 for Mo read from file:
     ~/pseudo/Mo.pw91-n-van.UPF
     MD5 check sum: Not computed, couldn't open file
     Pseudo is Ultrasoft + core correction, Zval =  6.0
     Generated by new atomic code, or converted to UPF format
     Using radial grid of  965 points,  3 beta functions with:
                l(1) =   1
                l(2) =   2
                l(3) =   2
     Q(r) pseudized with  8 coefficients,  rinner =    1.000   1.000   1.000
                                                       1.200   1.200

     PseudoPot. # 2 for S  read from file:
     ~/pseudo/S.pw91-van_ak.UPF
     MD5 check sum: Not computed, couldn't open file
     Pseudo is Ultrasoft, Zval =  6.0
     Generated by new atomic code, or converted to UPF format
     Using radial grid of  811 points,  6 beta functions with:
                l(1) =   0
                l(2) =   0
                l(3) =   1
                l(4) =   1
                l(5) =   2
                l(6) =   2
     Q(r) pseudized with  8 coefficients,  rinner =    1.100   1.100   1.100
                                                       1.100   1.100

     atomic species   valence    mass     pseudopotential
        Mo             6.00    95.50000     Mo( 1.00)
        S              6.00    32.06500     S ( 1.00)

     No symmetry found

   Cartesian axes

     site n.     atom                  positions (alat units)
         1           Mo  tau(   1) = (  -0.0500006   0.2091872   3.4371645  )
         2           Mo  tau(   2) = (   0.2630109   0.4505895   1.0880253  )
         3           S   tau(   3) = (  -0.5502334   0.4981348   3.9273106  )
         4           S   tau(   4) = (   0.7632697   0.1616696   0.5978700  )
         5           S   tau(   5) = (   0.7632315   0.1617099   1.5748764  )
         6           S   tau(   6) = (  -0.5502570   0.4980307   2.9503046  )

     number of k points=    20  Marzari-Vanderbilt smearing, width (Ry)=  0.0200
                       cart. coord. in units 2pi/alat
        k(    1) = (   0.0000000   0.0000000   0.0000000), wk =   0.0555556
        k(    2) = (   0.0000000   0.1923644   0.0087849), wk =   0.1111111
        k(    3) = (   0.0000000   0.3847288   0.0175699), wk =   0.1111111
        k(    4) = (   0.0000000  -0.5770933  -0.0263548), wk =   0.0555556
        k(    5) = (   0.1666667   0.0963157   0.0149442), wk =   0.1111111
        k(    6) = (   0.1666667   0.2886801   0.0237292), wk =   0.1111111
        k(    7) = (   0.1666667   0.4810445   0.0325141), wk =   0.1111111
        k(    8) = (   0.1666667  -0.4807776  -0.0114106), wk =   0.1111111
        k(    9) = (   0.1666667  -0.2884132  -0.0026257), wk =   0.1111111
        k(   10) = (   0.1666667  -0.0960488   0.0061593), wk =   0.1111111
        k(   11) = (   0.3333333   0.1926313   0.0298884), wk =   0.1111111
        k(   12) = (   0.3333333   0.3849958   0.0386734), wk =   0.1111111
        k(   13) = (   0.3333333   0.5773602   0.0474583), wk =   0.1111111
        k(   14) = (   0.3333333  -0.3844619   0.0035336), wk =   0.1111111
        k(   15) = (   0.3333333  -0.1920975   0.0123186), wk =   0.1111111
        k(   16) = (   0.3333333   0.0002669   0.0211035), wk =   0.1111111
        k(   17) = (  -0.5000000  -0.2889470  -0.0448326), wk =   0.0555556
        k(   18) = (  -0.5000000  -0.0965826  -0.0360477), wk =   0.1111111
        k(   19) = (  -0.5000000   0.0957818  -0.0272628), wk =   0.1111111
        k(   20) = (  -0.5000000  -0.8660403  -0.0711875), wk =   0.0555556

     Initial potential from superposition of free atoms

     starting charge   35.99685, renormalised to   36.00000
     Starting wfcs are   34 randomized atomic wfcs

     Self-consistent Calculation

     iteration #  1     ecut=    45.00 Ry     beta= 0.70
     Davidson diagonalization with overlap
     ethr =  1.00E-02,  avg # of iterations =  2.0

     total energy              =    -140.70400549 Ry
     Harris-Foulkes estimate   =    -141.14297744 Ry
     estimated scf accuracy    <       1.12093497 Ry

[...]

     total energy              =    -140.92388680 Ry
     Harris-Foulkes estimate   =    -140.92391156 Ry
     estimated scf accuracy    <       0.00012845 Ry

     iteration #  9     ecut=    45.00 Ry     beta= 0.70
     Davidson diagonalization with overlap
     ethr =  3.57E-07,  avg # of iterations =  3.8

     End of self-consistent calculation

          k = 0.0000 0.0000 0.0000 (  4559 PWs)   bands (ev):

    -8.3760  -8.3445  -7.1749  -7.1193   0.0496   0.2768   3.0165   3.0184
     3.0265   3.0273   3.6320   4.1387   4.1412   4.1445   4.1448   4.3592
     5.4419   5.8734   8.3226   8.3332   8.3427   8.3462

[...]

          k = 0.3333 0.0003 0.0211 (  4518 PWs)   bands (ev):

[...]

          k =-0.5000-0.2889-0.0448 (  4460 PWs)   bands (ev):

[...]

          k =-0.5000-0.8660-0.0712 (  4472 PWs)   bands (ev):

    -6.6414  -6.6346  -6.3617  -6.3503   0.0039   0.0261   0.9334   1.0044
     1.6275   1.6502   2.5159   2.5207   3.6978   3.9233   4.6680   4.6816
     4.9497   5.0368   7.6416   7.6456   8.1533   8.1798

     the Fermi energy is     5.7761 ev

!    total energy              =    -140.92390899 Ry
     Harris-Foulkes estimate   =    -140.92390955 Ry
     estimated scf accuracy    <       0.00000083 Ry

     The total energy is the sum of the following terms:

     one-electron contribution =     -34.92150598 Ry
     hartree contribution      =      37.10704951 Ry
     xc contribution           =     -55.69771968 Ry
     ewald contribution        =     -87.41475942 Ry
     smearing contrib. (-TS)   =       0.00302657 Ry

     convergence has been achieved in   9 iterations

     Forces acting on atoms (cartesian axes, Ry/au):

     atom    1 type  1   force =    -0.00072391    0.00022601    0.00672667
     atom    2 type  1   force =     0.00067705   -0.00021381   -0.00677839
     atom    3 type  2   force =     0.00033531   -0.00008767   -0.00037743
     atom    4 type  2   force =    -0.00033984    0.00005651    0.00038552
     atom    5 type  2   force =    -0.00002762   -0.00045472    0.00671189
     atom    6 type  2   force =     0.00007901    0.00047367   -0.00666825

     Total force =     0.013519     Total SCF correction =     0.001473
     SCF correction compared to forces is large: reduce conv_thr to get better values

     General routines

     Parallel routines

   This run was terminated on:  18: 9: 5  10Nov2021

   JOB DONE.