     Program PWSCF v.6.4 starts on 14Oct2021 at 10: 0:48

     R & G space division:  proc/nbgrp/npool/nimage =      40
     Waiting for input...
     Reading input from standard input
Warning: card    &IONS ignored
Warning: card      ION_DYNAMICS = 'BFGS' ignored
Warning: card   / ignored
Warning: card    &CELL ignored
Warning: card      CELL_DYNAMICS = 'BFGS', ignored
Warning: card    / ignored

     Current dimensions of program PWSCF are:
     Max number of different atomic species (ntypx) = 10
     Max number of k-points (npk) =  40000
     Max angular momentum in pseudopotentials (lmaxx) =  3

     bravais-lattice index     =            0
     lattice parameter (alat)  =       5.9708  a.u.
     unit-cell volume          =    5145.1275 (a.u.)^3
     number of atoms/cell      =           24
     number of atomic types    =            2
     number of electrons       =       144.00
     number of Kohn-Sham states=           86
     kinetic-energy cutoff     =      45.0000  Ry
     charge density cutoff     =     360.0000  Ry
     convergence threshold     =      1.0E-06
     mixing beta               =       0.7000
     number of iterations used =            8  local-TF  mixing
     Exchange-correlation      = SLA PW GGX GGC ( 1  4  2  2 0 0)

     celldm(1)=   5.970770  celldm(2)=   0.000000  celldm(3)=   0.000000
     celldm(4)=   0.000000  celldm(5)=   0.000000  celldm(6)=   0.000000

     crystal axes: (cart. coord. in units of alat)
               a(1) = (   1.000000   0.000000   0.000000 )
               a(2) = (  -0.114261   1.856979   0.000000 )
               a(3) = (   0.750723   0.934847  13.016615 )

     reciprocal axes: (cart. coord. in units 2 pi/alat)
               b(1) = (  1.000000  0.061531 -0.062093 )
               b(2) = (  0.000000  0.538509 -0.038675 )
               b(3) = (  0.000000  0.000000  0.076825 )

     PseudoPot. # 1 for Mo read from file:
     ~/pseudo/Mo.pw91-n-van.UPF
     MD5 check sum: Not computed, couldn't open file
     Pseudo is Ultrasoft + core correction, Zval =  6.0
     Generated by new atomic code, or converted to UPF format
     Using radial grid of  965 points,  3 beta functions with:
                l(1) =   1
                l(2) =   2
                l(3) =   2
     Q(r) pseudized with  8 coefficients,  rinner =    1.000   1.000   1.000
                                                       1.200   1.200

     PseudoPot. # 2 for S  read from file:
     ~/pseudo/S.pw91-van_ak.UPF
     MD5 check sum: Not computed, couldn't open file
     Pseudo is Ultrasoft, Zval =  6.0
     Generated by new atomic code, or converted to UPF format
     Using radial grid of  811 points,  6 beta functions with:
                l(1) =   0
                l(2) =   0
                l(3) =   1
                l(4) =   1
                l(5) =   2
                l(6) =   2
     Q(r) pseudized with  8 coefficients,  rinner =    1.100   1.100   1.100
                                                       1.100   1.100

     atomic species   valence    mass     pseudopotential
        Mo             6.00    95.50000     Mo( 1.00)
        S              6.00    32.06500     S ( 1.00)

     No symmetry found

   Cartesian axes

     site n.     atom                  positions (alat units)
         1           Mo  tau(   1) = (   1.1160654   2.0519904  11.3245064  )
         2           Mo  tau(   2) = (   0.8509788   3.3295643   5.5843734  )
         3           Mo  tau(   3) = (   0.6912681   1.1075896  11.2880932  )
         4           Mo  tau(   4) = (   0.4034857   2.3811639   5.5828179  )
         5           Mo  tau(   5) = (   0.8423975   0.6601461   8.7169947  )
         6           Mo  tau(   6) = (   0.3595266   1.4724136   0.4233493  )
         7           Mo  tau(   7) = (   1.2747652   1.5832483   8.7184428  )
         8           Mo  tau(   8) = (   0.8930931   0.4681597   0.4165870  )
         9           S   tau(   9) = (   0.6137162   1.7074884  10.8267710  )
        10           S   tau(  10) = (   0.3407581   3.0025722   5.0894561  )
        11           S   tau(  11) = (   1.2189040   0.7672985  10.7625305  )
        12           S   tau(  12) = (   0.9005241   2.0602827   5.0450987  )
        13           S   tau(  13) = (   1.3348551   0.9904932   8.2164879  )
        14           S   tau(  14) = (   0.9589716  -0.1016399  -0.0655348  )
        15           S   tau(  15) = (   0.8805064   0.0649280   8.2158290  )
        16           S   tau(  16) = (   0.3812517   0.8228485  -0.0419336  )
        17           S   tau(  17) = (   0.6188565   1.7479630  11.8079523  )
        18           S   tau(  18) = (   0.3684255   2.9794572   6.0778424  )
        19           S   tau(  19) = (   1.2188512   0.7919357  11.8069846  )
        20           S   tau(  20) = (   0.9172731   2.0639035   6.1036549  )
        21           S   tau(  21) = (   1.3428246   0.9639231   9.2359259  )
        22           S   tau(  22) = (   0.9718349  -0.0634735   0.9114109  )
        23           S   tau(  23) = (   0.8865293   0.0406326   9.2297935  )
        24           S   tau(  24) = (   0.3790760   0.8467790   0.8955886  )

     number of k points=     8  Marzari-Vanderbilt smearing, width (Ry)=  0.0200
                       cart. coord. in units 2pi/alat
        k(    1) = (   0.0000000   0.0000000   0.0000000), wk =   0.1333333
        k(    2) = (   0.0000000   0.1795030  -0.0128918), wk =   0.2666667
        k(    3) = (   0.2000000   0.0123061  -0.0124187), wk =   0.2666667
        k(    4) = (   0.2000000   0.1918092  -0.0253105), wk =   0.2666667
        k(    5) = (   0.2000000  -0.1671969   0.0004732), wk =   0.2666667
        k(    6) = (   0.4000000   0.0246123  -0.0248373), wk =   0.2666667
        k(    7) = (   0.4000000   0.2041153  -0.0377291), wk =   0.2666667
        k(    8) = (   0.4000000  -0.1548908  -0.0119455), wk =   0.2666667

     Initial potential from superposition of free atoms

     starting charge  143.98738, renormalised to  144.00000

     negative rho (up, down):  3.263E-04 0.000E+00
     Starting wfcs are  136 randomized atomic wfcs

     Self-consistent Calculation

     iteration #  1     ecut=    45.00 Ry     beta= 0.70
     Davidson diagonalization with overlap
     ethr =  1.00E-02,  avg # of iterations =  2.0

     negative rho (up, down):  2.475E-05 0.000E+00

     total energy              =    -562.52580293 Ry
     Harris-Foulkes estimate   =    -564.46424121 Ry
     estimated scf accuracy    <       5.04605848 Ry

[...]

     iteration # 14     ecut=    45.00 Ry     beta= 0.70
     Davidson diagonalization with overlap
     c_bands:  1 eigenvalues not converged
     ethr =  3.97E-08,  avg # of iterations =  7.1

[...]

     End of self-consistent calculation

          k = 0.0000 0.0000 0.0000 ( 26243 PWs)   bands (ev):

   -12.2485 -11.7210 -11.6207 -11.6048 -10.9391 -10.7257 -10.6151 -10.5688
   -10.5380 -10.3024 -10.2363 -10.1573 -10.1474  -9.9972  -9.9464  -9.9163
    -3.9652  -3.6505  -3.4374  -3.3450  -3.3221  -3.1662  -3.1140  -3.0997
    -2.6086  -2.3324  -2.2626  -2.2624  -2.2003  -1.7758  -1.6926  -1.6909
    -1.4637  -1.0431  -0.8136  -0.7050  -0.6945  -0.6611  -0.5266  -0.4735
    -0.3314  -0.3081  -0.1356  -0.0719   0.0100   0.0685   0.0988   0.1360
     0.1575   0.2295   0.3125   0.3150   0.4004   0.5086   0.5183   0.6090
     0.8559   0.9159   1.0396   1.0464   1.0969   1.1137   1.1845   1.2320
     1.2546   1.5172   1.5866   1.6394   1.9093   2.0299   2.0834   2.2865
     3.3788   3.7067   3.7277   3.7967   3.8732   4.1966   4.2474   4.2573
     4.2860   4.3595   4.4079   4.4549   4.4667   4.4705

[...]

     the Fermi energy is     2.1238 ev

!    total energy              =    -563.52042253 Ry
     Harris-Foulkes estimate   =    -563.52042311 Ry
     estimated scf accuracy    <       0.00000065 Ry

     The total energy is the sum of the following terms:

     one-electron contribution =   -2835.70401598 Ry
     hartree contribution      =    1477.38291247 Ry
     xc contribution           =    -222.14557680 Ry
     ewald contribution        =    1016.92813634 Ry
     smearing contrib. (-TS)   =       0.01812144 Ry

     convergence has been achieved in  19 iterations

[...]

     Forces acting on atoms (cartesian axes, Ry/au):

     atom    1 type  1   force =    -0.01095658   -0.01925785   -0.05612791
     atom    2 type  1   force =    -0.02404502   -0.02921936   -0.00191690
     atom    3 type  1   force =     0.01204344   -0.02756397    0.01466422
     atom    4 type  1   force =    -0.01215824   -0.02202419   -0.02336862
     atom    5 type  1   force =     0.01370875    0.00781885    0.02141576
     atom    6 type  1   force =    -0.01664719   -0.06409452    0.02161370
     atom    7 type  1   force =     0.02132378    0.02039889    0.01568016
     atom    8 type  1   force =     0.01186441    0.15565418    0.00799757
     atom    9 type  2   force =     0.01478692    0.03219813    0.00333653
     atom   10 type  2   force =     0.02379599   -0.00078729    0.01897341
     atom   11 type  2   force =    -0.01208130    0.02161524    0.06763340
     atom   12 type  2   force =     0.01568589    0.01659561    0.07112571
     atom   13 type  2   force =    -0.00638400   -0.01564817    0.02223568
     atom   14 type  2   force =     0.00825634   -0.01073493   -0.05278337
     atom   15 type  2   force =    -0.00354513   -0.02114641    0.02638311
     atom   16 type  2   force =     0.00127401    0.00368132   -0.03659647
     atom   17 type  2   force =     0.01137087   -0.03392010   -0.00224517
     atom   18 type  2   force =    -0.00331571    0.02483957   -0.01518528
     atom   19 type  2   force =    -0.01470006    0.02627285   -0.02929419
     atom   20 type  2   force =     0.00040970    0.01115144   -0.04819799
     atom   21 type  2   force =    -0.01501743    0.00699942   -0.04576500
     atom   22 type  2   force =    -0.00766602   -0.05949645    0.04969047
     atom   23 type  2   force =    -0.01000249    0.00153363   -0.04073753
     atom   24 type  2   force =     0.00199908   -0.02486588    0.01146871

     Total force =     0.273888     Total SCF correction =     0.001438

     General routines

     Parallel routines

   This run was terminated on:  10: 2:12  14Oct2021

   JOB DONE.

     Program PWSCF v.6.4 starts on 14Oct2021 at 10:49:23

     R & G space division:  proc/nbgrp/npool/nimage =      40
     Waiting for input...
     Reading input from standard input
Warning: card    &IONS ignored
Warning: card      ION_DYNAMICS = 'BFGS' ignored
Warning: card   / ignored
Warning: card    &CELL ignored
Warning: card      CELL_DYNAMICS = 'BFGS', ignored
Warning: card    / ignored

     Current dimensions of program PWSCF are:
     Max number of different atomic species (ntypx) = 10
     Max number of k-points (npk) =  40000
     Max angular momentum in pseudopotentials (lmaxx) =  3

     bravais-lattice index     =            0
     lattice parameter (alat)  =       5.9708  a.u.
     unit-cell volume          =    5145.1275 (a.u.)^3
     number of atoms/cell      =           24
     number of atomic types    =            2
     number of electrons       =       144.00
     number of Kohn-Sham states=           86
     kinetic-energy cutoff     =      45.0000  Ry
     charge density cutoff     =     360.0000  Ry
     convergence threshold     =      1.0E-06
     mixing beta               =       0.7000
     number of iterations used =            8  local-TF  mixing
     Exchange-correlation      = SLA PW GGX GGC ( 1  4  2  2 0 0)

     celldm(1)=   5.970770  celldm(2)=   0.000000  celldm(3)=   0.000000
     celldm(4)=   0.000000  celldm(5)=   0.000000  celldm(6)=   0.000000

     crystal axes: (cart. coord. in units of alat)
               a(1) = (   1.000000   0.000000   0.000000 )
               a(2) = (  -0.114261   1.856979   0.000000 )
               a(3) = (   0.750723   0.934847  13.016615 )

     reciprocal axes: (cart. coord. in units 2 pi/alat)
               b(1) = (  1.000000  0.061531 -0.062093 )
               b(2) = (  0.000000  0.538509 -0.038675 )
               b(3) = (  0.000000  0.000000  0.076825 )

     PseudoPot. # 1 for Mo read from file:
     ~/pseudo/Mo.pw91-n-van.UPF
     MD5 check sum: Not computed, couldn't open file
     Pseudo is Ultrasoft + core correction, Zval =  6.0
     Generated by new atomic code, or converted to UPF format
     Using radial grid of  965 points,  3 beta functions with:
                l(1) =   1
                l(2) =   2
                l(3) =   2
     Q(r) pseudized with  8 coefficients,  rinner =    1.000   1.000   1.000
                                                       1.200   1.200

     PseudoPot. # 2 for S  read from file:
     ~/pseudo/S.pw91-van_ak.UPF
     MD5 check sum: Not computed, couldn't open file
     Pseudo is Ultrasoft, Zval =  6.0
     Generated by new atomic code, or converted to UPF format
     Using radial grid of  811 points,  6 beta functions with:
                l(1) =   0
                l(2) =   0
                l(3) =   1
                l(4) =   1
                l(5) =   2
                l(6) =   2
     Q(r) pseudized with  8 coefficients,  rinner =    1.100   1.100   1.100
                                                       1.100   1.100

     atomic species   valence    mass     pseudopotential
        Mo             6.00    95.50000     Mo( 1.00)
        S              6.00    32.06500     S ( 1.00)

     No symmetry found

   Cartesian axes

     site n.     atom                  positions (alat units)
         1           Mo  tau(   1) = (   1.1160654   2.0519904  11.3245064  )
         2           Mo  tau(   2) = (   0.8509788   3.3295643   5.5843734  )
         3           Mo  tau(   3) = (   0.6912681   1.1075896  11.2880932  )
         4           Mo  tau(   4) = (   0.4034857   2.3811639   5.5828179  )
         5           Mo  tau(   5) = (   0.8423975   0.6601461   8.7169947  )
         6           Mo  tau(   6) = (   0.3595266   1.4724136   0.4233493  )
         7           Mo  tau(   7) = (   1.2747652   1.5832483   8.7184428  )
         8           Mo  tau(   8) = (   0.8930931   0.4681597   0.4165870  )
         9           S   tau(   9) = (   0.6137162   1.7074884  10.8267710  )
        10           S   tau(  10) = (   0.3407581   3.0025722   5.0894561  )
        11           S   tau(  11) = (   1.2189040   0.7672985  10.7625305  )
        12           S   tau(  12) = (   0.9005241   2.0602827   5.0450987  )
        13           S   tau(  13) = (   1.3348551   0.9904932   8.2164879  )
        14           S   tau(  14) = (   0.9589716  -0.1016399  -0.0655348  )
        15           S   tau(  15) = (   0.8805064   0.0649280   8.2158290  )
        16           S   tau(  16) = (   0.3812517   0.8228485  -0.0419336  )
        17           S   tau(  17) = (   0.6188565   1.7479630  11.8079523  )
        18           S   tau(  18) = (   0.3684255   2.9794572   6.0778424  )
        19           S   tau(  19) = (   1.2188512   0.7919357  11.8069846  )
        20           S   tau(  20) = (   0.9172731   2.0639035   6.1036549  )
        21           S   tau(  21) = (   1.3428246   0.9639231   9.2359259  )
        22           S   tau(  22) = (   0.9718349  -0.0634735   0.9114109  )
        23           S   tau(  23) = (   0.8865293   0.0406326   9.2297935  )
        24           S   tau(  24) = (   0.3790760   0.8467790   0.8955886  )

     number of k points=     8  Marzari-Vanderbilt smearing, width (Ry)=  0.0200
                       cart. coord. in units 2pi/alat
        k(    1) = (   0.0000000   0.0000000   0.0000000), wk =   0.1333333
        k(    2) = (   0.0000000   0.1795030  -0.0128918), wk =   0.2666667
        k(    3) = (   0.2000000   0.0123061  -0.0124187), wk =   0.2666667
        k(    4) = (   0.2000000   0.1918092  -0.0253105), wk =   0.2666667
        k(    5) = (   0.2000000  -0.1671969   0.0004732), wk =   0.2666667
        k(    6) = (   0.4000000   0.0246123  -0.0248373), wk =   0.2666667
        k(    7) = (   0.4000000   0.2041153  -0.0377291), wk =   0.2666667
        k(    8) = (   0.4000000  -0.1548908  -0.0119455), wk =   0.2666667

     Initial potential from superposition of free atoms

     starting charge  143.98738, renormalised to  144.00000

     negative rho (up, down):  3.263E-04 0.000E+00
     Starting wfcs are  136 randomized atomic wfcs

     Self-consistent Calculation

[...]

     iteration # 14     ecut=    45.00 Ry     beta= 0.70
     Davidson diagonalization with overlap
     c_bands:  1 eigenvalues not converged
     ethr =  3.97E-08,  avg # of iterations =  7.1

[...]

     total energy              =    -563.52042255 Ry
     Harris-Foulkes estimate   =    -563.52042345 Ry
     estimated scf accuracy    <       0.00000310 Ry

     iteration # 19     ecut=    45.00 Ry     beta= 0.70
     Davidson diagonalization with overlap
     ethr =  2.15E-09,  avg # of iterations =  3.1

[...]

     End of self-consistent calculation

[...]

          k = 0.4000-0.1549-0.0119 ( 26141 PWs)   bands (ev):

   -10.9241 -10.4708 -10.4436 -10.3975 -10.3017 -10.2536 -10.0077  -9.9100
    -9.8790  -9.8692  -9.8458  -9.8036  -9.7804  -9.6009  -9.5277  -9.5243
    -3.6903  -3.3648  -3.1642  -3.1280  -3.0224  -2.9941  -2.9763  -2.8924
    -2.8676  -2.6426  -2.6071  -2.5923  -2.5097  -2.3560  -2.1701  -2.1019
    -2.0674  -1.9345  -1.7773  -1.7253  -1.6956  -1.6401  -1.6211  -1.5817
    -1.5370  -1.2440  -1.2298  -1.2051  -1.1275  -0.7553  -0.6391  -0.5994
    -0.5806  -0.2124  -0.1213  -0.0861   0.0556   0.2254   0.2853   0.3124
     0.4409   0.5083   0.5391   0.5736   0.7883   0.8861   0.9371   0.9510
     0.9937   1.2766   1.3413   1.3549   1.6037   1.8523   1.8952   1.9020
     3.2502   3.7308   3.7557   3.8167   3.9887   4.0265   4.0426   4.0595
     4.2674   4.3747   4.4583   4.5213   4.5557   4.6545

     the Fermi energy is     2.1238 ev

!    total energy              =    -563.52042253 Ry
     Harris-Foulkes estimate   =    -563.52042311 Ry
     estimated scf accuracy    <       0.00000065 Ry

     The total energy is the sum of the following terms:

     one-electron contribution =   -2835.70401735 Ry
     hartree contribution      =    1477.38291401 Ry
     xc contribution           =    -222.14557698 Ry
     ewald contribution        =    1016.92813634 Ry
     smearing contrib. (-TS)   =       0.01812144 Ry

     convergence has been achieved in  19 iterations

     negative rho (up, down):  4.549E-04 0.000E+00

     Forces acting on atoms (cartesian axes, Ry/au):

     atom    1 type  1   force =    -0.01095658   -0.01925785   -0.05612791
     atom    2 type  1   force =    -0.02404502   -0.02921937   -0.00191691
     atom    3 type  1   force =     0.01204344   -0.02756397    0.01466423
     atom    4 type  1   force =    -0.01215824   -0.02202419   -0.02336863
     atom    5 type  1   force =     0.01370875    0.00781885    0.02141577
     atom    6 type  1   force =    -0.01664719   -0.06409452    0.02161371
     atom    7 type  1   force =     0.02132378    0.02039889    0.01568017
     atom    8 type  1   force =     0.01186441    0.15565417    0.00799757
     atom    9 type  2   force =     0.01478692    0.03219813    0.00333653
     atom   10 type  2   force =     0.02379599   -0.00078729    0.01897341
     atom   11 type  2   force =    -0.01208130    0.02161523    0.06763339
     atom   12 type  2   force =     0.01568590    0.01659561    0.07112572
     atom   13 type  2   force =    -0.00638400   -0.01564816    0.02223571
     atom   14 type  2   force =     0.00825634   -0.01073493   -0.05278339
     atom   15 type  2   force =    -0.00354513   -0.02114642    0.02638313
     atom   16 type  2   force =     0.00127401    0.00368132   -0.03659648
     atom   17 type  2   force =     0.01137087   -0.03392010   -0.00224516
     atom   18 type  2   force =    -0.00331571    0.02483957   -0.01518532
     atom   19 type  2   force =    -0.01470006    0.02627285   -0.02929418
     atom   20 type  2   force =     0.00040970    0.01115145   -0.04819804
     atom   21 type  2   force =    -0.01501743    0.00699942   -0.04576499
     atom   22 type  2   force =    -0.00766602   -0.05949645    0.04969049
     atom   23 type  2   force =    -0.01000250    0.00153363   -0.04073753
     atom   24 type  2   force =     0.00199908   -0.02486588    0.01146871

     Total force =     0.273888     Total SCF correction =     0.001438

     General routines

     Parallel routines

   This run was terminated on:  10:51: 5  14Oct2021

   JOB DONE.