     Program PWSCF v.6.4 starts on  4Aug2021 at 14:30: 4

     R & G space division:  proc/nbgrp/npool/nimage =      40
     Waiting for input...
     Reading input from standard input
Warning: card    &IONS ignored
Warning: card      ION_DYNAMICS = 'BFGS' ignored
Warning: card   / ignored
Warning: card    &CELL ignored
Warning: card      CELL_DYNAMICS = 'BFGS', ignored
Warning: card    / ignored

     Current dimensions of program PWSCF are:
     Max number of different atomic species (ntypx) = 10
     Max number of k-points (npk) =  40000
     Max angular momentum in pseudopotentials (lmaxx) =  3

     bravais-lattice index     =            0
     lattice parameter (alat)  =      13.3788  a.u.
     unit-cell volume          =    3553.6681 (a.u.)^3
     number of atoms/cell      =           24
     number of atomic types    =            2
     number of electrons       =       144.00
     number of Kohn-Sham states=           86
     kinetic-energy cutoff     =      45.0000  Ry
     charge density cutoff     =     360.0000  Ry
     convergence threshold     =      1.0E-06
     mixing beta               =       0.7000
     number of iterations used =            8  local-TF  mixing
     Exchange-correlation      = SLA PW GGX GGC ( 1  4  2  2 0 0)

     celldm(1)=  13.378845  celldm(2)=   0.000000  celldm(3)=   0.000000
     celldm(4)=   0.000000  celldm(5)=   0.000000  celldm(6)=   0.000000

     crystal axes: (cart. coord. in units of alat)
               a(1) = (   0.999957   0.008186   0.004443 )
               a(2) = (  -0.245147   0.419038  -0.002257 )
               a(3) = (  -0.058373   0.907325   3.521836 )

     reciprocal axes: (cart. coord. in units 2 pi/alat)
               b(1) = (  0.995872  0.581891 -0.133405 )
               b(2) = ( -0.016712  2.373347 -0.611719 )
               b(3) = ( -0.001267  0.000787  0.283719 )

     PseudoPot. # 1 for Mo read from file:
     ~/pseudo/Mo.pw91-n-van.UPF
     MD5 check sum: Not computed, couldn't open file
     Pseudo is Ultrasoft + core correction, Zval =  6.0
     Generated by new atomic code, or converted to UPF format
     Using radial grid of  965 points,  3 beta functions with:
                l(1) =   1
                l(2) =   2
                l(3) =   2
     Q(r) pseudized with  8 coefficients,  rinner =    1.000   1.000   1.000
                                                       1.200   1.200

     PseudoPot. # 2 for S  read from file:
     ~/pseudo/S.pw91-van_ak.UPF
     MD5 check sum: Not computed, couldn't open file
     Pseudo is Ultrasoft, Zval =  6.0
     Generated by new atomic code, or converted to UPF format
     Using radial grid of  811 points,  6 beta functions with:
                l(1) =   0
                l(2) =   0
                l(3) =   1
                l(4) =   1
                l(5) =   2
                l(6) =   2
     Q(r) pseudized with  8 coefficients,  rinner =    1.100   1.100   1.100
                                                       1.100   1.100

     atomic species   valence    mass     pseudopotential
        Mo             6.00    95.50000     Mo( 1.00)
        S              6.00    32.06500     S ( 1.00)

     No symmetry found

   Cartesian axes

     site n.     atom                  positions (alat units)
         1           Mo  tau(   1) = (   0.0849708   0.4643350   1.3185758  )
         2           Mo  tau(   2) = (  -0.0948311   0.8736429   3.0653172  )
         3           Mo  tau(   3) = (   0.5200951   0.4496756   1.2674422  )
         4           Mo  tau(   4) = (   0.4237384   0.9242233   3.1407957  )
         5           Mo  tau(   5) = (  -0.0212655   0.0063331   0.4738698  )
         6           Mo  tau(   6) = (  -0.0395072   0.4554910   2.2128887  )
         7           Mo  tau(   7) = (   0.4811612   0.0101523   0.4383666  )
         8           Mo  tau(   8) = (   0.3890829   0.4611948   2.1898078  )
         9           S   tau(   9) = (   0.3127570   0.6080034   1.5128827  )
        10           S   tau(  10) = (   0.1784189   1.0522523   3.3439829  )
        11           S   tau(  11) = (   0.7950435   0.5850804   1.4888290  )
        12           S   tau(  12) = (   0.7096041   1.0624210   3.2948603  )
        13           S   tau(  13) = (  -0.0113747   0.2795888   0.2397446  )
        14           S   tau(  14) = (  -0.0832002   0.7169888   1.9748612  )
        15           S   tau(  15) = (   0.4972090   0.2908447   0.2273495  )
        16           S   tau(  16) = (   0.4162272   0.7416759   1.9801523  )
        17           S   tau(  17) = (  -0.0026351   0.5568267   0.6653345  )
        18           S   tau(  18) = (  -0.0611233   1.0103946   2.4361415  )
        19           S   tau(  19) = (   0.4865227   0.5603669   0.6824630  )
        20           S   tau(  20) = (   0.4236038   0.9978931   2.4012360  )
        21           S   tau(  21) = (   0.2853650   0.3016553   1.0729273  )
        22           S   tau(  22) = (   0.2051957   0.7823665   2.9070488  )
        23           S   tau(  23) = (   0.7710462   0.3156221   1.0640104  )
        24           S   tau(  24) = (   0.6579264   0.7428245   2.8906178  )

     number of k points=    10  Marzari-Vanderbilt smearing, width (Ry)=  0.0200
                       cart. coord. in units 2pi/alat
        k(    1) = (   0.0000000   0.0000000   0.0000000), wk =   0.1111111
        k(    2) = (  -0.0027853   0.3955579  -0.1019531), wk =   0.2222222
        k(    3) = (  -0.0055705   0.7911157  -0.2039063), wk =   0.2222222
        k(    4) = (   0.0083558  -1.1866736   0.3058594), wk =   0.1111111
        k(    5) = (   0.3319575   0.1939636  -0.0444684), wk =   0.2222222
        k(    6) = (   0.3291722   0.5895214  -0.1464216), wk =   0.2222222
        k(    7) = (   0.3263870   0.9850793  -0.2483747), wk =   0.2222222
        k(    8) = (   0.3403133  -0.9927101   0.2613910), wk =   0.2222222
        k(    9) = (   0.3375280  -0.5971522   0.1594378), wk =   0.2222222
        k(   10) = (   0.3347427  -0.2015943   0.0574847), wk =   0.2222222

     Initial potential from superposition of free atoms

     starting charge  143.98738, renormalised to  144.00000
     Starting wfcs are  136 randomized atomic wfcs

     Self-consistent Calculation

     iteration #  1     ecut=    45.00 Ry     beta= 0.70
     Davidson diagonalization with overlap
     ethr =  1.00E-02,  avg # of iterations =  2.0

     total energy              =    -561.58206676 Ry
     Harris-Foulkes estimate   =    -564.17325387 Ry
     estimated scf accuracy    <       7.46349901 Ry

[...]

     total energy              =    -562.96904550 Ry
     Harris-Foulkes estimate   =    -562.96904604 Ry
     estimated scf accuracy    <       0.00000249 Ry

     iteration # 18     ecut=    45.00 Ry     beta= 0.70
     Davidson diagonalization with overlap
     ethr =  1.71E-09,  avg # of iterations =  2.3

     End of self-consistent calculation

          k = 0.0000 0.0000 0.0000 ( 18073 PWs)   bands (ev):

    -7.8490  -7.6853  -7.4513  -7.3262  -6.9698  -6.8198  -6.6549  -6.6119
    -6.5322  -6.3981  -6.2567  -6.1963  -6.1377  -6.0451  -5.9739  -5.9307
     0.3641   0.4688   0.5408   0.7053   0.8115   0.8393   1.0679   1.3905
     1.5705   1.7254   2.0269   2.0462   2.1237   2.1778   2.2708   2.3420
     2.4067   2.4959   2.5259   2.5390   2.5677   2.6181   2.6745   2.7361
     2.7461   2.7818   2.9186   3.0163   3.3009   3.5743   3.8088   3.9356
     4.0206   4.0440   4.1668   4.2260   4.4352   4.4977   4.5893   4.6681
     4.7466   4.7747   4.9432   4.9865   5.0392   5.1127   5.1458   5.1989
     5.2620   5.4183   5.4453   5.5448   5.6707   5.7117   5.7378   5.7623
     5.8552   5.9342   5.9511   6.1037   6.2106   6.2444   6.4213   6.4623
     6.6463   7.1730   7.2013   7.2309   7.4134   7.5376

          k =-0.0028 0.3956-0.1020 ( 18096 PWs)   bands (ev):

[...]

          k =-0.0056 0.7911-0.2039 ( 18151 PWs)   bands (ev):

[...]

          k = 0.3347-0.2016 0.0575 ( 18094 PWs)   bands (ev):

    -7.5758  -7.4175  -7.1841  -7.0656  -6.8977  -6.7331  -6.5798  -6.5319
    -6.4486  -6.3372  -6.3011  -6.2071  -6.1164  -6.0125  -6.0000  -5.9307
     0.7450   0.8546   0.9580   1.0862   1.1574   1.2680   1.3562   1.4462
     1.5240   1.6161   1.7256   1.8094   1.8514   1.9316   2.0902   2.1860
     2.2231   2.3758   2.5014   2.5562   2.6245   2.6681   2.6822   2.7845
     2.8185   2.8518   2.9266   3.0832   3.1381   3.2081   3.2760   3.3831
     3.4669   3.4872   3.5978   3.7319   3.7525   3.8832   4.0349   4.0680
     4.1254   4.3821   4.4809   4.5490   4.6311   4.6853   4.8058   5.0706
     5.2640   5.4967   5.5016   5.5721   5.8135   5.8819   5.9409   6.0198
     6.1398   6.1623   6.2792   6.3349   6.5493   6.6264   6.6718   6.7204
     6.8166   7.0901   7.1176   7.2766   7.4630   7.4950

     the Fermi energy is     6.0698 ev

!    total energy              =    -562.96904565 Ry
     Harris-Foulkes estimate   =    -562.96904577 Ry
     estimated scf accuracy    <       0.00000013 Ry

     The total energy is the sum of the following terms:

     one-electron contribution =      -4.09004400 Ry
     hartree contribution      =      81.10452776 Ry
     xc contribution           =    -220.72727035 Ry
     ewald contribution        =    -419.25953599 Ry
     smearing contrib. (-TS)   =       0.00327694 Ry

     convergence has been achieved in  18 iterations

     Forces acting on atoms (cartesian axes, Ry/au):

     atom    1 type  1   force =     0.01372151    0.00443903   -0.04764849
     atom    2 type  1   force =    -0.01597055   -0.00164482   -0.01363561
     atom    3 type  1   force =    -0.01713065   -0.00544010    0.02202370
     atom    4 type  1   force =     0.03171033    0.01975295   -0.00003813
     atom    5 type  1   force =     0.00180069   -0.00872845   -0.02095199
     atom    6 type  1   force =     0.02397429    0.00561349   -0.00285154
     atom    7 type  1   force =     0.00659771   -0.00924474    0.00561515
     atom    8 type  1   force =    -0.02391347   -0.01804643    0.00511765
     atom    9 type  2   force =     0.00326668    0.00116462   -0.02390146
     atom   10 type  2   force =     0.01956835    0.00322424   -0.04541567
     atom   11 type  2   force =     0.01039697    0.01628719   -0.02632833
     atom   12 type  2   force =    -0.01331910   -0.02219807    0.01840299
     atom   13 type  2   force =     0.00216104    0.00425156    0.04689101
     atom   14 type  2   force =     0.00364396    0.00282721    0.03146285
     atom   15 type  2   force =    -0.00395241   -0.00157112    0.04730856
     atom   16 type  2   force =    -0.00535219   -0.01738414    0.06419107
     atom   17 type  2   force =    -0.00792345    0.00471734   -0.05015302
     atom   18 type  2   force =    -0.00891797    0.00461041   -0.05311500
     atom   19 type  2   force =    -0.00290909    0.00561546   -0.04651545
     atom   20 type  2   force =     0.01203203    0.02150150   -0.04596678
     atom   21 type  2   force =    -0.01555129   -0.00673426    0.04420886
     atom   22 type  2   force =    -0.03505214   -0.03011625    0.01982788
     atom   23 type  2   force =     0.00778193   -0.00500318    0.04905062
     atom   24 type  2   force =     0.01333681    0.03210657    0.02242114

     Total force =     0.204493     Total SCF correction =     0.000912

     General routines

     Parallel routines

   This run was terminated on:  14:31:23   4Aug2021

   JOB DONE.