     Program PWSCF v.6.4 starts on  3Dec2021 at 22:57:37

     R & G space division:  proc/nbgrp/npool/nimage =      40
     Waiting for input...
     Reading input from standard input
Warning: card    &IONS ignored
Warning: card      ION_DYNAMICS = 'BFGS' ignored
Warning: card   / ignored
Warning: card    &CELL ignored
Warning: card      CELL_DYNAMICS = 'BFGS', ignored
Warning: card    / ignored

     Current dimensions of program PWSCF are:
     Max number of different atomic species (ntypx) = 10
     Max number of k-points (npk) =  40000
     Max angular momentum in pseudopotentials (lmaxx) =  3

     bravais-lattice index     =            0
     lattice parameter (alat)  =      11.9534  a.u.
     unit-cell volume          =   13798.9274 (a.u.)^3
     number of atoms/cell      =           36
     number of atomic types    =            2
     number of electrons       =       216.00
     number of Kohn-Sham states=          130
     kinetic-energy cutoff     =      45.0000  Ry
     charge density cutoff     =     360.0000  Ry
     convergence threshold     =      1.0E-06
     mixing beta               =       0.7000
     number of iterations used =            8  local-TF  mixing
     Exchange-correlation      = SLA PW GGX GGC ( 1  4  2  2 0 0)

     celldm(1)=  11.953424  celldm(2)=   0.000000  celldm(3)=   0.000000
     celldm(4)=   0.000000  celldm(5)=   0.000000  celldm(6)=   0.000000

     crystal axes: (cart. coord. in units of alat)
               a(1) = (   1.000000   0.000000   0.000000 )
               a(2) = (   0.002256   1.776048   0.000000 )
               a(3) = (  -0.094102  -0.524753   4.548975 )

     reciprocal axes: (cart. coord. in units 2 pi/alat)
               b(1) = (  1.000000 -0.001270  0.020540 )
               b(2) = (  0.000000  0.563048  0.064951 )
               b(3) = (  0.000000  0.000000  0.219830 )

     PseudoPot. # 1 for Mo read from file:
     ~/pseudo/Mo.pw91-n-van.UPF
     MD5 check sum: Not computed, couldn't open file
     Pseudo is Ultrasoft + core correction, Zval =  6.0
     Generated by new atomic code, or converted to UPF format
     Using radial grid of  965 points,  3 beta functions with:
                l(1) =   1
                l(2) =   2
                l(3) =   2
     Q(r) pseudized with  8 coefficients,  rinner =    1.000   1.000   1.000
                                                       1.200   1.200

     PseudoPot. # 2 for S  read from file:
     ~/pseudo/S.pw91-van_ak.UPF
     MD5 check sum: Not computed, couldn't open file
     Pseudo is Ultrasoft, Zval =  6.0
     Generated by new atomic code, or converted to UPF format
     Using radial grid of  811 points,  6 beta functions with:
                l(1) =   0
                l(2) =   0
                l(3) =   1
                l(4) =   1
                l(5) =   2
                l(6) =   2
     Q(r) pseudized with  8 coefficients,  rinner =    1.100   1.100   1.100
                                                       1.100   1.100

     atomic species   valence    mass     pseudopotential
        Mo             6.00    95.50000     Mo( 1.00)
        S              6.00    32.06500     S ( 1.00)

     No symmetry found

   Cartesian axes

     site n.     atom                  positions (alat units)
         1           Mo  tau(   1) = (   0.8530436   1.0839325   1.6338735  )
         2           Mo  tau(   2) = (   0.6024677   0.6395017   1.6298482  )
         3           Mo  tau(   3) = (   0.3532963   1.0840791   1.6340445  )
         4           Mo  tau(   4) = (   0.1012666   0.6394438   1.6292229  )
         5           Mo  tau(   5) = (   0.3521035   0.1961352   1.6262509  )
         6           Mo  tau(   6) = (   0.8526432   0.1979826   1.6263763  )
         7           Mo  tau(   7) = (   0.1049850   1.5296182   1.6295697  )
         8           Mo  tau(   8) = (   0.6056843   1.5293916   1.6293269  )
         9           Mo  tau(   9) = (   0.3541141  -0.4725133   4.4491886  )
        10           Mo  tau(  10) = (   0.8540215  -0.4716581   4.4490635  )
        11           Mo  tau(  11) = (   0.1007314   0.6352461   2.5730299  )
        12           Mo  tau(  12) = (   0.6880152   0.6861861   2.5646072  )
        13           S   tau(  13) = (   0.6025910   0.9345308   1.3831961  )
        14           S   tau(  14) = (   0.8556543   1.3761544   1.3810089  )
        15           S   tau(  15) = (   0.1027644   0.9348693   1.3828499  )
        16           S   tau(  16) = (   0.3554175   1.3762949   1.3816997  )
        17           S   tau(  17) = (   0.3853748   0.6868883   2.3524284  )
        18           S   tau(  18) = (   0.8843253   0.8898084   2.3714782  )
        19           S   tau(  19) = (   0.6035654   0.9318894   1.8807871  )
        20           S   tau(  20) = (   0.8552358   1.3812419   1.8808495  )
        21           S   tau(  21) = (   0.1024328   0.9317101   1.8797319  )
        22           S   tau(  22) = (   0.3555912   1.3824853   1.8814469  )
        23           S   tau(  23) = (   0.8716733   0.3671281   2.4998490  )
        24           S   tau(  24) = (   0.9195731   0.7600985   2.8578326  )
        25           S   tau(  25) = (   0.3518762   0.4914573   1.3781111  )
        26           S   tau(  26) = (   0.8515479   0.4927475   1.3772121  )
        27           S   tau(  27) = (   0.3515543   0.4883702   1.8747868  )
        28           S   tau(  28) = (   0.8517861   0.4890527   1.8796544  )
        29           S   tau(  29) = (   0.1021545   0.0494649   1.8778052  )
        30           S   tau(  30) = (   0.6029896   0.0493234   1.8772411  )
        31           S   tau(  31) = (   0.6064459   1.2181127   4.1949198  )
        32           S   tau(  32) = (   0.1053564   1.0497747   4.5343147  )
        33           S   tau(  33) = (   0.1020472   0.0459830   1.3765009  )
        34           S   tau(  34) = (   0.6032413   0.0463398   1.3768841  )
        35           S   tau(  35) = (   0.6981945   0.1411705   0.1532269  )
        36           S   tau(  36) = (   0.1050590  -0.2201382   4.3574201  )

     number of k points=     4  Marzari-Vanderbilt smearing, width (Ry)=  0.0200
                       cart. coord. in units 2pi/alat
        k(    1) = (   0.0000000   0.0000000   0.0000000), wk =   0.3333333
        k(    2) = (   0.0000000  -0.2815239  -0.0324755), wk =   0.3333333
        k(    3) = (   0.3333333  -0.0004234   0.0068466), wk =   0.6666667
        k(    4) = (   0.3333333  -0.2819473  -0.0256289), wk =   0.6666667

     Initial potential from superposition of free atoms

     starting charge  215.98107, renormalised to  216.00000

     negative rho (up, down):  8.901E-04 0.000E+00
     Starting wfcs are  204 randomized atomic wfcs

     Self-consistent Calculation

     iteration #  1     ecut=    45.00 Ry     beta= 0.70
     Davidson diagonalization with overlap
     ethr =  1.00E-02,  avg # of iterations =  2.5

     negative rho (up, down):  2.473E-05 0.000E+00

     total energy              =    -843.47162947 Ry
     Harris-Foulkes estimate   =    -846.24627454 Ry
     estimated scf accuracy    <       7.68967645 Ry

[...]

     iteration #  9     ecut=    45.00 Ry     beta= 0.70
     Davidson diagonalization with overlap
     c_bands:  1 eigenvalues not converged
     ethr =  1.57E-05,  avg # of iterations = 11.0

[...]

     iteration # 14     ecut=    45.00 Ry     beta= 0.70
     Davidson diagonalization with overlap
     c_bands:  2 eigenvalues not converged
     ethr =  6.83E-07,  avg # of iterations =  5.8

[...]

     total energy              =    -844.84962608 Ry
     Harris-Foulkes estimate   =    -844.84962609 Ry
     estimated scf accuracy    <       0.00000123 Ry

     iteration # 24     ecut=    45.00 Ry     beta= 0.70
     Davidson diagonalization with overlap
     ethr =  4.88E-10,  avg # of iterations =  1.0

[...]

     End of self-consistent calculation

          k = 0.0000 0.0000 0.0000 ( 70335 PWs)   bands (ev):

   -15.5981 -14.8460 -14.8345 -14.4113 -14.1509 -14.0495 -14.0250 -13.8764
   -13.8387 -13.8189 -13.7770 -13.7755 -13.6653 -13.6534 -13.6149 -13.5488
   -13.5360 -13.5050 -13.4928 -13.4445 -13.0862 -13.0838 -13.0512 -13.0114
    -7.2536  -7.2200  -7.2093  -7.0921  -6.6344  -6.6283  -6.4852  -6.4578
    -6.4187  -6.4091  -6.3047  -6.3004  -6.2545  -5.7688  -5.6665  -5.6650
    -5.6213  -5.5573  -5.4689  -5.4535  -5.3879  -5.3554  -5.2039  -5.1316
    -5.1188  -5.0601  -5.0230  -4.8151  -4.7942  -4.7463  -4.7372  -4.7214
    -4.5669  -4.5575  -4.5381  -4.5345  -4.4783  -4.3571  -4.3441  -4.3031
    -4.3011  -4.2645  -4.2495  -4.1301  -4.1254  -4.0208  -4.0006  -3.8250
    -3.8194  -3.6980  -3.6053  -3.4878  -3.4776  -3.3934  -3.3445  -3.2365
    -3.2091  -3.1823  -3.1769  -3.1710  -3.0893  -2.9646  -2.9032  -2.8915
    -2.8204  -2.6627  -2.6567  -2.5519  -2.5373  -2.3828  -2.3544  -2.3150
    -2.3088  -2.1844  -2.1649  -2.1414  -2.1222  -2.0984  -2.0959  -1.6808
    -1.4428  -1.0542  -1.0499  -0.8179  -0.7825  -0.6068  -0.4097  -0.1605
    -0.0217   0.4867   0.4971   0.5032   0.5130   0.5273   0.5698   0.5735
     0.5821   0.5969   0.8075   0.8143   0.8551   0.9259   0.9998   1.0766
     1.0803   1.1495

[...]

          k = 0.3333-0.2819-0.0256 ( 70305 PWs)   bands (ev):

   -15.1356 -15.0949 -14.4551 -14.4157 -14.2022 -14.1495 -14.0494 -14.0123
   -13.9869 -13.8448 -13.8120 -13.7434 -13.7122 -13.6773 -13.6518 -13.6136
   -13.4972 -13.4912 -13.4771 -13.4145 -13.2097 -13.1703 -13.0803 -13.0793
    -6.7012  -6.6715  -6.6460  -6.6320  -6.6077  -6.5916  -6.5650  -6.5539
    -6.5498  -6.5235  -6.1108  -6.0678  -5.8479  -5.6025  -5.5128  -5.4928
    -5.4099  -5.3872  -5.3377  -5.3032  -5.2945  -5.2714  -5.2266  -5.1993
    -5.0123  -4.9897  -4.9614  -4.8417  -4.7150  -4.6935  -4.6863  -4.6545
    -4.6297  -4.5972  -4.4962  -4.4767  -4.4749  -4.4672  -4.4173  -4.4085
    -4.4006  -4.3556  -4.3466  -4.3230  -4.1460  -4.0854  -3.9613  -3.9535
    -3.8657  -3.8184  -3.8067  -3.7888  -3.7530  -3.7329  -3.6511  -3.6320
    -3.5005  -3.3858  -3.3473  -3.1705  -3.1508  -3.1442  -3.1275  -3.0826
    -3.0529  -3.0362  -3.0097  -2.9485  -2.9291  -2.6002  -2.5633  -2.4780
    -2.4615  -2.2302  -2.1536  -2.1368  -2.0129  -1.9776  -1.8877  -1.8611
    -1.8394  -0.9454  -0.8838  -0.8178  -0.6513  -0.3799  -0.2517  -0.1088
    -0.1020   0.4063   0.4247   0.4445   0.4680   0.5196   0.5505   0.5816
     0.6250   0.7264   0.7453   0.7623   0.8346   0.8449   0.8619   0.8699
     0.8733   0.8794

     the Fermi energy is    -0.7205 ev

!    total energy              =    -844.84962583 Ry
     Harris-Foulkes estimate   =    -844.84962612 Ry
     estimated scf accuracy    <       0.00000029 Ry

     The total energy is the sum of the following terms:

     one-electron contribution =   -5494.26509437 Ry
     hartree contribution      =    2809.06162699 Ry
     xc contribution           =    -333.48296077 Ry
     ewald contribution        =    2173.84580544 Ry
     smearing contrib. (-TS)   =      -0.00900313 Ry

     convergence has been achieved in  24 iterations

     negative rho (up, down):  1.501E-03 0.000E+00

     Forces acting on atoms (cartesian axes, Ry/au):

     atom    1 type  1   force =     0.00103565    0.00109293   -0.01042460
     atom    2 type  1   force =     0.00025260   -0.00167665   -0.00433552
     atom    3 type  1   force =     0.00110606    0.00056289   -0.00708618
     atom    4 type  1   force =     0.00120652   -0.00138374   -0.00361892
     atom    5 type  1   force =     0.00184103   -0.00483983   -0.00396600
     atom    6 type  1   force =    -0.00100435   -0.00622882    0.00127187
     atom    7 type  1   force =    -0.00034158   -0.00481817    0.00034193
     atom    8 type  1   force =     0.00001851   -0.00378497    0.00037164
     atom    9 type  1   force =    -0.00000461   -0.00080945   -0.00331077
     atom   10 type  1   force =     0.00039488    0.00017215   -0.00425129
     atom   11 type  1   force =     0.02541227    0.02891911   -0.01451074
     atom   12 type  1   force =    -0.06942051   -0.04537920    0.03558260
     atom   13 type  2   force =     0.00003794    0.00429483   -0.00387173
     atom   14 type  2   force =    -0.00180051    0.00328880   -0.00124452
     atom   15 type  2   force =     0.00085963    0.00392428   -0.00334192
     atom   16 type  2   force =    -0.00071411    0.00366454   -0.00197840
     atom   17 type  2   force =     0.01172013    0.00170796    0.00264226
     atom   18 type  2   force =     0.05526220    0.02518471   -0.03372628
     atom   19 type  2   force =    -0.00206370    0.00335590    0.00873489
     atom   20 type  2   force =    -0.00041355   -0.00025754    0.00238502
     atom   21 type  2   force =     0.00219912    0.00325322    0.00948373
     atom   22 type  2   force =    -0.00133006   -0.00201285   -0.00015874
     atom   23 type  2   force =    -0.01997877   -0.01674613   -0.01170271
     atom   24 type  2   force =    -0.00462029    0.00991679    0.03216878
     atom   25 type  2   force =     0.00026625    0.00124544   -0.00286536
     atom   26 type  2   force =     0.00061561   -0.00028459   -0.00086994
     atom   27 type  2   force =    -0.00014832   -0.00172835    0.00826595
     atom   28 type  2   force =     0.00104783    0.00137147    0.00140710
     atom   29 type  2   force =     0.00026934   -0.00143564    0.00105444
     atom   30 type  2   force =    -0.00078682   -0.00082459    0.00169789
     atom   31 type  2   force =    -0.00011131   -0.00277526   -0.00327378
     atom   32 type  2   force =     0.00121533   -0.00487852    0.00345401
     atom   33 type  2   force =     0.00042046    0.00068585   -0.00030828
     atom   34 type  2   force =    -0.00110900    0.00012216   -0.00104090
     atom   35 type  2   force =    -0.00023255    0.00164413    0.00600536
     atom   36 type  2   force =    -0.00110129    0.00545714    0.00101913

     Total force =     0.132896     Total SCF correction =     0.001335

     General routines

     Parallel routines

   This run was terminated on:  23: 3:40   3Dec2021

   JOB DONE.