     Program PWSCF v.6.4 starts on 24Dec2021 at 20: 9: 8

     R & G space division:  proc/nbgrp/npool/nimage =      40
     Waiting for input...
     Reading input from standard input
Warning: card    &IONS ignored
Warning: card      ION_DYNAMICS = 'BFGS' ignored
Warning: card   / ignored
Warning: card    &CELL ignored
Warning: card      CELL_DYNAMICS = 'BFGS', ignored
Warning: card    / ignored

     Current dimensions of program PWSCF are:
     Max number of different atomic species (ntypx) = 10
     Max number of k-points (npk) =  40000
     Max angular momentum in pseudopotentials (lmaxx) =  3

     bravais-lattice index     =            0
     lattice parameter (alat)  =      18.2090  a.u.
     unit-cell volume          =    6187.8218 (a.u.)^3
     number of atoms/cell      =           42
     number of atomic types    =            2
     number of electrons       =       252.00
     number of Kohn-Sham states=          151
     kinetic-energy cutoff     =      45.0000  Ry
     charge density cutoff     =     360.0000  Ry
     convergence threshold     =      1.0E-06
     mixing beta               =       0.7000
     number of iterations used =            8  local-TF  mixing
     Exchange-correlation      = SLA PW GGX GGC ( 1  4  2  2 0 0)

     celldm(1)=  18.209017  celldm(2)=   0.000000  celldm(3)=   0.000000
     celldm(4)=   0.000000  celldm(5)=   0.000000  celldm(6)=   0.000000

     crystal axes: (cart. coord. in units of alat)
               a(1) = (   1.000000   0.000000   0.000000 )
               a(2) = (   0.033960   1.010189   0.000000 )
               a(3) = (  -0.005451   0.020390   1.014555 )

     reciprocal axes: (cart. coord. in units 2 pi/alat)
               b(1) = (  1.000000 -0.033617  0.006048 )
               b(2) = (  0.000000  0.989914 -0.019895 )
               b(3) = (  0.000000  0.000000  0.985653 )

     PseudoPot. # 1 for Mo read from file:
     ~/pseudo/Mo.pw91-n-van.UPF
     MD5 check sum: Not computed, couldn't open file
     Pseudo is Ultrasoft + core correction, Zval =  6.0
     Generated by new atomic code, or converted to UPF format
     Using radial grid of  965 points,  3 beta functions with:
                l(1) =   1
                l(2) =   2
                l(3) =   2
     Q(r) pseudized with  8 coefficients,  rinner =    1.000   1.000   1.000
                                                       1.200   1.200

     PseudoPot. # 2 for S  read from file:
     ~/pseudo/S.pw91-van_ak.UPF
     MD5 check sum: Not computed, couldn't open file
     Pseudo is Ultrasoft, Zval =  6.0
     Generated by new atomic code, or converted to UPF format
     Using radial grid of  811 points,  6 beta functions with:
                l(1) =   0
                l(2) =   0
                l(3) =   1
                l(4) =   1
                l(5) =   2
                l(6) =   2
     Q(r) pseudized with  8 coefficients,  rinner =    1.100   1.100   1.100
                                                       1.100   1.100

     atomic species   valence    mass     pseudopotential
        Mo             6.00    95.50000     Mo( 1.00)
        S              6.00    32.06500     S ( 1.00)

     No symmetry found

   Cartesian axes

     site n.     atom                  positions (alat units)
         1           Mo  tau(   1) = (   0.6424343   0.1627081   0.3683634  )
         2           Mo  tau(   2) = (   0.6385280   0.3773474   0.1611444  )
         3           Mo  tau(   3) = (   0.8660901   0.1671553   0.1746599  )
         4           Mo  tau(   4) = (   0.8480733   0.3945793   0.3744081  )
         5           Mo  tau(   5) = (   0.1666054   0.6665044   0.3755282  )
         6           Mo  tau(   6) = (   0.1761260   0.8808246   0.1615919  )
         7           Mo  tau(   7) = (   0.3810370   0.6487324   0.1629691  )
         8           Mo  tau(   8) = (   0.4012434   0.8627735   0.3756259  )
         9           Mo  tau(   9) = (   0.1158841   0.4540385   0.6290270  )
        10           Mo  tau(  10) = (   0.4175776   0.1109149   0.6087255  )
        11           Mo  tau(  11) = (   0.3771429   0.4178682   0.8627866  )
        12           Mo  tau(  12) = (   0.5947291   0.6204196   0.8243833  )
        13           Mo  tau(  13) = (   0.6162077   0.8715051   0.5996449  )
        14           Mo  tau(  14) = (   0.8552284   0.6188823   0.6007924  )
        15           S   tau(  15) = (   0.6315299   0.1331160   0.1117435  )
        16           S   tau(  16) = (   0.5984076   0.4077306   0.4069479  )
        17           S   tau(  17) = (   0.1112619   0.4118065   0.3845069  )
        18           S   tau(  18) = (   0.1144320   0.1278567   0.1225539  )
        19           S   tau(  19) = (   0.3883318   0.3964457   0.1077310  )
        20           S   tau(  20) = (   0.3849871   0.1153032   0.3675855  )
        21           S   tau(  21) = (   0.3678867   0.1524742   0.8559233  )
        22           S   tau(  22) = (   0.1339116   0.6402745   0.1250058  )
        23           S   tau(  23) = (   0.1535636   0.9188789   0.4025476  )
        24           S   tau(  24) = (   0.6544749   0.9094621   0.3641384  )
        25           S   tau(  25) = (   0.6226967   0.6203039   0.0763039  )
        26           S   tau(  26) = (   0.9136037   0.9168451   0.1606405  )
        27           S   tau(  27) = (   0.9019122   0.6469767   0.3648385  )
        28           S   tau(  28) = (   0.3478894   0.3578883   0.6221667  )
        29           S   tau(  29) = (   0.8927771   0.1470136   0.4114505  )
        30           S   tau(  30) = (   0.1227340   0.3997933   0.8713191  )
        31           S   tau(  31) = (   0.6279088   0.3904243   0.8945850  )
        32           S   tau(  32) = (   0.6515656   0.1005511   0.6226517  )
        33           S   tau(  33) = (   0.8817872   0.3817354   0.6305102  )
        34           S   tau(  34) = (   0.8838741   0.4040239   0.1188821  )
        35           S   tau(  35) = (   0.5997323   0.6125290   0.5743818  )
        36           S   tau(  36) = (   0.4069536   0.6111376   0.4087996  )
        37           S   tau(  37) = (   0.7757614   0.7871367   0.7745845  )
        38           S   tau(  38) = (   0.1121804   0.9027113   0.9164246  )
        39           S   tau(  39) = (   0.0958730   0.6886770   0.6238681  )
        40           S   tau(  40) = (   0.3796116   0.8911751   0.6318307  )
        41           S   tau(  41) = (   0.3673252   0.6647202   0.9006906  )
        42           S   tau(  42) = (   0.4184392   0.8924278   0.1197863  )

     number of k points=     8  Marzari-Vanderbilt smearing, width (Ry)=  0.0200
                       cart. coord. in units 2pi/alat
        k(    1) = (   0.0000000   0.0000000   0.0000000), wk =   0.2500000
        k(    2) = (   0.0000000   0.0000000  -0.4928267), wk =   0.2500000
        k(    3) = (   0.0000000  -0.4949570   0.0099474), wk =   0.2500000
        k(    4) = (   0.0000000  -0.4949570  -0.4828793), wk =   0.2500000
        k(    5) = (  -0.5000000   0.0168087  -0.0030241), wk =   0.2500000
        k(    6) = (  -0.5000000   0.0168087  -0.4958508), wk =   0.2500000
        k(    7) = (  -0.5000000  -0.4781483   0.0069233), wk =   0.2500000
        k(    8) = (  -0.5000000  -0.4781483  -0.4859034), wk =   0.2500000

     Initial potential from superposition of free atoms

     starting charge  251.97792, renormalised to  252.00000
     Starting wfcs are  238 randomized atomic wfcs

     Self-consistent Calculation

     iteration #  1     ecut=    45.00 Ry     beta= 0.70
     Davidson diagonalization with overlap
     ethr =  1.00E-02,  avg # of iterations =  2.0

     total energy              =    -983.08595378 Ry
     Harris-Foulkes estimate   =    -986.81438901 Ry
     estimated scf accuracy    <      10.49573478 Ry

[...]

     iteration #  7     ecut=    45.00 Ry     beta= 0.70
     Davidson diagonalization with overlap
     c_bands:  1 eigenvalues not converged
     ethr =  1.61E-05,  avg # of iterations =  4.0

[...]

     total energy              =    -985.06864653 Ry
     Harris-Foulkes estimate   =    -985.06864674 Ry
     estimated scf accuracy    <       0.00000160 Ry

     iteration # 15     ecut=    45.00 Ry     beta= 0.70
     Davidson diagonalization with overlap
     ethr =  6.33E-10,  avg # of iterations =  4.4

     End of self-consistent calculation

          k = 0.0000 0.0000 0.0000 ( 31589 PWs)   bands (ev):

    -8.7547  -7.8775  -7.5344  -7.5148  -7.4759  -7.2906  -7.2015  -7.0471
    -7.0293  -6.9422  -6.9198  -6.8275  -6.8204  -6.7415  -6.7338  -6.6544
    -6.6224  -6.5546  -6.5111  -6.4278  -6.2670  -6.2323  -6.0785  -5.8335
    -5.7485  -5.4754  -5.2883  -4.9706  -0.6893  -0.0390   0.0019   0.0829
     0.3450   0.6407   0.6619   0.7525   0.7734   0.8523   0.9191   0.9585
     0.9638   1.0650   1.1293   1.1531   1.2853   1.3107   1.3696   1.4578
     1.4718   1.5538   1.5715   1.5981   1.6834   1.7572   1.8048   1.8216
     1.8887   1.9688   2.0041   2.0200   2.0496   2.1409   2.2566   2.2770
     2.2955   2.3481   2.3665   2.3835   2.4832   2.5291   2.5540   2.6159
     2.6371   2.6750   2.7546   2.7647   2.7783   2.8472   2.8776   2.9211
     2.9893   3.0222   3.0986   3.1350   3.1904   3.2307   3.2646   3.3136
     3.3380   3.4896   3.5318   3.6037   3.6584   3.7326   3.8488   3.9540
     3.9892   4.0196   4.1097   4.1818   4.2873   4.3007   4.4573   4.4714
     4.6326   4.6680   4.7096   4.8185   4.8652   4.9436   4.9853   5.0805
     5.1387   5.2078   5.3529   5.4213   5.4374   5.5010   5.5643   5.5872
     5.6920   5.7965   5.8462   5.8805   5.9767   6.0461   6.0721   6.1780
     6.2362   6.3189   6.3551   6.5668   6.6288   6.7048   6.7899   6.9806
     7.0770   7.2156   7.2972   7.4659   7.5067   7.5562   7.5964   7.6272
     7.6714   7.7380   7.8197   7.8722   7.9591   8.0341   8.1086

[...]

          k = 0.0000-0.4950-0.4829 ( 31540 PWs)   bands (ev):

[...]

          k =-0.5000 0.0168-0.0030 ( 31552 PWs)   bands (ev):

[...]

          k =-0.5000-0.4781-0.4859 ( 31532 PWs)   bands (ev):

    -8.6675  -7.8585  -7.7288  -7.6316  -7.5096  -7.2597  -7.1552  -7.0706
    -7.0310  -6.9165  -6.8678  -6.8061  -6.7967  -6.7385  -6.6893  -6.6871
    -6.6719  -6.5276  -6.4928  -6.4353  -6.2913  -6.1788  -6.0756  -5.8142
    -5.7092  -5.4687  -5.2921  -4.9677  -0.5898   0.1304   0.3234   0.3845
     0.4752   0.5626   0.6779   0.7393   0.7481   0.7865   0.8564   0.9398
     0.9602   1.0431   1.0970   1.1560   1.2034   1.2210   1.2673   1.3273
     1.4286   1.4345   1.4574   1.5053   1.5396   1.5957   1.6375   1.7044
     1.7563   1.8437   1.8832   1.9792   2.0235   2.1243   2.1852   2.1946
     2.2032   2.2410   2.2734   2.3462   2.4100   2.4219   2.4878   2.5236
     2.5266   2.6363   2.6816   2.7133   2.7771   2.8244   2.8656   2.8963
     2.9240   3.0732   3.1008   3.2156   3.2416   3.3498   3.3856   3.4418
     3.5495   3.7220   3.8068   3.8399   3.8845   3.9575   3.9894   4.0784
     4.1312   4.1801   4.2693   4.2916   4.3797   4.4179   4.4806   4.5119
     4.6299   4.6676   4.7756   4.8239   4.8874   5.0097   5.0289   5.0673
     5.1277   5.2308   5.2742   5.3227   5.4396   5.5254   5.6318   5.6591
     5.7445   5.7768   5.8535   5.9042   5.9823   5.9936   6.0710   6.0730
     6.1902   6.2411   6.3202   6.3723   6.6383   6.6704   6.7748   6.9216
     6.9966   7.0420   7.2004   7.3882   7.4375   7.5242   7.5721   7.6407
     7.7669   7.8154   7.8777   7.8969   7.9653   8.0370   8.0692

     the Fermi energy is     6.0583 ev

!    total energy              =    -985.06864609 Ry
     Harris-Foulkes estimate   =    -985.06864685 Ry
     estimated scf accuracy    <       0.00000092 Ry

     The total energy is the sum of the following terms:

     one-electron contribution =    -139.21188787 Ry
     hartree contribution      =     208.10101969 Ry
     xc contribution           =    -389.08158551 Ry
     ewald contribution        =    -664.86871161 Ry
     smearing contrib. (-TS)   =      -0.00748079 Ry

     convergence has been achieved in  15 iterations

     Forces acting on atoms (cartesian axes, Ry/au):

     atom    1 type  1   force =    -0.01374237   -0.01802774   -0.00802446
     atom    2 type  1   force =     0.01118740   -0.01160163   -0.02165433
     atom    3 type  1   force =     0.05808781   -0.06043782    0.00900572
     atom    4 type  1   force =     0.02133453   -0.01594962   -0.03712785
     atom    5 type  1   force =    -0.01924695   -0.00290881   -0.01769037
     atom    6 type  1   force =    -0.01371251   -0.01257023   -0.03159692
     atom    7 type  1   force =    -0.01483261    0.01649502   -0.02722979
     atom    8 type  1   force =    -0.02535460    0.04139491   -0.01188998
     atom    9 type  1   force =     0.01158841   -0.00668175    0.04702121
     atom   10 type  1   force =    -0.01027750   -0.01299859    0.05631871
     atom   11 type  1   force =    -0.03716505   -0.01400843   -0.03695338
     atom   12 type  1   force =     0.00335106    0.01245831    0.03806316
     atom   13 type  1   force =     0.00663393    0.00644933    0.01267174
     atom   14 type  1   force =     0.01999728    0.00144098    0.00608624
     atom   15 type  2   force =    -0.01377954    0.00219982    0.02479673
     atom   16 type  2   force =     0.02315325   -0.05465121   -0.04305782
     atom   17 type  2   force =     0.01225907   -0.01861864   -0.00910508
     atom   18 type  2   force =    -0.03137023   -0.00062356   -0.00436888
     atom   19 type  2   force =    -0.01703359   -0.01855211    0.01210156
     atom   20 type  2   force =    -0.01178657    0.03266006   -0.01872731
     atom   21 type  2   force =     0.00289150   -0.00403694   -0.03041846
     atom   22 type  2   force =     0.00764402   -0.00294979    0.01917746
     atom   23 type  2   force =     0.00693712   -0.01316699   -0.00732686
     atom   24 type  2   force =     0.01255764   -0.02801136   -0.01547303
     atom   25 type  2   force =     0.02498751    0.03026718    0.00401709
     atom   26 type  2   force =     0.00543358    0.02164739   -0.03039505
     atom   27 type  2   force =    -0.03201171    0.01267940   -0.00884152
     atom   28 type  2   force =     0.01673305    0.01439173   -0.00994553
     atom   29 type  2   force =    -0.01382882    0.01135223   -0.00644345
     atom   30 type  2   force =     0.00019635    0.00521320   -0.01589536
     atom   31 type  2   force =    -0.00516802   -0.00860932   -0.01362324
     atom   32 type  2   force =     0.04183415    0.01939521    0.02107238
     atom   33 type  2   force =    -0.02907378   -0.01456220    0.01852363
     atom   34 type  2   force =     0.00716281    0.01370200    0.01369027
     atom   35 type  2   force =     0.02445148    0.01722889    0.05298351
     atom   36 type  2   force =    -0.04794484    0.02120923   -0.04790021
     atom   37 type  2   force =     0.02866999    0.01836505    0.01314722
     atom   38 type  2   force =     0.01133467    0.01146110    0.04775424
     atom   39 type  2   force =     0.00912721    0.03629733    0.03212768
     atom   40 type  2   force =    -0.02295631   -0.02997538    0.01768222
     atom   41 type  2   force =    -0.01047464    0.00144264   -0.00322481
     atom   42 type  2   force =     0.00220582    0.00119111    0.01067293

     Total force =     0.259776     Total SCF correction =     0.001847

     General routines

     Parallel routines

   This run was terminated on:  20:12: 3  24Dec2021

   JOB DONE.