     Program PWSCF v.6.4 starts on 24Dec2021 at  1:18:14

     R & G space division:  proc/nbgrp/npool/nimage =      40
     Waiting for input...
     Reading input from standard input
Warning: card    &IONS ignored
Warning: card      ION_DYNAMICS = 'BFGS' ignored
Warning: card   / ignored
Warning: card    &CELL ignored
Warning: card      CELL_DYNAMICS = 'BFGS', ignored
Warning: card    / ignored

     Current dimensions of program PWSCF are:
     Max number of different atomic species (ntypx) = 10
     Max number of k-points (npk) =  40000
     Max angular momentum in pseudopotentials (lmaxx) =  3

     bravais-lattice index     =            0
     lattice parameter (alat)  =      12.4959  a.u.
     unit-cell volume          =    3205.4528 (a.u.)^3
     number of atoms/cell      =           21
     number of atomic types    =            2
     number of electrons       =       126.00
     number of Kohn-Sham states=           76
     kinetic-energy cutoff     =      45.0000  Ry
     charge density cutoff     =     360.0000  Ry
     convergence threshold     =      1.0E-06
     mixing beta               =       0.7000
     number of iterations used =            8  local-TF  mixing
     Exchange-correlation      = SLA PW GGX GGC ( 1  4  2  2 0 0)

     celldm(1)=  12.495872  celldm(2)=   0.000000  celldm(3)=   0.000000
     celldm(4)=   0.000000  celldm(5)=   0.000000  celldm(6)=   0.000000

     crystal axes: (cart. coord. in units of alat)
               a(1) = (   1.000000   0.000000   0.000000 )
               a(2) = (  -0.225094   1.184688   0.000000 )
               a(3) = (  -0.277434  -0.226766   1.386710 )

     reciprocal axes: (cart. coord. in units 2 pi/alat)
               b(1) = (  1.000000  0.190003  0.231137 )
               b(2) = (  0.000000  0.844104  0.138035 )
               b(3) = (  0.000000  0.000000  0.721131 )

     PseudoPot. # 1 for Mo read from file:
     ~/pseudo/Mo.pw91-n-van.UPF
     MD5 check sum: Not computed, couldn't open file
     Pseudo is Ultrasoft + core correction, Zval =  6.0
     Generated by new atomic code, or converted to UPF format
     Using radial grid of  965 points,  3 beta functions with:
                l(1) =   1
                l(2) =   2
                l(3) =   2
     Q(r) pseudized with  8 coefficients,  rinner =    1.000   1.000   1.000
                                                       1.200   1.200

     PseudoPot. # 2 for S  read from file:
     ~/pseudo/S.pw91-van_ak.UPF
     MD5 check sum: Not computed, couldn't open file
     Pseudo is Ultrasoft, Zval =  6.0
     Generated by new atomic code, or converted to UPF format
     Using radial grid of  811 points,  6 beta functions with:
                l(1) =   0
                l(2) =   0
                l(3) =   1
                l(4) =   1
                l(5) =   2
                l(6) =   2
     Q(r) pseudized with  8 coefficients,  rinner =    1.100   1.100   1.100
                                                       1.100   1.100

     atomic species   valence    mass     pseudopotential
        Mo             6.00    95.50000     Mo( 1.00)
        S              6.00    32.06500     S ( 1.00)

     No symmetry found

   Cartesian axes

     site n.     atom                  positions (alat units)
         1           Mo  tau(   1) = (  -0.1591259   0.8015309   0.2943311  )
         2           Mo  tau(   2) = (   0.3388128   0.0979861   1.0108757  )
         3           Mo  tau(   3) = (   0.5542172   0.4312486   0.8300470  )
         4           Mo  tau(   4) = (  -0.1557038   0.9479974   0.6902044  )
         5           Mo  tau(   5) = (   0.4863088   0.7546314   0.5317638  )
         6           Mo  tau(   6) = (  -0.2288782   0.1101965   1.0212608  )
         7           Mo  tau(   7) = (   0.5292024   0.3837631   1.2786655  )
         8           S   tau(   8) = (  -0.1789759   0.4536876   1.0785210  )
         9           S   tau(   9) = (   0.5613690   0.6038357   0.1772190  )
        10           S   tau(  10) = (   0.5641579   0.0900507   0.7256119  )
        11           S   tau(  11) = (   0.5546411   0.0292853   1.3019500  )
        12           S   tau(  12) = (   0.0731665   0.9106564   0.9690433  )
        13           S   tau(  13) = (   0.6402341   1.0672507   0.3916892  )
        14           S   tau(  14) = (   0.0490948   0.1139074   0.7695047  )
        15           S   tau(  15) = (   0.3153968   0.4370380   0.5417259  )
        16           S   tau(  16) = (   0.2809216   0.4631653   1.0574867  )
        17           S   tau(  17) = (   0.0522715   0.0400251   1.2584540  )
        18           S   tau(  18) = (  -0.1727251   0.5613251   0.5825994  )
        19           S   tau(  19) = (   0.1491077   0.9032852   0.4698671  )
        20           S   tau(  20) = (   0.5459093   0.8478960   0.8800069  )
        21           S   tau(  21) = (  -0.3315510   0.7091836   1.3718405  )

     number of k points=     8  Marzari-Vanderbilt smearing, width (Ry)=  0.0200
                       cart. coord. in units 2pi/alat
        k(    1) = (   0.0000000   0.0000000   0.0000000), wk =   0.1666667
        k(    2) = (   0.0000000   0.0000000  -0.3605656), wk =   0.1666667
        k(    3) = (   0.0000000  -0.4220521  -0.0690175), wk =   0.1666667
        k(    4) = (   0.0000000  -0.4220521  -0.4295830), wk =   0.1666667
        k(    5) = (   0.3333333   0.0633343   0.0770456), wk =   0.3333333
        k(    6) = (   0.3333333   0.0633343  -0.2835200), wk =   0.3333333
        k(    7) = (   0.3333333  -0.3587179   0.0080281), wk =   0.3333333
        k(    8) = (   0.3333333  -0.3587179  -0.3525374), wk =   0.3333333

     Initial potential from superposition of free atoms

     starting charge  125.98896, renormalised to  126.00000
     Starting wfcs are  119 randomized atomic wfcs

     Self-consistent Calculation

     iteration #  1     ecut=    45.00 Ry     beta= 0.70
     Davidson diagonalization with overlap
     ethr =  1.00E-02,  avg # of iterations =  2.0

     total energy              =    -491.63558447 Ry
     Harris-Foulkes estimate   =    -493.39341559 Ry
     estimated scf accuracy    <       4.67543446 Ry

[...]

     iteration #  6     ecut=    45.00 Ry     beta= 0.70
     Davidson diagonalization with overlap
     c_bands:  1 eigenvalues not converged
     ethr =  7.09E-06,  avg # of iterations = 10.4

[...]

     total energy              =    -492.54776516 Ry
     Harris-Foulkes estimate   =    -492.54776548 Ry
     estimated scf accuracy    <       0.00000133 Ry

     iteration # 13     ecut=    45.00 Ry     beta= 0.70
     Davidson diagonalization with overlap
     ethr =  1.05E-09,  avg # of iterations =  2.9

     End of self-consistent calculation

          k = 0.0000 0.0000 0.0000 ( 16315 PWs)   bands (ev):

    -8.5556  -7.8847  -7.5707  -7.4764  -7.3272  -7.2597  -7.1408  -6.9917
    -6.8902  -6.7380  -6.5443  -6.4342  -6.2969  -5.7613  -0.3302  -0.2158
    -0.0182   0.0172   0.0429   0.3225   0.5667   0.8176   0.8796   0.9823
     1.1303   1.2374   1.3006   1.4238   1.4466   1.5163   1.6064   1.8158
     1.8787   1.9138   2.0962   2.2287   2.2426   2.3439   2.4687   2.6159
     2.6795   2.7906   2.8140   2.9675   3.0176   3.2141   3.2688   3.3501
     3.5164   3.6457   3.9689   4.1165   4.3035   4.3980   4.4352   4.6169
     4.7993   4.8720   5.0335   5.1586   5.2820   5.4000   5.5713   5.8538
     5.8562   6.0700   6.3263   6.4935   6.6017   6.7799   6.9241   7.1087
     7.2229   7.3829   7.5053   7.6760

[...]

          k = 0.3333-0.3587-0.3525 ( 16358 PWs)   bands (ev):

    -8.1796  -7.8961  -7.7465  -7.5925  -7.3944  -7.2168  -7.1447  -7.0404
    -6.9308  -6.8808  -6.5694  -6.3740  -6.2945  -5.7874  -0.1049  -0.0517
     0.1795   0.3498   0.4833   0.5286   0.6803   0.7900   0.8708   0.9104
     1.0471   1.1132   1.1872   1.3415   1.4142   1.5022   1.5926   1.7294
     1.8203   1.9120   2.0035   2.0638   2.2283   2.3052   2.3735   2.5448
     2.7207   2.7808   2.8373   2.9073   3.1000   3.1653   3.3277   3.3899
     3.4853   3.6939   3.8503   3.9584   4.0965   4.2056   4.3439   4.5169
     4.6834   4.8244   5.0903   5.1464   5.2709   5.3986   5.4863   5.6297
     5.7721   6.1234   6.1950   6.3122   6.5325   6.6663   6.9546   7.2341
     7.3722   7.4616   7.6217   7.7042

     the Fermi energy is     5.6111 ev

!    total energy              =    -492.54776483 Ry
     Harris-Foulkes estimate   =    -492.54776543 Ry
     estimated scf accuracy    <       0.00000071 Ry

     The total energy is the sum of the following terms:

     one-electron contribution =     -90.95272613 Ry
     hartree contribution      =     112.78032998 Ry
     xc contribution           =    -194.53342843 Ry
     ewald contribution        =    -319.84236039 Ry
     smearing contrib. (-TS)   =       0.00042014 Ry

     convergence has been achieved in  13 iterations

     Forces acting on atoms (cartesian axes, Ry/au):

     atom    1 type  1   force =     0.00576370    0.00640010   -0.00963048
     atom    2 type  1   force =    -0.00891833   -0.01952071    0.02360510
     atom    3 type  1   force =    -0.01606381    0.03893772   -0.02701239
     atom    4 type  1   force =     0.03285033   -0.02195453   -0.00189090
     atom    5 type  1   force =     0.00769723   -0.01845726   -0.01152999
     atom    6 type  1   force =     0.01645387   -0.00833886    0.02897286
     atom    7 type  1   force =     0.01256418   -0.00268198    0.00166187
     atom    8 type  2   force =     0.01283203   -0.00938278   -0.01262280
     atom    9 type  2   force =     0.00608093    0.00066483   -0.01652107
     atom   10 type  2   force =    -0.00454988   -0.00404147   -0.00277784
     atom   11 type  2   force =     0.00090266   -0.01743265    0.00794348
     atom   12 type  2   force =    -0.01152892    0.01178890   -0.00169566
     atom   13 type  2   force =    -0.01815963    0.01691341    0.00193254
     atom   14 type  2   force =     0.00990402    0.01372935   -0.00050211
     atom   15 type  2   force =     0.01393784    0.02694135    0.01538110
     atom   16 type  2   force =    -0.03576485   -0.00106462   -0.01596159
     atom   17 type  2   force =    -0.00920469   -0.01277974   -0.03132854
     atom   18 type  2   force =     0.00494074    0.00940818    0.03057481
     atom   19 type  2   force =    -0.01703235    0.00030640    0.00192026
     atom   20 type  2   force =    -0.00850731   -0.01214986   -0.01250907
     atom   21 type  2   force =     0.00580225    0.00271423    0.03199042

     Total force =     0.127097     Total SCF correction =     0.001499

     General routines

     Parallel routines

   This run was terminated on:   1:18:59  24Dec2021

   JOB DONE.