     Program PWSCF v.6.4 starts on 28Nov2021 at 10: 0: 1

     R & G space division:  proc/nbgrp/npool/nimage =      40
     Waiting for input...
     Reading input from standard input
Warning: card    &IONS ignored
Warning: card      ION_DYNAMICS = 'BFGS' ignored
Warning: card   / ignored
Warning: card    &CELL ignored
Warning: card      CELL_DYNAMICS = 'BFGS', ignored
Warning: card    / ignored

     Current dimensions of program PWSCF are:
     Max number of different atomic species (ntypx) = 10
     Max number of k-points (npk) =  40000
     Max angular momentum in pseudopotentials (lmaxx) =  3

     bravais-lattice index     =            0
     lattice parameter (alat)  =      10.4352  a.u.
     unit-cell volume          =    3337.0601 (a.u.)^3
     number of atoms/cell      =           27
     number of atomic types    =            2
     number of electrons       =       162.00
     number of Kohn-Sham states=           97
     kinetic-energy cutoff     =      45.0000  Ry
     charge density cutoff     =     360.0000  Ry
     convergence threshold     =      1.0E-06
     mixing beta               =       0.7000
     number of iterations used =            8  local-TF  mixing
     Exchange-correlation      = SLA PW GGX GGC ( 1  4  2  2 0 0)

     celldm(1)=  10.435210  celldm(2)=   0.000000  celldm(3)=   0.000000
     celldm(4)=   0.000000  celldm(5)=   0.000000  celldm(6)=   0.000000

     crystal axes: (cart. coord. in units of alat)
               a(1) = (   0.999762   0.012338   0.018002 )
               a(2) = (   0.000270   1.616567  -0.020818 )
               a(3) = (  -0.004422   0.404731   1.811774 )

     reciprocal axes: (cart. coord. in units 2 pi/alat)
               b(1) = (  1.000195 -0.000136  0.002471 )
               b(2) = ( -0.005131  0.616821 -0.137804 )
               b(3) = ( -0.009997  0.007089  0.550337 )

     PseudoPot. # 1 for Mo read from file:
     ~/pseudo/Mo.pw91-n-van.UPF
     MD5 check sum: Not computed, couldn't open file
     Pseudo is Ultrasoft + core correction, Zval =  6.0
     Generated by new atomic code, or converted to UPF format
     Using radial grid of  965 points,  3 beta functions with:
                l(1) =   1
                l(2) =   2
                l(3) =   2
     Q(r) pseudized with  8 coefficients,  rinner =    1.000   1.000   1.000
                                                       1.200   1.200

     PseudoPot. # 2 for S  read from file:
     ~/pseudo/S.pw91-van_ak.UPF
     MD5 check sum: Not computed, couldn't open file
     Pseudo is Ultrasoft, Zval =  6.0
     Generated by new atomic code, or converted to UPF format
     Using radial grid of  811 points,  6 beta functions with:
                l(1) =   0
                l(2) =   0
                l(3) =   1
                l(4) =   1
                l(5) =   2
                l(6) =   2
     Q(r) pseudized with  8 coefficients,  rinner =    1.100   1.100   1.100
                                                       1.100   1.100

     atomic species   valence    mass     pseudopotential
        Mo             6.00    95.50000     Mo( 1.00)
        S              6.00    32.06500     S ( 1.00)

     No symmetry found

   Cartesian axes

     site n.     atom                  positions (alat units)
         1           Mo  tau(   1) = (   0.9186000   1.2083895   1.0661723  )
         2           Mo  tau(   2) = (   0.9686092   1.0378003   0.5564964  )
         3           Mo  tau(   3) = (   0.9874851   0.6332787   0.8960888  )
         4           Mo  tau(   4) = (   1.0005972   1.4739502   0.0661953  )
         5           Mo  tau(   5) = (  -0.0079092   0.6566825   1.5141558  )
         6           Mo  tau(   6) = (   0.0003579   1.7578953   1.3576241  )
         7           Mo  tau(   7) = (   0.4915796   0.4518696   0.2915419  )
         8           Mo  tau(   8) = (   0.4955998   1.2461379   1.7334171  )
         9           Mo  tau(   9) = (   0.4711596   1.6564242   0.6480991  )
        10           S   tau(  10) = (   0.7448903   0.4627723   1.2572971  )
        11           S   tau(  11) = (   0.2259163   1.3944971   1.3432591  )
        12           S   tau(  12) = (   0.7834625   0.7723375   0.2345441  )
        13           S   tau(  13) = (   0.3106418   1.9719487   1.5866745  )
        14           S   tau(  14) = (   0.7103926   1.0456769   1.4226245  )
        15           S   tau(  15) = (   0.6377515   1.5137940   1.0694020  )
        16           S   tau(  16) = (   0.7089075   1.3757527   0.4107836  )
        17           S   tau(  17) = (   0.2071705   0.5380451  -0.0300908  )
        18           S   tau(  18) = (   0.2544388   0.7070944   0.5550229  )
        19           S   tau(  19) = (   0.2052959   1.3054796   0.7478810  )
        20           S   tau(  20) = (   0.2297033   0.2538984   0.9609805  )
        21           S   tau(  21) = (   0.2627489   1.1229442   0.1707940  )
        22           S   tau(  22) = (   0.6630571   0.9315560   0.8362779  )
        23           S   tau(  23) = (   0.7186947   1.6424197   1.6645959  )
        24           S   tau(  24) = (   0.1959493   1.7299437   0.3372571  )
        25           S   tau(  25) = (   0.2470820   0.8108949   1.1799061  )
        26           S   tau(  26) = (   0.7175568   0.5981169   1.8406537  )
        27           S   tau(  27) = (   0.7604067   0.3470708   0.6310200  )

     number of k points=     8  Marzari-Vanderbilt smearing, width (Ry)=  0.0200
                       cart. coord. in units 2pi/alat
        k(    1) = (   0.0000000   0.0000000   0.0000000), wk =   0.1666667
        k(    2) = (   0.0049984  -0.0035445  -0.2751686), wk =   0.1666667
        k(    3) = (   0.0025655  -0.3084105   0.0689019), wk =   0.1666667
        k(    4) = (   0.0075639  -0.3119550  -0.2062667), wk =   0.1666667
        k(    5) = (   0.3333985  -0.0000452   0.0008238), wk =   0.3333333
        k(    6) = (   0.3383969  -0.0035897  -0.2743449), wk =   0.3333333
        k(    7) = (   0.3359640  -0.3084557   0.0697257), wk =   0.3333333
        k(    8) = (   0.3409624  -0.3120002  -0.2054429), wk =   0.3333333

     Initial potential from superposition of free atoms

     starting charge  161.98581, renormalised to  162.00000
     Starting wfcs are  153 randomized atomic wfcs

     Self-consistent Calculation

     iteration #  1     ecut=    45.00 Ry     beta= 0.70
     Davidson diagonalization with overlap
     ethr =  1.00E-02,  avg # of iterations =  2.0

     total energy              =    -632.22480401 Ry
     Harris-Foulkes estimate   =    -634.52547581 Ry
     estimated scf accuracy    <       5.75641583 Ry

[...]

     total energy              =    -633.45082541 Ry
     Harris-Foulkes estimate   =    -633.45082559 Ry
     estimated scf accuracy    <       0.00000178 Ry

     iteration # 13     ecut=    45.00 Ry     beta= 0.70
     Davidson diagonalization with overlap
     ethr =  1.10E-09,  avg # of iterations =  2.1

     End of self-consistent calculation

          k = 0.0000 0.0000 0.0000 ( 16981 PWs)   bands (ev):

    -6.2087  -5.3638  -5.2573  -5.0190  -4.9523  -4.8476  -4.6935  -4.4310
    -4.3990  -4.3679  -4.3117  -4.2613  -4.1832  -4.1210  -3.9340  -3.8313
    -3.8145  -3.7156   1.9582   2.5154   2.6173   2.6943   2.7608   2.8447
     2.9472   2.9521   3.0685   3.1854   3.2858   3.3848   3.4060   3.5100
     3.6296   3.6940   3.7518   3.8137   3.8808   3.9638   4.0873   4.1390
     4.1932   4.2977   4.3283   4.4430   4.5495   4.6354   4.6929   4.8453
     4.9096   4.9663   5.0982   5.2456   5.2850   5.4362   5.5017   5.5925
     5.7140   5.7658   5.8488   5.9116   5.9458   5.9601   6.1207   6.1915
     6.3174   6.4699   6.5197   6.6497   6.8608   7.1437   7.1703   7.2962
     7.4564   7.5653   7.6087   7.7375   7.8459   7.9854   8.0649   8.3517
     8.3836   8.5142   8.6337   8.8035   8.9106   9.0562   9.1587   9.2036
     9.3216   9.4404   9.5278   9.6208   9.7669   9.9285  10.0411  10.1643
    10.2624

[...]

          k = 0.3410-0.3120-0.2054 ( 17043 PWs)   bands (ev):

    -5.5733  -5.4678  -5.2753  -5.1503  -4.8870  -4.7952  -4.6898  -4.6026
    -4.4978  -4.4480  -4.3954  -4.3532  -4.1915  -4.1322  -4.0611  -3.9081
    -3.8118  -3.7365   2.2899   2.3896   2.4806   2.5374   2.6080   2.7493
     2.8234   2.8637   2.9460   3.0273   3.0836   3.2395   3.3686   3.4817
     3.5988   3.7225   3.7749   3.9710   4.0135   4.1516   4.2425   4.3374
     4.4156   4.4901   4.6051   4.6383   4.7267   4.8182   4.8600   4.9537
     5.0774   5.1060   5.1854   5.2660   5.3591   5.4075   5.4863   5.6095
     5.7034   5.7454   5.8512   5.9245   5.9804   6.1650   6.2798   6.3735
     6.4133   6.4739   6.5123   6.6575   6.7518   6.8728   6.9837   7.1896
     7.2532   7.2949   7.4799   7.5229   7.7593   7.9109   8.0652   8.2713
     8.3734   8.5495   8.6227   8.7004   8.7896   8.9249   9.0950   9.2077
     9.2927   9.4862   9.5864   9.6649   9.8503   9.9464  10.0419  10.1978
    10.2780

     the Fermi energy is     8.4777 ev

!    total energy              =    -633.45082528 Ry
     Harris-Foulkes estimate   =    -633.45082557 Ry
     estimated scf accuracy    <       0.00000036 Ry

     The total energy is the sum of the following terms:

     one-electron contribution =     102.39544140 Ry
     hartree contribution      =      50.78472096 Ry
     xc contribution           =    -250.33741865 Ry
     ewald contribution        =    -536.28979412 Ry
     smearing contrib. (-TS)   =      -0.00377486 Ry

     convergence has been achieved in  13 iterations

     Forces acting on atoms (cartesian axes, Ry/au):

     atom    1 type  1   force =     0.03255507   -0.04781326   -0.00305819
     atom    2 type  1   force =     0.00962555   -0.00260509   -0.01064970
     atom    3 type  1   force =     0.02121215    0.03776482    0.01798914
     atom    4 type  1   force =    -0.00734320    0.02180539   -0.00767158
     atom    5 type  1   force =     0.01745328   -0.02761245   -0.00181787
     atom    6 type  1   force =     0.03521968   -0.01270446   -0.01852180
     atom    7 type  1   force =    -0.01037413   -0.00576080    0.00604943
     atom    8 type  1   force =    -0.01942672    0.01807001    0.00812795
     atom    9 type  1   force =    -0.00873554   -0.00555670    0.01965591
     atom   10 type  2   force =    -0.03954596    0.01844136   -0.04719240
     atom   11 type  2   force =     0.00174006   -0.00294500    0.01532680
     atom   12 type  2   force =    -0.00543770    0.00170138   -0.01710871
     atom   13 type  2   force =    -0.02913546    0.00298031   -0.03727285
     atom   14 type  2   force =     0.02230767   -0.01409800    0.02007051
     atom   15 type  2   force =     0.03730315    0.00553392   -0.01561964
     atom   16 type  2   force =     0.00356297   -0.00968193    0.01396975
     atom   17 type  2   force =    -0.00142140    0.00926676   -0.00186271
     atom   18 type  2   force =     0.00398399   -0.01987663    0.02367971
     atom   19 type  2   force =     0.00634747    0.00064342    0.01188792
     atom   20 type  2   force =    -0.02103991    0.00515731    0.01504295
     atom   21 type  2   force =    -0.02194075    0.01116014    0.00234827
     atom   22 type  2   force =     0.00011488   -0.00070126    0.00706682
     atom   23 type  2   force =    -0.00456880   -0.03051055   -0.02321415
     atom   24 type  2   force =     0.01608629    0.01693890    0.01860877
     atom   25 type  2   force =    -0.03222556    0.01794283   -0.01545235
     atom   26 type  2   force =    -0.01408085    0.00775980    0.02013102
     atom   27 type  2   force =     0.00776379    0.00469979   -0.00051300

     Total force =     0.167212     Total SCF correction =     0.001197

     General routines

     Parallel routines

   This run was terminated on:  10: 1: 8  28Nov2021

   JOB DONE.