     Program PWSCF v.6.4 starts on  3Aug2021 at 21:15: 9

     R & G space division:  proc/nbgrp/npool/nimage =      40
     Waiting for input...
     Reading input from standard input
Warning: card    &IONS ignored
Warning: card      ION_DYNAMICS = 'BFGS' ignored
Warning: card   / ignored
Warning: card    &CELL ignored
Warning: card      CELL_DYNAMICS = 'BFGS', ignored
Warning: card    / ignored

     Current dimensions of program PWSCF are:
     Max number of different atomic species (ntypx) = 10
     Max number of k-points (npk) =  40000
     Max angular momentum in pseudopotentials (lmaxx) =  3

     bravais-lattice index     =            0
     lattice parameter (alat)  =      12.6618  a.u.
     unit-cell volume          =    5873.0324 (a.u.)^3
     number of atoms/cell      =           36
     number of atomic types    =            2
     number of electrons       =       216.00
     number of Kohn-Sham states=          130
     kinetic-energy cutoff     =      45.0000  Ry
     charge density cutoff     =     360.0000  Ry
     convergence threshold     =      1.0E-06
     mixing beta               =       0.7000
     number of iterations used =            8  local-TF  mixing
     Exchange-correlation      = SLA PW GGX GGC ( 1  4  2  2 0 0)

     celldm(1)=  12.661831  celldm(2)=   0.000000  celldm(3)=   0.000000
     celldm(4)=   0.000000  celldm(5)=   0.000000  celldm(6)=   0.000000

     crystal axes: (cart. coord. in units of alat)
               a(1) = (   1.000000   0.000000   0.000000 )
               a(2) = (  -0.500000   0.866025   0.000000 )
               a(3) = (   0.000000   0.000000   3.340736 )

     reciprocal axes: (cart. coord. in units 2 pi/alat)
               b(1) = (  1.000000  0.577350  0.000000 )
               b(2) = (  0.000000  1.154700  0.000000 )
               b(3) = (  0.000000  0.000000  0.299335 )

     PseudoPot. # 1 for Mo read from file:
     ~/pseudo/Mo.pw91-n-van.UPF
     MD5 check sum: Not computed, couldn't open file
     Pseudo is Ultrasoft + core correction, Zval =  6.0
     Generated by new atomic code, or converted to UPF format
     Using radial grid of  965 points,  3 beta functions with:
                l(1) =   1
                l(2) =   2
                l(3) =   2
     Q(r) pseudized with  8 coefficients,  rinner =    1.000   1.000   1.000
                                                       1.200   1.200

     PseudoPot. # 2 for S  read from file:
     ~/pseudo/S.pw91-van_ak.UPF
     MD5 check sum: Not computed, couldn't open file
     Pseudo is Ultrasoft, Zval =  6.0
     Generated by new atomic code, or converted to UPF format
     Using radial grid of  811 points,  6 beta functions with:
                l(1) =   0
                l(2) =   0
                l(3) =   1
                l(4) =   1
                l(5) =   2
                l(6) =   2
     Q(r) pseudized with  8 coefficients,  rinner =    1.100   1.100   1.100
                                                       1.100   1.100

     atomic species   valence    mass     pseudopotential
        Mo             6.00    95.50000     Mo( 1.00)
        S              6.00    32.06500     S ( 1.00)

     No symmetry found

   Cartesian axes

     site n.     atom                  positions (alat units)
         1           Mo  tau(   1) = (   0.2501993   0.1294271   1.1122127  )
         2           Mo  tau(   2) = (  -0.0132908   0.5833744   1.1159629  )
         3           Mo  tau(   3) = (   0.7503214   0.1299004   1.1090628  )
         4           Mo  tau(   4) = (   0.4920294   0.5759355   1.1253709  )
         5           Mo  tau(   5) = (  -0.0047589   0.2987098   2.2164433  )
         6           Mo  tau(   6) = (  -0.2565189   0.7087223   2.2229294  )
         7           Mo  tau(   7) = (   0.4997252   0.2738337   2.2248663  )
         8           Mo  tau(   8) = (   0.2544970   0.7252308   2.2126308  )
         9           Mo  tau(   9) = (   0.0001866   0.0139241   3.3346220  )
        10           Mo  tau(  10) = (  -0.2515074   0.4301093   3.3254296  )
        11           Mo  tau(  11) = (   0.4875998   0.0082815   3.3393628  )
        12           Mo  tau(  12) = (   0.2613575   0.4426123   3.3412552  )
        13           S   tau(  13) = (  -0.0091778   0.2878309   0.2562876  )
        14           S   tau(  14) = (  -0.2539670   0.7318783   0.2343915  )
        15           S   tau(  15) = (   0.5017512   0.2919015   0.2300825  )
        16           S   tau(  16) = (   0.2557849   0.7121567   0.2544697  )
        17           S   tau(  17) = (   0.0049310   0.0084104   0.8562489  )
        18           S   tau(  18) = (  -0.2553365   0.4469084   0.8686341  )
        19           S   tau(  19) = (   0.4970164  -0.0145992   0.8683892  )
        20           S   tau(  20) = (   0.2624414   0.4411949   0.8685524  )
        21           S   tau(  21) = (   0.0098765   0.0007363   1.3469612  )
        22           S   tau(  22) = (  -0.2486950   0.4315953   1.3433265  )
        23           S   tau(  23) = (   0.4898017  -0.0045524   1.3680264  )
        24           S   tau(  24) = (   0.2456001   0.4386520   1.3712252  )
        25           S   tau(  25) = (   0.2480218   0.1306198   1.9866635  )
        26           S   tau(  26) = (  -0.0131671   0.5790652   1.9879403  )
        27           S   tau(  27) = (   0.7605997   0.1424246   1.9707954  )
        28           S   tau(  28) = (   0.4854121   0.5802732   1.9799504  )
        29           S   tau(  29) = (   0.2582095   0.1426132   2.4840480  )
        30           S   tau(  30) = (  -0.0078647   0.5653132   2.4677040  )
        31           S   tau(  31) = (   0.7415125   0.1565967   2.4710616  )
        32           S   tau(  32) = (   0.4973643   0.5747772   2.4572410  )
        33           S   tau(  33) = (  -0.0078808   0.2990558   3.0874354  )
        34           S   tau(  34) = (  -0.2428184   0.7310541   3.1038423  )
        35           S   tau(  35) = (   0.5021330   0.2952154   3.1079523  )
        36           S   tau(  36) = (   0.2524530   0.7184285   3.0803515  )

     number of k points=     5  Marzari-Vanderbilt smearing, width (Ry)=  0.0200
                       cart. coord. in units 2pi/alat
        k(    1) = (   0.0000000   0.0000000   0.0000000), wk =   0.2222222
        k(    2) = (   0.0000000   0.3849001   0.0000000), wk =   0.4444444
        k(    3) = (   0.3333333   0.5773502   0.0000000), wk =   0.4444444
        k(    4) = (  -0.3333333   0.1924501   0.0000000), wk =   0.4444444
        k(    5) = (   0.3333333   0.1924501   0.0000000), wk =   0.4444444

     Initial potential from superposition of free atoms

     starting charge  215.98107, renormalised to  216.00000
     Starting wfcs are  204 randomized atomic wfcs

     Self-consistent Calculation

     iteration #  1     ecut=    45.00 Ry     beta= 0.70
     Davidson diagonalization with overlap
     ethr =  1.00E-02,  avg # of iterations =  2.0

     total energy              =    -843.22517888 Ry
     Harris-Foulkes estimate   =    -846.73664216 Ry
     estimated scf accuracy    <       9.42984194 Ry

[...]

     total energy              =    -845.10185492 Ry
     Harris-Foulkes estimate   =    -845.10185506 Ry
     estimated scf accuracy    <       0.00000144 Ry

     iteration # 16     ecut=    45.00 Ry     beta= 0.70
     Davidson diagonalization with overlap
     ethr =  4.70E-10,  avg # of iterations =  1.0

     End of self-consistent calculation

          k = 0.0000 0.0000 0.0000 ( 29989 PWs)   bands (ev):

    -8.9360  -8.8585  -8.8144  -7.9446  -7.9127  -7.8889  -7.7709  -7.5845
    -7.5808  -7.4903  -7.4783  -7.4411  -7.3936  -7.3613  -7.2879  -7.2484
    -7.2332  -7.2073  -7.1965  -7.1508  -7.1055  -7.0429  -7.0258  -7.0168
    -0.6360  -0.5944  -0.5578  -0.5481  -0.4879  -0.4752  -0.4457  -0.4146
    -0.4124  -0.3709  -0.3508  -0.2806   0.2153   0.2916   0.2972   0.3126
     0.3749   0.3967   0.4004   0.4295   0.4716   0.7371   0.8313   0.8717
     0.9217   0.9365   0.9426   1.0800   1.1363   1.1886   1.5529   1.5930
     1.6039   1.6327   1.7403   1.8106   1.8179   1.8587   1.9152   2.0987
     2.1695   2.2127   2.2397   2.2985   2.3642   2.5727   2.6445   2.6856
     2.7042   2.7323   2.7685   2.7886   2.8413   2.8442   2.8976   2.9665
     3.1188   3.1626   3.1932   3.2766   3.3151   3.3418   3.4003   3.4234
     3.4462   3.4758   3.4860   3.5534   3.5777   3.6026   3.6854   3.7215
     3.8581   3.9271   3.9718   4.0215   4.0683   4.1168   4.1329   4.1625
     4.2224   4.5107   4.7195   4.7514   6.0650   6.0682   6.0869   6.0895
     6.1192   6.1579   6.2099   6.2118   6.2439   6.4579   6.4797   6.5315
     6.5575   6.5835   6.5921   6.6025   6.6189   6.6290   6.6647   6.6957
     6.7006   6.7083

[...]

          k =-0.3333 0.1925 0.0000 ( 29950 PWs)   bands (ev):

[...]

          k = 0.3333 0.1925 0.0000 ( 29950 PWs)   bands (ev):

    -8.6601  -8.5701  -8.5288  -8.0401  -7.9243  -7.8606  -7.8023  -7.7362
    -7.7019  -7.5881  -7.5090  -7.5077  -7.4692  -7.4672  -7.4058  -7.3718
    -7.3644  -7.3014  -7.1998  -7.1732  -7.1161  -7.1031  -7.0494  -7.0329
    -0.2718  -0.1964  -0.1665  -0.1521  -0.0806  -0.0739  -0.0130  -0.0020
     0.0317   0.0425   0.0673   0.1499   0.2494   0.3022   0.3109   0.3205
     0.3883   0.4227   0.7809   0.8539   0.8823   0.9150   0.9439   0.9948
     1.0126   1.0183   1.0364   1.1748   1.2018   1.2637   1.4644   1.5122
     1.5950   1.6075   1.6253   1.6650   1.6798   1.7538   1.7992   1.9290
     1.9496   1.9917   2.0985   2.1259   2.1612   2.2519   2.3160   2.3818
     2.4470   2.4586   2.5004   2.5984   2.6427   2.6471   2.7145   2.7333
     2.7938   2.8204   2.8808   2.8969   2.9120   2.9717   2.9842   3.0402
     3.0688   3.1305   3.2021   3.3122   3.3548   3.4331   3.4670   3.6039
     3.6901   3.7615   3.7891   3.9907   4.0170   4.0969   4.1084   4.1994
     4.2184   4.3270   4.3913   4.4152   6.0669   6.0894   6.1129   6.1401
     6.2124   6.2337   6.2410   6.2670   6.2872   6.3018   6.3193   6.3602
     6.3835   6.4466   6.4788   6.5054   6.5270   6.5713   6.5789   6.6454
     6.6935   6.6992

     the Fermi energy is     4.6978 ev

!    total energy              =    -845.10185454 Ry
     Harris-Foulkes estimate   =    -845.10185497 Ry
     estimated scf accuracy    <       0.00000048 Ry

     The total energy is the sum of the following terms:

     one-electron contribution =    -189.29247607 Ry
     hartree contribution      =     204.25444333 Ry
     xc contribution           =    -331.21784884 Ry
     ewald contribution        =    -528.87009276 Ry
     smearing contrib. (-TS)   =       0.02411980 Ry

     convergence has been achieved in  16 iterations

     Forces acting on atoms (cartesian axes, Ry/au):

     atom    1 type  1   force =     0.01391077    0.07057904   -0.01718055
     atom    2 type  1   force =     0.06287006   -0.03190164   -0.01031209
     atom    3 type  1   force =    -0.01103020    0.04385394   -0.00783344
     atom    4 type  1   force =     0.02495819    0.01611564   -0.05873783
     atom    5 type  1   force =     0.01790100   -0.06913015    0.04752150
     atom    6 type  1   force =     0.00163253    0.04606489    0.03113573
     atom    7 type  1   force =    -0.01024333    0.04821575   -0.01000681
     atom    8 type  1   force =    -0.04908514   -0.00120959    0.06004100
     atom    9 type  1   force =    -0.02134154   -0.03348350    0.01622042
     atom   10 type  1   force =     0.02356687    0.04491976    0.08001992
     atom   11 type  1   force =     0.08367862   -0.02875139    0.01111107
     atom   12 type  1   force =    -0.06971205   -0.01487969   -0.00437758
     atom   13 type  2   force =     0.01600614    0.01318196   -0.10275184
     atom   14 type  2   force =    -0.00752279   -0.01389820   -0.04982577
     atom   15 type  2   force =     0.00468461    0.00296433   -0.02251664
     atom   16 type  2   force =    -0.00782264    0.03447271   -0.09278509
     atom   17 type  2   force =    -0.01177413   -0.02428066    0.08356659
     atom   18 type  2   force =    -0.00737805   -0.03110594    0.06871458
     atom   19 type  2   force =     0.00359675    0.02229104    0.05448117
     atom   20 type  2   force =    -0.03401107   -0.02029408    0.08131200
     atom   21 type  2   force =    -0.03176995   -0.00910316   -0.01915681
     atom   22 type  2   force =    -0.01978901   -0.02356856   -0.01634159
     atom   23 type  2   force =     0.01686915    0.00241267   -0.07615647
     atom   24 type  2   force =    -0.00686147   -0.01561528   -0.08345726
     atom   25 type  2   force =    -0.00251736    0.01450897    0.04678695
     atom   26 type  2   force =     0.02459067    0.00448489    0.01274905
     atom   27 type  2   force =    -0.01995161    0.00966671    0.06131499
     atom   28 type  2   force =     0.02859858   -0.03326584    0.03517646
     atom   29 type  2   force =    -0.02043656   -0.00902733   -0.09990986
     atom   30 type  2   force =     0.01571172    0.02843494   -0.06386569
     atom   31 type  2   force =     0.02576763   -0.02667044   -0.07712528
     atom   32 type  2   force =    -0.01154919   -0.01158858   -0.04387285
     atom   33 type  2   force =     0.03016356   -0.00841154    0.06292267
     atom   34 type  2   force =    -0.03121234   -0.00464490    0.01417403
     atom   35 type  2   force =    -0.01908618   -0.01261144   -0.00621054
     atom   36 type  2   force =    -0.00141223    0.02127466    0.09517585

     Total force =     0.420774     Total SCF correction =     0.001478

     General routines

     Parallel routines

   This run was terminated on:  21:17: 0   3Aug2021

   JOB DONE.