     Program PWSCF v.6.4 starts on 25Dec2021 at  0:10:46

     R & G space division:  proc/nbgrp/npool/nimage =      40
     Waiting for input...
     Reading input from standard input
Warning: card    &IONS ignored
Warning: card      ION_DYNAMICS = 'BFGS' ignored
Warning: card   / ignored
Warning: card    &CELL ignored
Warning: card      CELL_DYNAMICS = 'BFGS', ignored
Warning: card    / ignored

     Current dimensions of program PWSCF are:
     Max number of different atomic species (ntypx) = 10
     Max number of k-points (npk) =  40000
     Max angular momentum in pseudopotentials (lmaxx) =  3

     Found symmetry operation: I + (  0.0000 -0.5000  0.0000)
     This is a supercell, fractional translations are disabled

     bravais-lattice index     =            0
     lattice parameter (alat)  =      12.1536  a.u.
     unit-cell volume          =    5297.5662 (a.u.)^3
     number of atoms/cell      =           36
     number of atomic types    =            2
     number of electrons       =       216.00
     number of Kohn-Sham states=          130
     kinetic-energy cutoff     =      45.0000  Ry
     charge density cutoff     =     360.0000  Ry
     convergence threshold     =      1.0E-06
     mixing beta               =       0.7000
     number of iterations used =            8  local-TF  mixing
     Exchange-correlation      = SLA PW GGX GGC ( 1  4  2  2 0 0)

     celldm(1)=  12.153560  celldm(2)=   0.000000  celldm(3)=   0.000000
     celldm(4)=   0.000000  celldm(5)=   0.000000  celldm(6)=   0.000000

     crystal axes: (cart. coord. in units of alat)
               a(1) = (   1.000000   0.000000   0.000000 )
               a(2) = (  -0.500000   0.866026   0.000000 )
               a(3) = (   0.000000   0.000000   3.407495 )

     reciprocal axes: (cart. coord. in units 2 pi/alat)
               b(1) = (  1.000000  0.577350  0.000000 )
               b(2) = (  0.000000  1.154700  0.000000 )
               b(3) = (  0.000000  0.000000  0.293471 )

     PseudoPot. # 1 for Mo read from file:
     ~/pseudo/Mo.pw91-n-van.UPF
     MD5 check sum: Not computed, couldn't open file
     Pseudo is Ultrasoft + core correction, Zval =  6.0
     Generated by new atomic code, or converted to UPF format
     Using radial grid of  965 points,  3 beta functions with:
                l(1) =   1
                l(2) =   2
                l(3) =   2
     Q(r) pseudized with  8 coefficients,  rinner =    1.000   1.000   1.000
                                                       1.200   1.200

     PseudoPot. # 2 for S  read from file:
     ~/pseudo/S.pw91-van_ak.UPF
     MD5 check sum: Not computed, couldn't open file
     Pseudo is Ultrasoft, Zval =  6.0
     Generated by new atomic code, or converted to UPF format
     Using radial grid of  811 points,  6 beta functions with:
                l(1) =   0
                l(2) =   0
                l(3) =   1
                l(4) =   1
                l(5) =   2
                l(6) =   2
     Q(r) pseudized with  8 coefficients,  rinner =    1.100   1.100   1.100
                                                       1.100   1.100

     atomic species   valence    mass     pseudopotential
        Mo             6.00    95.50000     Mo( 1.00)
        S              6.00    32.06500     S ( 1.00)

     No symmetry found

   Cartesian axes

     site n.     atom                  positions (alat units)
         1           Mo  tau(   1) = (   0.2888553   0.6995536   1.6012862  )
         2           Mo  tau(   2) = (   0.5388548  -0.0221338   2.7111818  )
         3           Mo  tau(   3) = (   0.3750000   0.6495192   0.3322790  )
         4           Mo  tau(   4) = (   0.5388553   0.2665410   1.6012862  )
         5           Mo  tau(   5) = (   0.7888546   0.4108788   2.7111818  )
         6           Mo  tau(   6) = (   0.6250000   0.2165063   0.3322790  )
         7           Mo  tau(   7) = (   1.0388547  -0.0221339   2.7111818  )
         8           Mo  tau(   8) = (   0.0388553   0.2665410   1.6012862  )
         9           Mo  tau(   9) = (  -0.2111447   0.6995536   1.6012862  )
        10           Mo  tau(  10) = (   0.2888548   0.4108788   2.7111818  )
        11           Mo  tau(  11) = (   0.1250000   0.2165063   0.3322790  )
        12           Mo  tau(  12) = (  -0.1250000   0.6495192   0.3322790  )
        13           S   tau(  13) = (   0.2888553   0.6995536   2.4656882  )
        14           S   tau(  14) = (   0.2888553   0.6995536   2.9566236  )
        15           S   tau(  15) = (   0.3749997   0.0721689   0.0867969  )
        16           S   tau(  16) = (   0.3749997   0.0721689   0.5776964  )
        17           S   tau(  17) = (   0.5388550   0.5552163   1.3557261  )
        18           S   tau(  18) = (   0.5388550   0.5552163   1.8468248  )
        19           S   tau(  19) = (   0.5388553   0.2665410   2.4656881  )
        20           S   tau(  20) = (   0.5388553   0.2665410   2.9566229  )
        21           S   tau(  21) = (   0.6249998   0.5051816   0.0867969  )
        22           S   tau(  22) = (   0.6249997   0.5051817   0.5776964  )
        23           S   tau(  23) = (   0.7888549   0.1222036   1.3557261  )
        24           S   tau(  24) = (   0.7888549   0.1222036   1.8468248  )
        25           S   tau(  25) = (   0.8749998   0.0721689   0.0867969  )
        26           S   tau(  26) = (   0.8749998   0.0721689   0.5776964  )
        27           S   tau(  27) = (   0.0388553   0.2665410   2.4656882  )
        28           S   tau(  28) = (   0.0388553   0.2665410   2.9566236  )
        29           S   tau(  29) = (  -0.2111447   0.6995536   2.4656882  )
        30           S   tau(  30) = (  -0.2111447   0.6995536   2.9566236  )
        31           S   tau(  31) = (   0.1249998   0.5051817   0.0867969  )
        32           S   tau(  32) = (   0.1249998   0.5051817   0.5776964  )
        33           S   tau(  33) = (   0.2888551   0.1222036   1.3557260  )
        34           S   tau(  34) = (   0.2888551   0.1222036   1.8468247  )
        35           S   tau(  35) = (   0.0388551   0.5552163   1.3557261  )
        36           S   tau(  36) = (   0.0388551   0.5552163   1.8468248  )

     number of k points=     5  Marzari-Vanderbilt smearing, width (Ry)=  0.0200
                       cart. coord. in units 2pi/alat
        k(    1) = (   0.0000000   0.0000000   0.0000000), wk =   0.2222222
        k(    2) = (   0.0000000   0.3849001   0.0000000), wk =   0.4444444
        k(    3) = (   0.3333333   0.5773502   0.0000000), wk =   0.4444444
        k(    4) = (  -0.3333333   0.1924501   0.0000000), wk =   0.4444444
        k(    5) = (   0.3333333   0.1924501   0.0000000), wk =   0.4444444

     Initial potential from superposition of free atoms

     starting charge  215.98107, renormalised to  216.00000
     Starting wfcs are  204 randomized atomic wfcs

     Self-consistent Calculation

     iteration #  1     ecut=    45.00 Ry     beta= 0.70
     Davidson diagonalization with overlap
     ethr =  1.00E-02,  avg # of iterations =  2.0

     total energy              =    -844.24845592 Ry
     Harris-Foulkes estimate   =    -846.85377950 Ry
     estimated scf accuracy    <       6.65784537 Ry

[...]

     total energy              =    -845.54275574 Ry
     Harris-Foulkes estimate   =    -845.54275601 Ry
     estimated scf accuracy    <       0.00000250 Ry

     iteration # 14     ecut=    45.00 Ry     beta= 0.70
     Davidson diagonalization with overlap
     ethr =  1.16E-09,  avg # of iterations =  2.6

     End of self-consistent calculation

          k = 0.0000 0.0000 0.0000 ( 26891 PWs)   bands (ev):

    -8.4064  -8.3485  -8.3194  -7.2275  -7.1414  -7.1162  -6.6620  -6.6432
    -6.6431  -6.6318  -6.6318  -6.6169  -6.5829  -6.5829  -6.5829  -6.3931
    -6.3771  -6.3770  -6.3653  -6.3652  -6.3458  -6.3172  -6.3172  -6.3171
    -0.0381  -0.0230  -0.0160  -0.0159  -0.0009  -0.0008   0.0263   0.0499
     0.0499   0.0500   0.1950   0.2966   0.8845   0.9233   0.9235   0.9396
     0.9397   0.9770   0.9925   0.9925   0.9981   1.5291   1.6080   1.6083
     1.6387   1.6390   1.6759   1.6837   1.6838   1.7186   2.5100   2.5133
     2.5134   2.5256   2.5256   2.5291   2.5736   2.5736   2.5736   3.0350
     3.0357   3.0447   3.0456   3.0910   3.0911   3.5486   3.5961   3.7385
     3.7390   3.7701   3.7704   3.8111   3.8483   3.8486   3.9010   3.9464
     4.1450   4.1472   4.1575   4.1598   4.2061   4.2062   4.4026   4.6587
     4.6691   4.6692   4.6903   4.6905   4.7023   4.7347   4.7348   4.7349
     4.9125   4.9571   4.9573   4.9782   4.9785   5.0256   5.0279   5.0279
     5.0498   5.3933   5.7239   5.8905   7.6408   7.6428   7.6430   7.6536
     7.6538   7.6557   7.6943   7.6943   7.6946   8.1261   8.1536   8.1536
     8.1703   8.1703   8.1982   8.2146   8.2146   8.2148   8.3015   8.3204
     8.3345   8.3470

[...]

          k =-0.3333 0.1925 0.0000 ( 26982 PWs)   bands (ev):

[...]

          k = 0.3333 0.1925 0.0000 ( 26982 PWs)   bands (ev):

    -8.0406  -7.9849  -7.9550  -7.1824  -7.1402  -7.1048  -7.0468  -6.9692
    -6.9447  -6.6819  -6.6745  -6.6458  -6.6402  -6.6303  -6.6048  -6.6048
    -6.5812  -6.5501  -6.3791  -6.3726  -6.3428  -6.3348  -6.3040  -6.3039
     0.3816   0.4099   0.4183   0.4647   0.4683   0.4757   0.5016   0.5020
     0.5555   0.5826   0.5938   0.6898   0.8503   0.8576   0.8734   0.8873
     0.9224   0.9224   1.4913   1.5670   1.6224   1.7369   1.7449   1.8150
     1.8212   1.8389   1.8609   1.8979   1.9051   1.9327   2.3108   2.3223
     2.3687   2.4209   2.4260   2.5098   2.5199   2.5426   2.5488   2.6819
     2.8294   2.8414   2.8529   2.8895   2.9676   3.2673   3.2915   3.3395
     3.3544   3.3709   3.3718   3.4380   3.4476   3.4940   3.6145   3.6253
     3.6738   3.8113   3.8795   3.9279   3.9323   3.9495   3.9709   4.0127
     4.0307   4.1498   4.2734   4.2878   4.3326   4.4048   4.5566   4.6381
     4.6828   4.7147   4.7891   5.1110   5.1218   5.1329   5.1492   5.1770
     5.1772   5.2184   5.3812   5.4199   7.6167   7.6191   7.6727   7.6902
     7.6975   7.7093   7.7233   7.7273   7.7311   7.7485   7.7509   7.8769
     7.8895   7.9368   7.9748   8.0961   8.1084   8.1270   8.1369   8.1437
     8.1648   8.1771

     the Fermi energy is     5.7864 ev

!    total energy              =    -845.54275502 Ry
     Harris-Foulkes estimate   =    -845.54275588 Ry
     estimated scf accuracy    <       0.00000090 Ry

     The total energy is the sum of the following terms:

     one-electron contribution =    -303.05375734 Ry
     hartree contribution      =     269.42029537 Ry
     xc contribution           =    -334.17370884 Ry
     ewald contribution        =    -477.75353729 Ry
     smearing contrib. (-TS)   =       0.01795306 Ry

     convergence has been achieved in  14 iterations

     Forces acting on atoms (cartesian axes, Ry/au):

     atom    1 type  1   force =     0.00018769   -0.00039635   -0.00062920
     atom    2 type  1   force =     0.00037701    0.00006470    0.00118406
     atom    3 type  1   force =     0.00014406    0.00043716   -0.00084718
     atom    4 type  1   force =    -0.00036169    0.00029943   -0.00090660
     atom    5 type  1   force =     0.00021559   -0.00041658    0.00119301
     atom    6 type  1   force =     0.00021146   -0.00012359   -0.00089341
     atom    7 type  1   force =    -0.00034395    0.00028968    0.00146933
     atom    8 type  1   force =     0.00034985    0.00007876   -0.00061142
     atom    9 type  1   force =    -0.00021029    0.00002534   -0.00056848
     atom   10 type  1   force =    -0.00019106    0.00000703    0.00115793
     atom   11 type  1   force =    -0.00030862   -0.00034528   -0.00084818
     atom   12 type  1   force =    -0.00029328    0.00016323   -0.00089595
     atom   13 type  2   force =     0.00000014   -0.00015518   -0.00044799
     atom   14 type  2   force =     0.00003622   -0.00022303   -0.00134489
     atom   15 type  2   force =    -0.00026647   -0.00011926    0.00147094
     atom   16 type  2   force =    -0.00000380   -0.00018947    0.00089689
     atom   17 type  2   force =     0.00003651    0.00011433   -0.00029695
     atom   18 type  2   force =     0.00001490    0.00012380    0.00013455
     atom   19 type  2   force =     0.00007617   -0.00006188   -0.00014681
     atom   20 type  2   force =    -0.00000126    0.00003282   -0.00116437
     atom   21 type  2   force =    -0.00003798    0.00029522    0.00147404
     atom   22 type  2   force =     0.00015340    0.00009521    0.00089641
     atom   23 type  2   force =     0.00011622   -0.00004282   -0.00040993
     atom   24 type  2   force =     0.00012822   -0.00003679    0.00014968
     atom   25 type  2   force =    -0.00027389    0.00014854    0.00147703
     atom   26 type  2   force =    -0.00000172   -0.00000888    0.00078592
     atom   27 type  2   force =     0.00008518    0.00009040   -0.00047930
     atom   28 type  2   force =     0.00012353    0.00005488   -0.00135568
     atom   29 type  2   force =     0.00018725   -0.00005852   -0.00050216
     atom   30 type  2   force =     0.00022246   -0.00007911   -0.00128648
     atom   31 type  2   force =    -0.00016600    0.00010491    0.00147273
     atom   32 type  2   force =    -0.00003656    0.00002291    0.00078194
     atom   33 type  2   force =    -0.00004103   -0.00015660   -0.00031409
     atom   34 type  2   force =    -0.00004890   -0.00010677    0.00010050
     atom   35 type  2   force =    -0.00010256    0.00009619   -0.00051676
     atom   36 type  2   force =     0.00002322   -0.00002442   -0.00017911

     Total force =     0.005777     Total SCF correction =     0.002818
     SCF correction compared to forces is large: reduce conv_thr to get better values

     General routines

     Parallel routines

   This run was terminated on:   0:12:17  25Dec2021

   JOB DONE.