     Program PWSCF v.6.4 starts on 23Dec2021 at 23:26:10

     R & G space division:  proc/nbgrp/npool/nimage =      40
     Waiting for input...
     Reading input from standard input
Warning: card    &IONS ignored
Warning: card      ION_DYNAMICS = 'BFGS' ignored
Warning: card   / ignored
Warning: card    &CELL ignored
Warning: card      CELL_DYNAMICS = 'BFGS', ignored
Warning: card    / ignored

     Current dimensions of program PWSCF are:
     Max number of different atomic species (ntypx) = 10
     Max number of k-points (npk) =  40000
     Max angular momentum in pseudopotentials (lmaxx) =  3

     bravais-lattice index     =            0
     lattice parameter (alat)  =      17.3153  a.u.
     unit-cell volume          =    5936.8422 (a.u.)^3
     number of atoms/cell      =           27
     number of atomic types    =            2
     number of electrons       =       162.00
     number of Kohn-Sham states=           97
     kinetic-energy cutoff     =      45.0000  Ry
     charge density cutoff     =     360.0000  Ry
     convergence threshold     =      1.0E-06
     mixing beta               =       0.7000
     number of iterations used =            8  local-TF  mixing
     Exchange-correlation      = SLA PW GGX GGC ( 1  4  2  2 0 0)

     celldm(1)=  17.315327  celldm(2)=   0.000000  celldm(3)=   0.000000
     celldm(4)=   0.000000  celldm(5)=   0.000000  celldm(6)=   0.000000

     crystal axes: (cart. coord. in units of alat)
               a(1) = (   1.000000   0.000000   0.000000 )
               a(2) = (   0.286969   1.039075   0.000000 )
               a(3) = (   0.333925   0.446923   1.100567 )

     reciprocal axes: (cart. coord. in units 2 pi/alat)
               b(1) = (  1.000000 -0.276177 -0.191261 )
               b(2) = (  0.000000  0.962395 -0.390813 )
               b(3) = (  0.000000  0.000000  0.908622 )

     PseudoPot. # 1 for Mo read from file:
     ~/pseudo/Mo.pw91-n-van.UPF
     MD5 check sum: Not computed, couldn't open file
     Pseudo is Ultrasoft + core correction, Zval =  6.0
     Generated by new atomic code, or converted to UPF format
     Using radial grid of  965 points,  3 beta functions with:
                l(1) =   1
                l(2) =   2
                l(3) =   2
     Q(r) pseudized with  8 coefficients,  rinner =    1.000   1.000   1.000
                                                       1.200   1.200

     PseudoPot. # 2 for S  read from file:
     ~/pseudo/S.pw91-van_ak.UPF
     MD5 check sum: Not computed, couldn't open file
     Pseudo is Ultrasoft, Zval =  6.0
     Generated by new atomic code, or converted to UPF format
     Using radial grid of  811 points,  6 beta functions with:
                l(1) =   0
                l(2) =   0
                l(3) =   1
                l(4) =   1
                l(5) =   2
                l(6) =   2
     Q(r) pseudized with  8 coefficients,  rinner =    1.100   1.100   1.100
                                                       1.100   1.100

     atomic species   valence    mass     pseudopotential
        Mo             6.00    95.50000     Mo( 1.00)
        S              6.00    32.06500     S ( 1.00)

     No symmetry found

   Cartesian axes

     site n.     atom                  positions (alat units)
         1           Mo  tau(   1) = (   0.6792855   1.0797672   0.5831029  )
         2           Mo  tau(   2) = (   0.7760231   1.0838017   0.2950917  )
         3           Mo  tau(   3) = (   0.7501251   0.4680825   1.0650539  )
         4           Mo  tau(   4) = (   0.4274653   0.9673890   0.7945695  )
         5           Mo  tau(   5) = (   0.6936694   0.3817669   0.7845982  )
         6           Mo  tau(   6) = (   0.5926876   0.6724686   0.8964008  )
         7           Mo  tau(   7) = (   1.3526627   1.1119876   0.5289893  )
         8           Mo  tau(   8) = (   1.2067055   1.2002672   0.7812703  )
         9           Mo  tau(   9) = (   1.0177308   1.1375171   0.5109772  )
        10           S   tau(  10) = (   0.5180182   0.4289417   0.9678650  )
        11           S   tau(  11) = (   0.9314295   0.4140252   0.8915210  )
        12           S   tau(  12) = (   1.1967332   1.0374703   0.3270765  )
        13           S   tau(  13) = (   0.4942258   0.8840721   0.5393354  )
        14           S   tau(  14) = (   0.6894305   0.9329555   0.8164945  )
        15           S   tau(  15) = (   0.8633631   0.9227172   0.4750872  )
        16           S   tau(  16) = (   0.9176014   0.3027413   0.5501573  )
        17           S   tau(  17) = (   0.4959594   1.2418195   0.7269606  )
        18           S   tau(  18) = (   0.7459024   0.7198996   1.0981476  )
        19           S   tau(  19) = (   0.5378344   0.2753629   0.5842974  )
        20           S   tau(  20) = (   0.6798921   0.6121575   0.6619496  )
        21           S   tau(  21) = (   1.1772684   0.9548074   0.6686672  )
        22           S   tau(  22) = (   0.2744448   0.1604025   0.3734764  )
        23           S   tau(  23) = (   1.3520784   0.7545934   0.9311222  )
        24           S   tau(  24) = (   0.9565569   1.1567122   0.8456711  )
        25           S   tau(  25) = (   0.7072150   0.8859642   0.1486418  )
        26           S   tau(  26) = (   1.3356322   1.1148215   0.9963917  )
        27           S   tau(  27) = (   0.6703174   0.2267168   0.2777765  )

     number of k points=     8  Marzari-Vanderbilt smearing, width (Ry)=  0.0200
                       cart. coord. in units 2pi/alat
        k(    1) = (   0.0000000   0.0000000   0.0000000), wk =   0.2500000
        k(    2) = (   0.0000000   0.0000000  -0.4543111), wk =   0.2500000
        k(    3) = (   0.0000000  -0.4811974   0.1954067), wk =   0.2500000
        k(    4) = (   0.0000000  -0.4811974  -0.2589044), wk =   0.2500000
        k(    5) = (  -0.5000000   0.1380886   0.0956303), wk =   0.2500000
        k(    6) = (  -0.5000000   0.1380886  -0.3586809), wk =   0.2500000
        k(    7) = (  -0.5000000  -0.3431088   0.2910369), wk =   0.2500000
        k(    8) = (  -0.5000000  -0.3431088  -0.1632742), wk =   0.2500000

     Initial potential from superposition of free atoms

     starting charge  161.98581, renormalised to  162.00000
     Starting wfcs are  153 randomized atomic wfcs

     Self-consistent Calculation

     iteration #  1     ecut=    45.00 Ry     beta= 0.70
     Davidson diagonalization with overlap
     ethr =  1.00E-02,  avg # of iterations =  2.0

     total energy              =    -631.93906482 Ry
     Harris-Foulkes estimate   =    -634.41027525 Ry
     estimated scf accuracy    <       6.58440578 Ry

[...]

     iteration #  6     ecut=    45.00 Ry     beta= 0.70
     Davidson diagonalization with overlap
     c_bands:  1 eigenvalues not converged
     ethr =  1.92E-05,  avg # of iterations =  8.4

[...]

     iteration #  7     ecut=    45.00 Ry     beta= 0.70
     Davidson diagonalization with overlap
     c_bands:  1 eigenvalues not converged
     ethr =  6.98E-06,  avg # of iterations =  7.9

[...]

     negative rho (up, down):  1.410E-08 0.000E+00

[...]

     total energy              =    -633.23396365 Ry
     Harris-Foulkes estimate   =    -633.23396356 Ry
     estimated scf accuracy    <       0.00000249 Ry

     iteration # 14     ecut=    45.00 Ry     beta= 0.70
     Davidson diagonalization with overlap
     ethr =  1.53E-09,  avg # of iterations =  2.0

[...]

     End of self-consistent calculation

          k = 0.0000 0.0000 0.0000 ( 30231 PWs)   bands (ev):

   -11.5568 -10.9686 -10.8578 -10.7761 -10.7096 -10.6011 -10.5515 -10.5026
   -10.3607 -10.3430 -10.2305 -10.1118 -10.0168  -9.9539  -9.8685  -9.7852
    -9.5870  -9.4477  -3.3280  -3.1676  -3.1469  -2.9950  -2.9157  -2.7701
    -2.5992  -2.4965  -2.4590  -2.3974  -2.2405  -2.2061  -2.1923  -2.1263
    -2.0865  -2.0124  -1.8824  -1.8151  -1.7876  -1.7117  -1.6774  -1.5839
    -1.5118  -1.4250  -1.3812  -1.2697  -1.1885  -1.1652  -1.1339  -1.0185
    -1.0072  -0.9321  -0.9029  -0.8838  -0.7433  -0.7384  -0.6927  -0.5561
    -0.5078  -0.3979  -0.2774  -0.1985  -0.1165   0.0092   0.0392   0.1772
     0.3539   0.5261   0.6441   0.7601   0.8494   0.9380   1.0198   1.1522
     1.3482   1.3902   1.5332   1.5414   1.7248   1.7274   1.9484   2.0037
     2.1242   2.2307   2.3971   2.5423   2.6202   2.7152   2.9265   3.0801
     3.1951   3.3276   3.4458   3.5025   3.5947   3.7150   3.7772   3.8525
     4.0637

[...]

          k = 0.0000-0.4812-0.2589 ( 30306 PWs)   bands (ev):

[...]

          k =-0.5000 0.1381 0.0956 ( 30234 PWs)   bands (ev):

[...]

          k =-0.5000-0.3431-0.1633 ( 30242 PWs)   bands (ev):

   -11.3807 -11.1785 -10.9880 -10.7751 -10.6814 -10.6129 -10.5533 -10.4561
   -10.3514 -10.2916 -10.2092 -10.1515  -9.9961  -9.9424  -9.8776  -9.7357
    -9.5880  -9.4441  -3.3357  -3.3227  -3.1152  -2.9163  -2.8274  -2.6892
    -2.6288  -2.5334  -2.4596  -2.4259  -2.2979  -2.2113  -2.1622  -2.1016
    -2.0566  -1.9738  -1.9178  -1.8957  -1.7844  -1.7169  -1.6677  -1.6084
    -1.5511  -1.4706  -1.3817  -1.3399  -1.2816  -1.1843  -1.1074  -1.0261
    -1.0035  -0.8989  -0.8812  -0.8300  -0.7424  -0.6956  -0.6191  -0.5033
    -0.4402  -0.2951  -0.2776  -0.1495  -0.0894  -0.0111   0.0843   0.2550
     0.3477   0.3874   0.5390   0.6180   0.6770   0.8749   1.0318   1.1350
     1.3085   1.4901   1.5357   1.6637   1.7154   1.7659   1.9098   2.0661
     2.2164   2.2889   2.3782   2.4287   2.5512   2.6809   2.9246   3.0626
     3.2689   3.3400   3.4416   3.5005   3.6230   3.7075   3.7990   3.8985
     3.9788

     the Fermi energy is     2.1976 ev

!    total energy              =    -633.23396376 Ry
     Harris-Foulkes estimate   =    -633.23396392 Ry
     estimated scf accuracy    <       0.00000058 Ry

     The total energy is the sum of the following terms:

     one-electron contribution =    -496.66987825 Ry
     hartree contribution      =     314.59722532 Ry
     xc contribution           =    -249.21917415 Ry
     ewald contribution        =    -201.94436249 Ry
     smearing contrib. (-TS)   =       0.00222582 Ry

     convergence has been achieved in  14 iterations

     negative rho (up, down):  7.969E-08 0.000E+00

     Forces acting on atoms (cartesian axes, Ry/au):

     atom    1 type  1   force =    -0.01273389    0.01359450    0.01671975
     atom    2 type  1   force =     0.01724547    0.02381659    0.00840586
     atom    3 type  1   force =     0.01656987    0.00211367    0.01235130
     atom    4 type  1   force =     0.04812779    0.03715971    0.00001686
     atom    5 type  1   force =    -0.00185006    0.02018374   -0.03171074
     atom    6 type  1   force =     0.00241039   -0.00669803   -0.04152336
     atom    7 type  1   force =    -0.06226704   -0.03603915    0.00175359
     atom    8 type  1   force =     0.03548739   -0.03226386    0.01060307
     atom    9 type  1   force =    -0.01613876   -0.00087203   -0.00015447
     atom   10 type  2   force =    -0.02628854   -0.01028212    0.00521363
     atom   11 type  2   force =    -0.01372772    0.00927173    0.01603240
     atom   12 type  2   force =     0.00624473    0.02645640    0.02787102
     atom   13 type  2   force =     0.00159939    0.01590598   -0.00440724
     atom   14 type  2   force =    -0.02582518   -0.00440641    0.01288010
     atom   15 type  2   force =    -0.00081022    0.00010903    0.00515719
     atom   16 type  2   force =    -0.01552190   -0.00384525    0.01015537
     atom   17 type  2   force =    -0.01396347   -0.03244919   -0.00818161
     atom   18 type  2   force =     0.01918741   -0.00632847   -0.00110821
     atom   19 type  2   force =     0.00211402    0.00751281    0.00405694
     atom   20 type  2   force =    -0.00256510    0.00125814    0.02069612
     atom   21 type  2   force =     0.01132834    0.02332682   -0.00362439
     atom   22 type  2   force =     0.01867435   -0.00722244   -0.00800535
     atom   23 type  2   force =     0.01731057   -0.00796684   -0.00896794
     atom   24 type  2   force =     0.03078231    0.01492500   -0.03045179
     atom   25 type  2   force =     0.00401506    0.01139479   -0.00383728
     atom   26 type  2   force =    -0.01241486   -0.01674457   -0.01849987
     atom   27 type  2   force =    -0.02699035   -0.04191055    0.00855905

     Total force =     0.174771     Total SCF correction =     0.001256

     General routines

     Parallel routines

   This run was terminated on:  23:28: 7  23Dec2021

   JOB DONE.