     Program PWSCF v.6.4 starts on 10Nov2021 at 18:13:40

     R & G space division:  proc/nbgrp/npool/nimage =      40
     Waiting for input...
     Reading input from standard input
Warning: card    &IONS ignored
Warning: card      ION_DYNAMICS = 'BFGS' ignored
Warning: card   / ignored
Warning: card    &CELL ignored
Warning: card      CELL_DYNAMICS = 'BFGS', ignored
Warning: card    / ignored

     Current dimensions of program PWSCF are:
     Max number of different atomic species (ntypx) = 10
     Max number of k-points (npk) =  40000
     Max angular momentum in pseudopotentials (lmaxx) =  3

     bravais-lattice index     =            0
     lattice parameter (alat)  =       6.1150  a.u.
     unit-cell volume          =     862.3403 (a.u.)^3
     number of atoms/cell      =            6
     number of atomic types    =            2
     number of electrons       =        36.00
     number of Kohn-Sham states=           22
     kinetic-energy cutoff     =      45.0000  Ry
     charge density cutoff     =     360.0000  Ry
     convergence threshold     =      1.0E-06
     mixing beta               =       0.7000
     number of iterations used =            8  local-TF  mixing
     Exchange-correlation      = SLA PW GGX GGC ( 1  4  2  2 0 0)

     celldm(1)=   6.115024  celldm(2)=   0.000000  celldm(3)=   0.000000
     celldm(4)=   0.000000  celldm(5)=   0.000000  celldm(6)=   0.000000

     crystal axes: (cart. coord. in units of alat)
               a(1) = (   1.000000   0.000000   0.000000 )
               a(2) = (  -0.494063   0.862265   0.000000 )
               a(3) = (  -0.203042   0.028401   4.373643 )

     reciprocal axes: (cart. coord. in units 2 pi/alat)
               b(1) = (  1.000000  0.572983  0.042703 )
               b(2) = (  0.000000  1.159736 -0.007531 )
               b(3) = (  0.000000  0.000000  0.228642 )

     PseudoPot. # 1 for Mo read from file:
     ~/pseudo/Mo.pw91-n-van.UPF
     MD5 check sum: Not computed, couldn't open file
     Pseudo is Ultrasoft + core correction, Zval =  6.0
     Generated by new atomic code, or converted to UPF format
     Using radial grid of  965 points,  3 beta functions with:
                l(1) =   1
                l(2) =   2
                l(3) =   2
     Q(r) pseudized with  8 coefficients,  rinner =    1.000   1.000   1.000
                                                       1.200   1.200

     PseudoPot. # 2 for S  read from file:
     ~/pseudo/S.pw91-van_ak.UPF
     MD5 check sum: Not computed, couldn't open file
     Pseudo is Ultrasoft, Zval =  6.0
     Generated by new atomic code, or converted to UPF format
     Using radial grid of  811 points,  6 beta functions with:
                l(1) =   0
                l(2) =   0
                l(3) =   1
                l(4) =   1
                l(5) =   2
                l(6) =   2
     Q(r) pseudized with  8 coefficients,  rinner =    1.100   1.100   1.100
                                                       1.100   1.100

     atomic species   valence    mass     pseudopotential
        Mo             6.00    95.50000     Mo( 1.00)
        S              6.00    32.06500     S ( 1.00)

     No symmetry found

   Cartesian axes

     site n.     atom                  positions (alat units)
         1           Mo  tau(   1) = (   0.1497497   0.6610805   3.3187886  )
         2           Mo  tau(   2) = (   0.1529564   0.2296223   1.0547959  )
         3           S   tau(   3) = (  -0.3522108   0.3778076   3.8053889  )
         4           S   tau(   4) = (   0.6554643   0.5131597   0.5681121  )
         5           S   tau(   5) = (   0.6515490   0.5201034   1.5389191  )
         6           S   tau(   6) = (  -0.3488510   0.3702423   2.8346021  )

     number of k points=    40  Marzari-Vanderbilt smearing, width (Ry)=  0.0200
                       cart. coord. in units 2pi/alat
        k(    1) = (   0.0000000   0.0000000   0.0000000), wk =   0.0277778
        k(    2) = (   0.0000000   0.0000000  -0.1143212), wk =   0.0277778
        k(    3) = (   0.0000000   0.1932893  -0.0012552), wk =   0.0555556
        k(    4) = (   0.0000000   0.1932893  -0.1155764), wk =   0.0555556
        k(    5) = (   0.0000000   0.3865786  -0.0025104), wk =   0.0555556
        k(    6) = (   0.0000000   0.3865786  -0.1168315), wk =   0.0555556
        k(    7) = (   0.0000000  -0.5798679   0.0037655), wk =   0.0277778
        k(    8) = (   0.0000000  -0.5798679  -0.1105556), wk =   0.0277778
        k(    9) = (   0.1666667   0.0954972   0.0071172), wk =   0.0555556
        k(   10) = (   0.1666667   0.0954972  -0.1072040), wk =   0.0555556
        k(   11) = (   0.1666667   0.2887865   0.0058620), wk =   0.0555556
        k(   12) = (   0.1666667   0.2887865  -0.1084592), wk =   0.0555556
        k(   13) = (   0.1666667   0.4820757   0.0046068), wk =   0.0555556
        k(   14) = (   0.1666667   0.4820757  -0.1097143), wk =   0.0555556
        k(   15) = (   0.1666667  -0.4843707   0.0108827), wk =   0.0555556
        k(   16) = (   0.1666667  -0.4843707  -0.1034384), wk =   0.0555556
        k(   17) = (   0.1666667  -0.2910814   0.0096276), wk =   0.0555556
        k(   18) = (   0.1666667  -0.2910814  -0.1046936), wk =   0.0555556
        k(   19) = (   0.1666667  -0.0977921   0.0083724), wk =   0.0555556
        k(   20) = (   0.1666667  -0.0977921  -0.1059488), wk =   0.0555556
        k(   21) = (   0.3333333   0.1909943   0.0142344), wk =   0.0555556
        k(   22) = (   0.3333333   0.1909943  -0.1000868), wk =   0.0555556
        k(   23) = (   0.3333333   0.3842836   0.0129792), wk =   0.0555556
        k(   24) = (   0.3333333   0.3842836  -0.1013420), wk =   0.0555556
        k(   25) = (   0.3333333   0.5775729   0.0117240), wk =   0.0555556
        k(   26) = (   0.3333333   0.5775729  -0.1025971), wk =   0.0555556
        k(   27) = (   0.3333333  -0.3888736   0.0179999), wk =   0.0555556
        k(   28) = (   0.3333333  -0.3888736  -0.0963213), wk =   0.0555556
        k(   29) = (   0.3333333  -0.1955843   0.0167448), wk =   0.0555556
        k(   30) = (   0.3333333  -0.1955843  -0.0975764), wk =   0.0555556
        k(   31) = (   0.3333333  -0.0022950   0.0154896), wk =   0.0555556
        k(   32) = (   0.3333333  -0.0022950  -0.0988316), wk =   0.0555556
        k(   33) = (  -0.5000000  -0.2864915  -0.0213516), wk =   0.0277778
        k(   34) = (  -0.5000000  -0.2864915  -0.1356728), wk =   0.0277778
        k(   35) = (  -0.5000000  -0.0932022  -0.0226068), wk =   0.0555556
        k(   36) = (  -0.5000000  -0.0932022  -0.1369280), wk =   0.0555556
        k(   37) = (  -0.5000000   0.1000871  -0.0238619), wk =   0.0555556
        k(   38) = (  -0.5000000   0.1000871  -0.1381831), wk =   0.0555556
        k(   39) = (  -0.5000000  -0.8663594  -0.0175861), wk =   0.0277778
        k(   40) = (  -0.5000000  -0.8663594  -0.1319072), wk =   0.0277778

     Initial potential from superposition of free atoms

     starting charge   35.99685, renormalised to   36.00000
     Starting wfcs are   34 randomized atomic wfcs

     Self-consistent Calculation

     iteration #  1     ecut=    45.00 Ry     beta= 0.70
     Davidson diagonalization with overlap
     ethr =  1.00E-02,  avg # of iterations =  2.0

     total energy              =    -140.69989446 Ry
     Harris-Foulkes estimate   =    -141.14395581 Ry
     estimated scf accuracy    <       1.13493844 Ry

[...]

     total energy              =    -140.92261052 Ry
     Harris-Foulkes estimate   =    -140.92261138 Ry
     estimated scf accuracy    <       0.00000415 Ry

     iteration # 11     ecut=    45.00 Ry     beta= 0.70
     Davidson diagonalization with overlap
     ethr =  1.15E-08,  avg # of iterations =  2.6

     End of self-consistent calculation

          k = 0.0000 0.0000 0.0000 (  4449 PWs)   bands (ev):

    -8.0766  -8.0268  -6.8810  -6.7949   0.3092   0.6287   3.2593   3.2621
     3.3356   3.3366   3.8434   4.3731   4.3794   4.4463   4.4498   4.7890
     5.7036   6.2472   8.5757   8.5948   8.6001   8.6156

[...]

          k = 0.3333-0.0023-0.0988 (  4404 PWs)   bands (ev):

[...]

          k =-0.5000-0.2865-0.0214 (  4370 PWs)   bands (ev):

[...]

          k =-0.5000-0.8664-0.1319 (  4364 PWs)   bands (ev):

    -6.3521  -6.3412  -6.0549  -6.0387   0.3197   0.3396   1.2471   1.2998
     1.9261   1.9376   2.7663   2.7737   4.0209   4.2115   4.9027   4.9221
     5.2941   5.3491   7.9011   7.9065   8.4200   8.4403

     the Fermi energy is     6.0884 ev

!    total energy              =    -140.92261054 Ry
     Harris-Foulkes estimate   =    -140.92261087 Ry
     estimated scf accuracy    <       0.00000036 Ry

     The total energy is the sum of the following terms:

     one-electron contribution =     -25.35554066 Ry
     hartree contribution      =      32.70130766 Ry
     xc contribution           =     -55.68394443 Ry
     ewald contribution        =     -92.58727105 Ry
     smearing contrib. (-TS)   =       0.00283795 Ry

     convergence has been achieved in  11 iterations

     Forces acting on atoms (cartesian axes, Ry/au):

     atom    1 type  1   force =     0.00254326   -0.00008661    0.00543746
     atom    2 type  1   force =    -0.00187524   -0.00005936   -0.00567846
     atom    3 type  2   force =     0.00103738   -0.00414586   -0.00114823
     atom    4 type  2   force =    -0.00167165    0.00386759    0.00131141
     atom    5 type  2   force =     0.00287346   -0.00433125    0.00510921
     atom    6 type  2   force =    -0.00290721    0.00475550   -0.00503140

     Total force =     0.014845     Total SCF correction =     0.001676
     SCF correction compared to forces is large: reduce conv_thr to get better values

     General routines

     Parallel routines

   This run was terminated on:  18:14: 0  10Nov2021

   JOB DONE.