     Program PWSCF v.6.4 starts on 18Oct2021 at 16:17: 7

     R & G space division:  proc/nbgrp/npool/nimage =      40
     Waiting for input...
     Reading input from standard input
Warning: card    &IONS ignored
Warning: card      ION_DYNAMICS = 'BFGS' ignored
Warning: card   / ignored
Warning: card    &CELL ignored
Warning: card      CELL_DYNAMICS = 'BFGS', ignored
Warning: card    / ignored

     Current dimensions of program PWSCF are:
     Max number of different atomic species (ntypx) = 10
     Max number of k-points (npk) =  40000
     Max angular momentum in pseudopotentials (lmaxx) =  3

     bravais-lattice index     =            0
     lattice parameter (alat)  =      12.2193  a.u.
     unit-cell volume          =    2448.5576 (a.u.)^3
     number of atoms/cell      =           12
     number of atomic types    =            2
     number of electrons       =        72.00
     number of Kohn-Sham states=           43
     kinetic-energy cutoff     =      45.0000  Ry
     charge density cutoff     =     360.0000  Ry
     convergence threshold     =      1.0E-06
     mixing beta               =       0.7000
     number of iterations used =            8  local-TF  mixing
     Exchange-correlation      = SLA PW GGX GGC ( 1  4  2  2 0 0)

     celldm(1)=  12.219295  celldm(2)=   0.000000  celldm(3)=   0.000000
     celldm(4)=   0.000000  celldm(5)=   0.000000  celldm(6)=   0.000000

     crystal axes: (cart. coord. in units of alat)
               a(1) = (   0.998252   0.058930  -0.004477 )
               a(2) = (   0.436346   0.900995  -0.005858 )
               a(3) = (   0.091288   0.433206   1.533737 )

     reciprocal axes: (cart. coord. in units 2 pi/alat)
               b(1) = (  1.031569 -0.499064  0.079562 )
               b(2) = ( -0.068792  1.141130 -0.318219 )
               b(3) = (  0.002748  0.002902  0.651019 )

     PseudoPot. # 1 for Mo read from file:
     ~/pseudo/Mo.pw91-n-van.UPF
     MD5 check sum: Not computed, couldn't open file
     Pseudo is Ultrasoft + core correction, Zval =  6.0
     Generated by new atomic code, or converted to UPF format
     Using radial grid of  965 points,  3 beta functions with:
                l(1) =   1
                l(2) =   2
                l(3) =   2
     Q(r) pseudized with  8 coefficients,  rinner =    1.000   1.000   1.000
                                                       1.200   1.200

     PseudoPot. # 2 for S  read from file:
     ~/pseudo/S.pw91-van_ak.UPF
     MD5 check sum: Not computed, couldn't open file
     Pseudo is Ultrasoft, Zval =  6.0
     Generated by new atomic code, or converted to UPF format
     Using radial grid of  811 points,  6 beta functions with:
                l(1) =   0
                l(2) =   0
                l(3) =   1
                l(4) =   1
                l(5) =   2
                l(6) =   2
     Q(r) pseudized with  8 coefficients,  rinner =    1.100   1.100   1.100
                                                       1.100   1.100

     atomic species   valence    mass     pseudopotential
        Mo             6.00    95.50000     Mo( 1.00)
        S              6.00    32.06500     S ( 1.00)

     No symmetry found

   Cartesian axes

     site n.     atom                  positions (alat units)
         1           Mo  tau(   1) = (   1.0977819   0.5051212   1.5221249  )
         2           Mo  tau(   2) = (   0.8184765   0.9148492   1.5224321  )
         3           Mo  tau(   3) = (   0.9401624   0.9334246  -0.0122766  )
         4           Mo  tau(   4) = (   1.3213524   0.9558382   1.5216682  )
         5           S   tau(   5) = (   0.4766987   0.6282389   0.2283668  )
         6           S   tau(   6) = (   0.7466715   0.1941407   0.2323138  )
         7           S   tau(   7) = (   0.9676479   0.6431661   0.2283066  )
         8           S   tau(   8) = (   0.2506436   0.1762275   0.2323906  )
         9           S   tau(   9) = (   0.5643335   1.0574720   1.2829476  )
        10           S   tau(  10) = (   0.8328235   0.6233163   1.2819609  )
        11           S   tau(  11) = (   1.0590926   1.0764094   1.2810496  )
        12           S   tau(  12) = (   0.3427666   0.6082312   1.2881315  )

     number of k points=    10  Marzari-Vanderbilt smearing, width (Ry)=  0.0200
                       cart. coord. in units 2pi/alat
        k(    1) = (   0.0000000   0.0000000   0.0000000), wk =   0.1111111
        k(    2) = (  -0.0013741  -0.0014511  -0.3255095), wk =   0.1111111
        k(    3) = (  -0.0229306   0.3803767  -0.1060730), wk =   0.2222222
        k(    4) = (  -0.0243047   0.3789256  -0.4315825), wk =   0.2222222
        k(    5) = (   0.3438564  -0.1663548   0.0265208), wk =   0.2222222
        k(    6) = (   0.3424823  -0.1678059  -0.2989888), wk =   0.2222222
        k(    7) = (   0.3209258   0.2140218  -0.0795522), wk =   0.2222222
        k(    8) = (   0.3195517   0.2125708  -0.4050618), wk =   0.2222222
        k(    9) = (   0.3667870  -0.5467315   0.1325938), wk =   0.2222222
        k(   10) = (   0.3654129  -0.5481825  -0.1929158), wk =   0.2222222

     Initial potential from superposition of free atoms

     starting charge   71.99369, renormalised to   72.00000
     Starting wfcs are   68 randomized atomic wfcs

     Self-consistent Calculation

     iteration #  1     ecut=    45.00 Ry     beta= 0.70
     Davidson diagonalization with overlap
     ethr =  1.00E-02,  avg # of iterations =  2.0

     total energy              =    -281.38899578 Ry
     Harris-Foulkes estimate   =    -282.28412626 Ry
     estimated scf accuracy    <       2.28537710 Ry

[...]

     total energy              =    -281.83701373 Ry
     Harris-Foulkes estimate   =    -281.83701445 Ry
     estimated scf accuracy    <       0.00000745 Ry

     iteration # 11     ecut=    45.00 Ry     beta= 0.70
     Davidson diagonalization with overlap
     ethr =  1.03E-08,  avg # of iterations =  3.0

     End of self-consistent calculation

          k = 0.0000 0.0000 0.0000 ( 12461 PWs)   bands (ev):

   -11.5745 -10.3138  -9.9501  -9.9277  -9.9014  -9.6126  -9.6056  -9.5300
    -3.2021  -3.1855  -3.1499  -3.0397  -2.2277  -2.1834  -2.1772  -1.5979
    -1.5852  -1.5741  -0.9045  -0.7146  -0.7077  -0.3860  -0.2587   0.6156
     0.6426   0.7042   0.7413   0.8656   0.9084   1.2115   1.3606   1.3644
     1.7380   1.7538   1.8619   2.4925   4.2582   4.2829   4.3301   4.8141
     4.8256   4.8559   5.0088

          k =-0.0014-0.0015-0.3255 ( 12460 PWs)   bands (ev):

[...]

          k =-0.0243 0.3789-0.4316 ( 12482 PWs)   bands (ev):

[...]

          k = 0.3654-0.5482-0.1929 ( 12498 PWs)   bands (ev):

   -10.6565 -10.6402 -10.6184  -9.9106  -9.8889  -9.8707  -9.6991  -9.4232
    -2.8224  -2.4334  -2.4195  -2.4102  -2.0310  -1.5847  -1.4150  -1.3801
    -1.3784  -1.2000  -1.1870  -1.1554  -1.1246  -0.7399  -0.6869  -0.6496
    -0.3355   0.3396   0.3623   0.3829   0.3973   1.3648   1.3947   1.4060
     1.5994   1.6154   1.6257   2.3015   3.8068   4.2366   4.2810   4.3155
     4.6681   4.7136   4.7401

     the Fermi energy is     2.5279 ev

!    total energy              =    -281.83701372 Ry
     Harris-Foulkes estimate   =    -281.83701447 Ry
     estimated scf accuracy    <       0.00000088 Ry

     The total energy is the sum of the following terms:

     one-electron contribution =    -358.08561263 Ry
     hartree contribution      =     209.72479543 Ry
     xc contribution           =    -111.34312391 Ry
     ewald contribution        =     -22.13900467 Ry
     smearing contrib. (-TS)   =       0.00593205 Ry

     convergence has been achieved in  11 iterations

     Forces acting on atoms (cartesian axes, Ry/au):

     atom    1 type  1   force =     0.01269184   -0.00153159    0.00211519
     atom    2 type  1   force =     0.00516863    0.01430533   -0.00288740
     atom    3 type  1   force =     0.01573378    0.00914350    0.00015785
     atom    4 type  1   force =     0.00359138    0.00022068   -0.00159198
     atom    5 type  2   force =    -0.00983061   -0.00992867    0.01236717
     atom    6 type  2   force =    -0.00270343    0.00066265    0.00491118
     atom    7 type  2   force =    -0.00194700    0.00489983    0.01023894
     atom    8 type  2   force =    -0.00377865   -0.00718880    0.01284600
     atom    9 type  2   force =    -0.00714682   -0.00752237   -0.00945406
     atom   10 type  2   force =     0.00241298    0.00486026   -0.00527985
     atom   11 type  2   force =    -0.00615491    0.00066981   -0.00798645
     atom   12 type  2   force =    -0.00803719   -0.00859062   -0.01543659

     Total force =     0.047234     Total SCF correction =     0.002782

     General routines

     Parallel routines

   This run was terminated on:  16:17:30  18Oct2021

   JOB DONE.