     Program PWSCF v.6.4 starts on  3Sep2021 at 11:23: 8

     R & G space division:  proc/nbgrp/npool/nimage =      40
     Waiting for input...
     Reading input from standard input
Warning: card    &IONS ignored
Warning: card      ION_DYNAMICS = 'BFGS' ignored
Warning: card   / ignored
Warning: card    &CELL ignored
Warning: card      CELL_DYNAMICS = 'BFGS', ignored
Warning: card    / ignored

     Current dimensions of program PWSCF are:
     Max number of different atomic species (ntypx) = 10
     Max number of k-points (npk) =  40000
     Max angular momentum in pseudopotentials (lmaxx) =  3

     bravais-lattice index     =            0
     lattice parameter (alat)  =      13.8454  a.u.
     unit-cell volume          =    2522.6619 (a.u.)^3
     number of atoms/cell      =           15
     number of atomic types    =            2
     number of electrons       =        90.00
     number of Kohn-Sham states=           54
     kinetic-energy cutoff     =      45.0000  Ry
     charge density cutoff     =     360.0000  Ry
     convergence threshold     =      1.0E-06
     mixing beta               =       0.7000
     number of iterations used =            8  local-TF  mixing
     Exchange-correlation      = SLA PW GGX GGC ( 1  4  2  2 0 0)

     celldm(1)=  13.845441  celldm(2)=   0.000000  celldm(3)=   0.000000
     celldm(4)=   0.000000  celldm(5)=   0.000000  celldm(6)=   0.000000

     crystal axes: (cart. coord. in units of alat)
               a(1) = (   0.991716   0.113657   0.059852 )
               a(2) = (  -0.095416   0.763876   0.063217 )
               a(3) = (  -0.051242  -0.169526   1.219299 )

     reciprocal axes: (cart. coord. in units 2 pi/alat)
               b(1) = (  0.991203  0.118995  0.058201 )
               b(2) = ( -0.156478  1.275437  0.170755 )
               b(3) = ( -0.040543 -0.071968  0.808433 )

     PseudoPot. # 1 for Mo read from file:
     ~/pseudo/Mo.pw91-n-van.UPF
     MD5 check sum: Not computed, couldn't open file
     Pseudo is Ultrasoft + core correction, Zval =  6.0
     Generated by new atomic code, or converted to UPF format
     Using radial grid of  965 points,  3 beta functions with:
                l(1) =   1
                l(2) =   2
                l(3) =   2
     Q(r) pseudized with  8 coefficients,  rinner =    1.000   1.000   1.000
                                                       1.200   1.200

     PseudoPot. # 2 for S  read from file:
     ~/pseudo/S.pw91-van_ak.UPF
     MD5 check sum: Not computed, couldn't open file
     Pseudo is Ultrasoft, Zval =  6.0
     Generated by new atomic code, or converted to UPF format
     Using radial grid of  811 points,  6 beta functions with:
                l(1) =   0
                l(2) =   0
                l(3) =   1
                l(4) =   1
                l(5) =   2
                l(6) =   2
     Q(r) pseudized with  8 coefficients,  rinner =    1.100   1.100   1.100
                                                       1.100   1.100

     atomic species   valence    mass     pseudopotential
        Mo             6.00    95.50000     Mo( 1.00)
        S              6.00    32.06500     S ( 1.00)

     No symmetry found

   Cartesian axes

     site n.     atom                  positions (alat units)
         1           Mo  tau(   1) = (   0.4024215   0.2293612   1.3462012  )
         2           Mo  tau(   2) = (   0.4203530   0.5023021   0.4893293  )
         3           Mo  tau(   3) = (   0.4032885   0.7765122   0.2167875  )
         4           Mo  tau(   4) = (   0.6792917   0.6642546   1.0185634  )
         5           Mo  tau(   5) = (   0.1660665  -0.1696171   0.9192755  )
         6           S   tau(   6) = (   0.4616709   0.1927835   0.4232073  )
         7           S   tau(   7) = (  -0.1020418   0.3489898   1.0791555  )
         8           S   tau(   8) = (   0.1779575   0.5018962   0.7082291  )
         9           S   tau(   9) = (   0.6716576   0.5919180   0.2912691  )
        10           S   tau(  10) = (   0.3858131   0.4723353   1.1197340  )
        11           S   tau(  11) = (   0.6302645   0.5544319   0.7346168  )
        12           S   tau(  12) = (   0.6635413   0.0643630   1.2142476  )
        13           S   tau(  13) = (   0.1793789   0.5328428   0.2621981  )
        14           S   tau(  14) = (  -0.0463778   0.0426471   0.8163847  )
        15           S   tau(  15) = (   0.2535893   0.1776907  -0.0288659  )

     number of k points=    10  Marzari-Vanderbilt smearing, width (Ry)=  0.0200
                       cart. coord. in units 2pi/alat
        k(    1) = (   0.0000000   0.0000000   0.0000000), wk =   0.1111111
        k(    2) = (   0.0202714   0.0359842  -0.4042166), wk =   0.1111111
        k(    3) = (  -0.0521594   0.4251455   0.0569185), wk =   0.2222222
        k(    4) = (  -0.0318880   0.4611298  -0.3472981), wk =   0.2222222
        k(    5) = (   0.3304012   0.0396650   0.0194002), wk =   0.2222222
        k(    6) = (   0.3506726   0.0756493  -0.3848164), wk =   0.2222222
        k(    7) = (   0.2782418   0.4648106   0.0763187), wk =   0.2222222
        k(    8) = (   0.2985132   0.5007948  -0.3278979), wk =   0.2222222
        k(    9) = (   0.3825606  -0.3854805  -0.0375183), wk =   0.2222222
        k(   10) = (   0.4028320  -0.3494963  -0.4417349), wk =   0.2222222

     Initial potential from superposition of free atoms

     starting charge   89.99211, renormalised to   90.00000
     Starting wfcs are   85 randomized atomic wfcs

     Self-consistent Calculation

     iteration #  1     ecut=    45.00 Ry     beta= 0.70
     Davidson diagonalization with overlap
     ethr =  1.00E-02,  avg # of iterations =  2.1

     total energy              =    -351.15704118 Ry
     Harris-Foulkes estimate   =    -352.40512712 Ry
     estimated scf accuracy    <       3.19163647 Ry

[...]

     iteration #  8     ecut=    45.00 Ry     beta= 0.70
     Davidson diagonalization with overlap
     c_bands:  1 eigenvalues not converged
     ethr =  9.18E-07,  avg # of iterations =  4.2

[...]

     total energy              =    -351.79957617 Ry
     Harris-Foulkes estimate   =    -351.79957657 Ry
     estimated scf accuracy    <       0.00000302 Ry

     iteration # 11     ecut=    45.00 Ry     beta= 0.70
     Davidson diagonalization with overlap
     ethr =  3.35E-09,  avg # of iterations =  4.1

     End of self-consistent calculation

          k = 0.0000 0.0000 0.0000 ( 12873 PWs)   bands (ev):

    -9.1942  -8.3668  -8.0661  -8.0563  -7.9932  -7.8868  -7.8582  -7.6252
    -7.5101  -7.4841  -1.0719  -0.7773  -0.7303  -0.6872  -0.1365  -0.0619
     0.0569   0.2646   0.4648   0.4918   0.6626   0.6781   1.0109   1.1101
     1.2413   1.2800   1.3349   1.4358   1.6278   1.8888   1.9528   2.1096
     2.1553   2.2096   2.3748   2.7124   2.9448   3.0044   3.2496   3.4582
     3.4654   3.7863   4.0466   4.2721   4.3019   4.8927   5.0580   5.2834
     5.6364   5.6498   5.9023   6.2670   6.2828   6.3864

[...]

          k =-0.0522 0.4251 0.0569 ( 12869 PWs)   bands (ev):

[...]

          k =-0.0319 0.4611-0.3473 ( 12846 PWs)   bands (ev):

[...]

          k = 0.4028-0.3495-0.4417 ( 12857 PWs)   bands (ev):

    -8.7637  -8.3994  -8.2886  -8.1475  -8.0600  -7.8798  -7.8174  -7.6181
    -7.5657  -7.5203  -0.7765  -0.6195  -0.5417  -0.4261  -0.3262  -0.0417
     0.0356   0.1523   0.2892   0.4091   0.4431   0.6237   0.7843   0.9015
     1.0480   1.2373   1.3264   1.3631   1.6239   1.6504   1.8064   2.0299
     2.2384   2.3599   2.4610   2.6578   2.7569   3.1419   3.3175   3.6050
     3.6733   3.9438   4.1101   4.4350   4.7375   4.8635   5.1524   5.3437
     5.5042   5.7925   5.9419   6.0499   6.2298   6.4568

     the Fermi energy is     4.7408 ev

!    total energy              =    -351.79957671 Ry
     Harris-Foulkes estimate   =    -351.79957716 Ry
     estimated scf accuracy    <       0.00000058 Ry

     The total energy is the sum of the following terms:

     one-electron contribution =     -76.76996626 Ry
     hartree contribution      =      83.20658123 Ry
     xc contribution           =    -138.76412757 Ry
     ewald contribution        =    -219.46869510 Ry
     smearing contrib. (-TS)   =      -0.00336902 Ry

     convergence has been achieved in  11 iterations

     Forces acting on atoms (cartesian axes, Ry/au):

     atom    1 type  1   force =    -0.00100609   -0.00021100   -0.00043154
     atom    2 type  1   force =     0.00030359    0.00048053   -0.00040085
     atom    3 type  1   force =    -0.00036127   -0.00009759    0.00041860
     atom    4 type  1   force =    -0.00048327   -0.00025274    0.00081234
     atom    5 type  1   force =     0.00021334   -0.00041354    0.00096735
     atom    6 type  2   force =    -0.00046271   -0.00012885   -0.00053065
     atom    7 type  2   force =     0.00026054    0.00012511   -0.00051881
     atom    8 type  2   force =    -0.00109033   -0.00038466    0.00048249
     atom    9 type  2   force =    -0.00037537    0.00028523   -0.00060415
     atom   10 type  2   force =     0.00001930    0.00051335   -0.00025928
     atom   11 type  2   force =     0.00042473   -0.00042113    0.00004641
     atom   12 type  2   force =     0.00073539   -0.00074483    0.00037137
     atom   13 type  2   force =     0.00102244    0.00053608    0.00026066
     atom   14 type  2   force =     0.00021071    0.00038138   -0.00024855
     atom   15 type  2   force =     0.00058901    0.00033267   -0.00036538

     Total force =     0.003368     Total SCF correction =     0.001218
     SCF correction compared to forces is large: reduce conv_thr to get better values

     General routines

     Parallel routines

   This run was terminated on:  11:23:34   3Sep2021

   JOB DONE.