     Program PWSCF v.6.4 starts on  5Aug2021 at 14:59:41

     R & G space division:  proc/nbgrp/npool/nimage =      40
     Waiting for input...
     Reading input from standard input
Warning: card    &IONS ignored
Warning: card      ION_DYNAMICS = 'BFGS' ignored
Warning: card   / ignored
Warning: card    &CELL ignored
Warning: card      CELL_DYNAMICS = 'BFGS', ignored
Warning: card    / ignored

     Current dimensions of program PWSCF are:
     Max number of different atomic species (ntypx) = 10
     Max number of k-points (npk) =  40000
     Max angular momentum in pseudopotentials (lmaxx) =  3

     bravais-lattice index     =            0
     lattice parameter (alat)  =      13.1972  a.u.
     unit-cell volume          =    5045.8825 (a.u.)^3
     number of atoms/cell      =           36
     number of atomic types    =            2
     number of electrons       =       216.00
     number of Kohn-Sham states=          130
     kinetic-energy cutoff     =      45.0000  Ry
     charge density cutoff     =     360.0000  Ry
     convergence threshold     =      1.0E-06
     mixing beta               =       0.7000
     number of iterations used =            8  local-TF  mixing
     Exchange-correlation      = SLA PW GGX GGC ( 1  4  2  2 0 0)

     celldm(1)=  13.197152  celldm(2)=   0.000000  celldm(3)=   0.000000
     celldm(4)=   0.000000  celldm(5)=   0.000000  celldm(6)=   0.000000

     crystal axes: (cart. coord. in units of alat)
               a(1) = (   0.999554   0.012311   0.027208 )
               a(2) = (  -0.220186   0.413350  -0.013967 )
               a(3) = (  -1.047652  -3.038419   5.308236 )

     reciprocal axes: (cart. coord. in units 2 pi/alat)
               b(1) = (  0.980142  0.539071  0.502007 )
               b(2) = ( -0.067426  2.429891  1.377555 )
               b(3) = ( -0.005201  0.003631  0.189438 )

     PseudoPot. # 1 for Mo read from file:
     ~/pseudo/Mo.pw91-n-van.UPF
     MD5 check sum: Not computed, couldn't open file
     Pseudo is Ultrasoft + core correction, Zval =  6.0
     Generated by new atomic code, or converted to UPF format
     Using radial grid of  965 points,  3 beta functions with:
                l(1) =   1
                l(2) =   2
                l(3) =   2
     Q(r) pseudized with  8 coefficients,  rinner =    1.000   1.000   1.000
                                                       1.200   1.200

     PseudoPot. # 2 for S  read from file:
     ~/pseudo/S.pw91-van_ak.UPF
     MD5 check sum: Not computed, couldn't open file
     Pseudo is Ultrasoft, Zval =  6.0
     Generated by new atomic code, or converted to UPF format
     Using radial grid of  811 points,  6 beta functions with:
                l(1) =   0
                l(2) =   0
                l(3) =   1
                l(4) =   1
                l(5) =   2
                l(6) =   2
     Q(r) pseudized with  8 coefficients,  rinner =    1.100   1.100   1.100
                                                       1.100   1.100

     atomic species   valence    mass     pseudopotential
        Mo             6.00    95.50000     Mo( 1.00)
        S              6.00    32.06500     S ( 1.00)

     No symmetry found

   Cartesian axes

     site n.     atom                  positions (alat units)
         1           Mo  tau(   1) = (   0.2340290  -0.2062598   0.8719940  )
         2           Mo  tau(   2) = (  -0.4776669  -1.8642585   3.5025034  )
         3           Mo  tau(   3) = (   0.7854821  -0.2165100   0.9422769  )
         4           Mo  tau(   4) = (  -0.0154052  -1.9148740   3.6322007  )
         5           Mo  tau(   5) = (  -0.2640736  -0.7838421   1.7468688  )
         6           Mo  tau(   6) = (  -0.8540154  -2.2180224   4.4104121  )
         7           Mo  tau(   7) = (   0.2349862  -0.7825905   1.7527841  )
         8           Mo  tau(   8) = (  -0.3575555  -2.2133632   4.4316364  )
         9           Mo  tau(   9) = (  -0.4643972  -1.5811455   2.6139881  )
        10           Mo  tau(  10) = (  -1.1726451  -3.0912476   5.3470870  )
        11           Mo  tau(  11) = (   0.0630568  -1.5476977   2.7154061  )
        12           Mo  tau(  12) = (  -0.6209934  -3.0426864   5.2773633  )
        13           S   tau(  13) = (  -0.1055152   0.2252576   0.2350825  )
        14           S   tau(  14) = (  -0.6653274  -1.4177736   2.8549428  )
        15           S   tau(  15) = (   0.3867998   0.2292291   0.2247331  )
        16           S   tau(  16) = (  -0.2105506  -1.4349889   2.8933797  )
        17           S   tau(  17) = (  -0.0016897  -0.3730607   0.6815838  )
        18           S   tau(  18) = (  -0.7814564  -1.7862668   3.3464887  )
        19           S   tau(  19) = (   0.5122315  -0.3357776   0.6769290  )
        20           S   tau(  20) = (  -0.1942221  -1.9928260   3.3430778  )
        21           S   tau(  21) = (  -0.2660984  -0.5182407   1.1107123  )
        22           S   tau(  22) = (  -0.7018311  -2.0405738   3.7538838  )
        23           S   tau(  23) = (   0.2498627  -0.4742863   1.1289404  )
        24           S   tau(  24) = (  -0.1521768  -2.1498946   3.8284948  )
        25           S   tau(  25) = (  -0.2343399  -1.0343568   1.5057903  )
        26           S   tau(  26) = (  -0.5916127  -2.3554135   4.1918055  )
        27           S   tau(  27) = (   0.2643227  -1.0273207   1.5095369  )
        28           S   tau(  28) = (  -0.0853898  -2.3705670   4.2056792  )
        29           S   tau(  29) = (  -0.0215133  -0.9197632   1.9670842  )
        30           S   tau(  30) = (  -0.6189863  -2.3350313   4.6513814  )
        31           S   tau(  31) = (   0.4719130  -0.9075540   1.9775414  )
        32           S   tau(  32) = (  -0.1146475  -2.3444524   4.6691573  )
        33           S   tau(  33) = (  -0.3965914  -1.2651454   2.4338147  )
        34           S   tau(  34) = (  -1.1604903  -2.5376338   5.1051868  )
        35           S   tau(  35) = (   0.0550293  -1.2859835   2.4572445  )
        36           S   tau(  36) = (  -0.5786786  -2.7368303   5.0724391  )

     number of k points=    10  Marzari-Vanderbilt smearing, width (Ry)=  0.0200
                       cart. coord. in units 2pi/alat
        k(    1) = (   0.0000000   0.0000000   0.0000000), wk =   0.1111111
        k(    2) = (  -0.0112376   0.4049819   0.2295926), wk =   0.2222222
        k(    3) = (  -0.0224752   0.8099637   0.4591851), wk =   0.2222222
        k(    4) = (   0.0337128  -1.2149456  -0.6887777), wk =   0.1111111
        k(    5) = (   0.3267140   0.1796905   0.1673357), wk =   0.2222222
        k(    6) = (   0.3154764   0.5846724   0.3969283), wk =   0.2222222
        k(    7) = (   0.3042388   0.9896542   0.6265209), wk =   0.2222222
        k(    8) = (   0.3604267  -1.0352551  -0.5214420), wk =   0.2222222
        k(    9) = (   0.3491892  -0.6302733  -0.2918494), wk =   0.2222222
        k(   10) = (   0.3379516  -0.2252914  -0.0622569), wk =   0.2222222

     Initial potential from superposition of free atoms

     starting charge  215.98107, renormalised to  216.00000
     Starting wfcs are  204 randomized atomic wfcs

     Self-consistent Calculation

     iteration #  1     ecut=    45.00 Ry     beta= 0.70
     Davidson diagonalization with overlap
     ethr =  1.00E-02,  avg # of iterations =  2.0

     total energy              =    -842.54161526 Ry
     Harris-Foulkes estimate   =    -846.11348911 Ry
     estimated scf accuracy    <       9.60495713 Ry

[...]

     iteration #  7     ecut=    45.00 Ry     beta= 0.70
     Davidson diagonalization with overlap
     c_bands:  1 eigenvalues not converged
     c_bands:  1 eigenvalues not converged
     ethr =  1.45E-05,  avg # of iterations =  8.1

[...]

     iteration #  8     ecut=    45.00 Ry     beta= 0.70
     Davidson diagonalization with overlap
     c_bands:  1 eigenvalues not converged
     ethr =  5.87E-06,  avg # of iterations =  8.5

[...]

     total energy              =    -844.45007924 Ry
     Harris-Foulkes estimate   =    -844.45008002 Ry
     estimated scf accuracy    <       0.00000718 Ry

     iteration # 20     ecut=    45.00 Ry     beta= 0.70
     Davidson diagonalization with overlap
     ethr =  3.32E-09,  avg # of iterations =  1.2

     End of self-consistent calculation

          k = 0.0000 0.0000 0.0000 ( 25789 PWs)   bands (ev):

    -7.3388  -7.2773  -7.2068  -7.1221  -7.0514  -6.9234  -6.5101  -6.3632
    -6.2666  -6.2026  -6.1485  -6.0848  -6.0134  -5.9595  -5.8600  -5.7264
    -5.7184  -5.6850  -5.6385  -5.5824  -5.5737  -5.5060  -5.4589  -5.4095
     0.6384   0.8135   0.9869   1.0210   1.0663   1.1363   1.1527   1.1839
     1.2995   1.5683   1.6526   1.8219   2.0250   2.1129   2.1584   2.2519
     2.3705   2.4413   2.5360   2.6778   2.7842   2.9265   2.9944   3.0022
     3.0527   3.0856   3.1610   3.1985   3.3682   3.4151   3.5140   3.5179
     3.5346   3.5633   3.5750   3.6214   3.6990   3.7164   3.7978   3.8080
     3.9454   3.9920   4.0998   4.1488   4.2402   4.3020   4.3489   4.4388
     4.5387   4.6249   4.6725   4.7142   4.7787   4.8476   5.1057   5.1572
     5.2209   5.2902   5.3585   5.3888   5.4157   5.4384   5.4607   5.5427
     5.5744   5.6360   5.6717   5.7046   5.7789   5.8576   5.8792   5.8932
     5.9049   6.0866   6.0912   6.1326   6.1688   6.2961   6.4048   6.4434
     6.5096   6.5975   6.6870   6.7133   6.7293   6.8206   6.9252   6.9523
     7.0221   7.1598   7.1781   7.2862   7.2972   7.3654   7.5098   7.6321
     7.7176   7.8983   7.9519   7.9647   8.0330   8.1151   8.2227   8.2591
     8.3620   8.3861

          k =-0.0112 0.4050 0.2296 ( 25771 PWs)   bands (ev):

[...]

          k =-0.0225 0.8100 0.4592 ( 25649 PWs)   bands (ev):

[...]

          k = 0.3380-0.2253-0.0623 ( 25787 PWs)   bands (ev):

    -7.0482  -6.9912  -6.8790  -6.8246  -6.7556  -6.6258  -6.3365  -6.2485
    -6.1488  -6.1054  -6.0417  -6.0332  -5.8849  -5.8704  -5.8081  -5.7142
    -5.6804  -5.5973  -5.5680  -5.5302  -5.5173  -5.4961  -5.4341  -5.3398
     1.0887   1.2532   1.3598   1.4079   1.5322   1.5643   1.5997   1.6571
     1.6886   1.7516   1.9804   2.0340   2.0743   2.1202   2.1657   2.2678
     2.3419   2.3967   2.4850   2.5162   2.6175   2.8011   2.8560   2.9210
     2.9366   2.9981   3.0595   3.0722   3.1675   3.2071   3.2215   3.2498
     3.2989   3.3120   3.3563   3.4258   3.5071   3.5411   3.5775   3.6875
     3.7118   3.8026   3.8757   3.9002   3.9526   4.0120   4.0223   4.0841
     4.1241   4.1928   4.2207   4.2743   4.3362   4.3676   4.4902   4.5311
     4.5687   4.6386   4.7577   4.8249   4.8716   4.9116   4.9352   5.0078
     5.0917   5.1331   5.2057   5.2440   5.3372   5.4088   5.6998   5.7475
     5.8317   6.0688   6.1228   6.2204   6.2464   6.3745   6.4415   6.4952
     6.5548   6.6191   6.7104   6.8254   6.8435   6.9394   6.9671   7.0864
     7.1530   7.2949   7.3564   7.4862   7.5368   7.5828   7.6545   7.6874
     7.7310   7.8406   7.8742   8.0117   8.0671   8.1367   8.1565   8.2688
     8.3487   8.3996

     the Fermi energy is     6.8716 ev

!    total energy              =    -844.45007880 Ry
     Harris-Foulkes estimate   =    -844.45007966 Ry
     estimated scf accuracy    <       0.00000096 Ry

     The total energy is the sum of the following terms:

     one-electron contribution =      35.76185655 Ry
     hartree contribution      =     105.97275704 Ry
     xc contribution           =    -331.81549547 Ry
     ewald contribution        =    -654.37634343 Ry
     smearing contrib. (-TS)   =       0.00714651 Ry

     convergence has been achieved in  20 iterations

     Forces acting on atoms (cartesian axes, Ry/au):

     atom    1 type  1   force =    -0.01291627   -0.01747845    0.01095178
     atom    2 type  1   force =    -0.00288401   -0.04660133    0.01700239
     atom    3 type  1   force =     0.03760422    0.02169236   -0.00766716
     atom    4 type  1   force =    -0.02633532    0.02362814   -0.00135073
     atom    5 type  1   force =    -0.01310680   -0.01138354   -0.03323834
     atom    6 type  1   force =     0.02272880    0.01432665    0.00294671
     atom    7 type  1   force =    -0.01913207    0.00292824   -0.02454076
     atom    8 type  1   force =     0.05112098   -0.01579813   -0.00695183
     atom    9 type  1   force =    -0.01788861   -0.00058727    0.02467858
     atom   10 type  1   force =     0.04081177    0.02300804   -0.00219037
     atom   11 type  1   force =     0.01807107    0.01196251   -0.01920820
     atom   12 type  1   force =    -0.03207836    0.00503495    0.01772016
     atom   13 type  2   force =    -0.02245786   -0.00255288   -0.02977164
     atom   14 type  2   force =    -0.01899613   -0.00236793   -0.01474112
     atom   15 type  2   force =    -0.01197519    0.01527090   -0.03335152
     atom   16 type  2   force =     0.02103327    0.02566299   -0.03427750
     atom   17 type  2   force =     0.01053491   -0.00110217    0.00747329
     atom   18 type  2   force =     0.00981804    0.00918673    0.03006891
     atom   19 type  2   force =    -0.01286559   -0.01833485    0.06220078
     atom   20 type  2   force =     0.00520290    0.02478136    0.01103619
     atom   21 type  2   force =     0.00122216    0.02162466   -0.04072670
     atom   22 type  2   force =    -0.02393207    0.02134794   -0.03033749
     atom   23 type  2   force =    -0.02000631   -0.00665670   -0.04083543
     atom   24 type  2   force =     0.04233423   -0.03134848   -0.04615799
     atom   25 type  2   force =    -0.01485275   -0.01778234    0.05315231
     atom   26 type  2   force =    -0.02753275   -0.00181653    0.06574353
     atom   27 type  2   force =    -0.00642875   -0.01441295    0.06070102
     atom   28 type  2   force =    -0.03574780    0.02368078    0.07219652
     atom   29 type  2   force =     0.02091869    0.02819249   -0.01831561
     atom   30 type  2   force =    -0.00033383   -0.02424771   -0.06192634
     atom   31 type  2   force =     0.03008282    0.01027482   -0.02795077
     atom   32 type  2   force =    -0.00849251    0.00263652   -0.06229460
     atom   33 type  2   force =    -0.01809443   -0.02865834    0.03527650
     atom   34 type  2   force =     0.00544987   -0.00947781    0.01923570
     atom   35 type  2   force =     0.01496201   -0.00474032    0.01004022
     atom   36 type  2   force =     0.01416166   -0.02989235    0.03540953

     Total force =     0.278561     Total SCF correction =     0.002437

     General routines

     Parallel routines

   This run was terminated on:  15: 2:52   5Aug2021

   JOB DONE.