     Program PWSCF v.6.4 starts on  2Sep2021 at 14: 1: 3

     R & G space division:  proc/nbgrp/npool/nimage =      40
     Waiting for input...
     Reading input from standard input
Warning: card    &IONS ignored
Warning: card      ION_DYNAMICS = 'BFGS' ignored
Warning: card   / ignored
Warning: card    &CELL ignored
Warning: card      CELL_DYNAMICS = 'BFGS', ignored
Warning: card    / ignored

     Current dimensions of program PWSCF are:
     Max number of different atomic species (ntypx) = 10
     Max number of k-points (npk) =  40000
     Max angular momentum in pseudopotentials (lmaxx) =  3

     bravais-lattice index     =            0
     lattice parameter (alat)  =      12.2701  a.u.
     unit-cell volume          =    6468.4835 (a.u.)^3
     number of atoms/cell      =           36
     number of atomic types    =            2
     number of electrons       =       216.00
     number of Kohn-Sham states=          130
     kinetic-energy cutoff     =      45.0000  Ry
     charge density cutoff     =     360.0000  Ry
     convergence threshold     =      1.0E-06
     mixing beta               =       0.7000
     number of iterations used =            8  local-TF  mixing
     Exchange-correlation      = SLA PW GGX GGC ( 1  4  2  2 0 0)

     celldm(1)=  12.270051  celldm(2)=   0.000000  celldm(3)=   0.000000
     celldm(4)=   0.000000  celldm(5)=   0.000000  celldm(6)=   0.000000

     crystal axes: (cart. coord. in units of alat)
               a(1) = (   1.000000   0.000000   0.000000 )
               a(2) = (   0.503654   0.860097   0.000000 )
               a(3) = (   0.821996   0.181150   4.071140 )

     reciprocal axes: (cart. coord. in units 2 pi/alat)
               b(1) = (  1.000000 -0.585578 -0.175852 )
               b(2) = (  0.000000  1.162660 -0.051734 )
               b(3) = (  0.000000  0.000000  0.245631 )

     PseudoPot. # 1 for Mo read from file:
     ~/pseudo/Mo.pw91-n-van.UPF
     MD5 check sum: Not computed, couldn't open file
     Pseudo is Ultrasoft + core correction, Zval =  6.0
     Generated by new atomic code, or converted to UPF format
     Using radial grid of  965 points,  3 beta functions with:
                l(1) =   1
                l(2) =   2
                l(3) =   2
     Q(r) pseudized with  8 coefficients,  rinner =    1.000   1.000   1.000
                                                       1.200   1.200

     PseudoPot. # 2 for S  read from file:
     ~/pseudo/S.pw91-van_ak.UPF
     MD5 check sum: Not computed, couldn't open file
     Pseudo is Ultrasoft, Zval =  6.0
     Generated by new atomic code, or converted to UPF format
     Using radial grid of  811 points,  6 beta functions with:
                l(1) =   0
                l(2) =   0
                l(3) =   1
                l(4) =   1
                l(5) =   2
                l(6) =   2
     Q(r) pseudized with  8 coefficients,  rinner =    1.100   1.100   1.100
                                                       1.100   1.100

     atomic species   valence    mass     pseudopotential
        Mo             6.00    95.50000     Mo( 1.00)
        S              6.00    32.06500     S ( 1.00)

     No symmetry found

   Cartesian axes

     site n.     atom                  positions (alat units)
         1           Mo  tau(   1) = (   0.9141268   0.2836112   2.4697494  )
         2           Mo  tau(   2) = (   1.4345016   0.2817147   2.4616702  )
         3           Mo  tau(   3) = (   1.6793725   0.7061176   2.4715444  )
         4           Mo  tau(   4) = (   1.1716165   0.7195818   2.4686288  )
         5           Mo  tau(   5) = (   1.3070906   0.5630761   1.2986567  )
         6           Mo  tau(   6) = (   0.7713851   0.5558175   1.2970668  )
         7           Mo  tau(   7) = (   0.5374290   0.1270284   1.3173085  )
         8           Mo  tau(   8) = (   1.0314275   0.1237022   1.2810076  )
         9           Mo  tau(   9) = (   1.3597632   0.6290746   0.3233736  )
        10           Mo  tau(  10) = (   0.8622159   0.6296561   0.2803130  )
        11           Mo  tau(  11) = (   0.6043014   0.2065929   0.3135295  )
        12           Mo  tau(  12) = (   1.1155688   0.1940646   0.3071684  )
        13           S   tau(  13) = (   1.9540431   0.6616584   4.1368707  )
        14           S   tau(  14) = (   1.4192737   0.6720443   4.1343329  )
        15           S   tau(  15) = (   1.6931574   1.1092754   4.1302711  )
        16           S   tau(  16) = (   2.1763388   1.0959754   4.1446999  )
        17           S   tau(  17) = (   0.9333730   0.5700363   2.7143652  )
        18           S   tau(  18) = (   1.4261042   0.5703969   2.7058449  )
        19           S   tau(  19) = (   1.1819846   0.1431910   2.7003375  )
        20           S   tau(  20) = (   0.6747816   0.1425210   2.7168003  )
        21           S   tau(  21) = (   0.9204584   0.5693324   2.2264019  )
        22           S   tau(  22) = (   1.4209451   0.5751384   2.2271180  )
        23           S   tau(  23) = (   1.1666062   0.1363278   2.2351881  )
        24           S   tau(  24) = (   0.6747024   0.1367919   2.2126347  )
        25           S   tau(  25) = (   0.5375892   0.4127198   1.5526525  )
        26           S   tau(  26) = (   1.0409221   0.4163963   1.5289160  )
        27           S   tau(  27) = (   0.7984712  -0.0062436   1.5448257  )
        28           S   tau(  28) = (   0.2678775  -0.0127332   1.5400827  )
        29           S   tau(  29) = (   0.5361872   0.3891582   1.0478105  )
        30           S   tau(  30) = (   1.0471937   0.4289065   1.0678142  )
        31           S   tau(  31) = (   1.2729619   0.8443213   1.0483236  )
        32           S   tau(  32) = (   0.8026681   0.8426440   1.0600828  )
        33           S   tau(  33) = (   1.0894408   0.4816106   0.5419947  )
        34           S   tau(  34) = (   0.6248088   0.4978726   0.5535356  )
        35           S   tau(  35) = (   0.8611831   0.8959526   0.5464653  )
        36           S   tau(  36) = (   1.3590481   0.9242362   0.5529541  )

     number of k points=     5  Marzari-Vanderbilt smearing, width (Ry)=  0.0200
                       cart. coord. in units 2pi/alat
        k(    1) = (   0.0000000   0.0000000   0.0000000), wk =   0.2222222
        k(    2) = (   0.0000000   0.3875533  -0.0172446), wk =   0.4444444
        k(    3) = (   0.3333333  -0.1951926  -0.0586174), wk =   0.4444444
        k(    4) = (   0.3333333   0.1923607  -0.0758620), wk =   0.4444444
        k(    5) = (   0.3333333  -0.5827459  -0.0413728), wk =   0.4444444

     Initial potential from superposition of free atoms

     starting charge  215.98107, renormalised to  216.00000

     negative rho (up, down):  1.258E-04 0.000E+00
     Starting wfcs are  204 randomized atomic wfcs

     Self-consistent Calculation

     iteration #  1     ecut=    45.00 Ry     beta= 0.70
     Davidson diagonalization with overlap
     ethr =  1.00E-02,  avg # of iterations =  2.0

     negative rho (up, down):  1.098E-06 0.000E+00

     total energy              =    -844.08202003 Ry
     Harris-Foulkes estimate   =    -846.76554536 Ry
     estimated scf accuracy    <       6.87230903 Ry

[...]

     total energy              =    -845.42324457 Ry
     Harris-Foulkes estimate   =    -845.42324434 Ry
     estimated scf accuracy    <       0.00000154 Ry

     iteration # 17     ecut=    45.00 Ry     beta= 0.70
     Davidson diagonalization with overlap
     ethr =  7.15E-10,  avg # of iterations =  3.0

[...]

     End of self-consistent calculation

          k = 0.0000 0.0000 0.0000 ( 32899 PWs)   bands (ev):

   -10.5307 -10.4384 -10.3523  -9.3796  -9.2448  -9.1423  -8.8725  -8.8086
    -8.7682  -8.7535  -8.7340  -8.7199  -8.6861  -8.6775  -8.6093  -8.5833
    -8.5221  -8.4656  -8.4456  -8.4314  -8.3939  -8.3689  -8.2963  -8.2638
    -2.1822  -2.1429  -2.1142  -2.0973  -2.0507  -2.0199  -2.0037  -1.9992
    -1.9747  -1.9441  -1.8293  -1.7838  -1.2924  -1.2654  -1.1487  -1.1268
    -1.0765  -1.0717  -1.0635  -1.0142  -0.9751  -0.6095  -0.5663  -0.5182
    -0.4153  -0.3683  -0.3570  -0.3158  -0.2946  -0.2248   0.3516   0.3606
     0.3917   0.3963   0.4526   0.4676   0.4793   0.4901   0.5591   0.8895
     0.9195   0.9332   0.9487   0.9898   1.0058   1.1968   1.3160   1.3740
     1.5353   1.6339   1.7103   1.7457   1.8678   1.9462   1.9937   2.0359
     2.0563   2.0904   2.1016   2.1126   2.1477   2.2132   2.2521   2.3426
     2.3939   2.4046   2.4462   2.4983   2.5864   2.6160   2.7008   2.7048
     2.7786   2.8319   2.8867   2.9179   2.9984   3.0108   3.0347   3.0456
     3.1054   3.3496   3.6489   3.8363   5.3125   5.3915   5.4174   5.4406
     5.4519   5.4944   5.5196   5.5400   5.6782   5.7506   5.8228   5.8766
     5.9179   5.9529   5.9662   5.9940   6.0467   6.1001   6.1211   6.1785
     6.1987   6.2404

[...]

          k = 0.3333-0.5827-0.0414 ( 33029 PWs)   bands (ev):

    -9.6634  -9.6060  -9.5495  -9.5326  -9.4670  -9.4565  -9.4390  -9.4055
    -9.3671  -8.9385  -8.8405  -8.7844  -8.7629  -8.7511  -8.7007  -8.6881
    -8.6773  -8.6145  -8.5575  -8.4824  -8.4368  -8.2961  -8.2272  -8.1937
    -1.7156  -1.6738  -1.5887  -1.4511  -1.4062  -1.3966  -1.2362  -1.2109
    -1.1834  -1.1775  -1.1654  -1.1501  -0.9721  -0.9127  -0.7975  -0.5851
    -0.5615  -0.5031  -0.4161  -0.3874  -0.3748  -0.3401  -0.3013  -0.2723
    -0.2092  -0.1932  -0.1735  -0.1400  -0.0595  -0.0448  -0.0216  -0.0073
     0.0474   0.0522   0.0761   0.0922   0.1098   0.1416   0.1862   0.3156
     0.3903   0.4267   0.4666   0.5114   0.5402   0.5951   0.6611   0.6871
     0.7404   0.8173   0.8333   1.2333   1.3860   1.4674   1.5070   1.5240
     1.5672   1.5959   1.6452   1.6480   1.6968   1.7885   1.8216   2.1817
     2.2472   2.3628   2.4349   2.4720   2.5217   2.5560   2.6490   2.6813
     2.6959   2.7259   2.7366   2.7562   2.7942   2.8376   2.8776   2.8854
     2.9877   3.5430   3.6068   3.6212   4.7171   4.9625   4.9797   5.0443
     5.1368   5.2390   5.2927   5.3380   5.3875   5.4403   5.4846   5.5380
     5.6628   5.7357   5.7547   5.7987   5.8229   5.8580   5.8887   5.9114
     5.9710   5.9961

     the Fermi energy is     3.7614 ev

!    total energy              =    -845.42324478 Ry
     Harris-Foulkes estimate   =    -845.42324485 Ry
     estimated scf accuracy    <       0.00000067 Ry

     The total energy is the sum of the following terms:

     one-electron contribution =   -2102.87811390 Ry
     hartree contribution      =    1152.68458984 Ry
     xc contribution           =    -333.96305764 Ry
     ewald contribution        =     438.71561773 Ry
     smearing contrib. (-TS)   =       0.01771920 Ry

     convergence has been achieved in  17 iterations

     negative rho (up, down):  2.357E-04 0.000E+00

     Forces acting on atoms (cartesian axes, Ry/au):

     atom    1 type  1   force =     0.04549513   -0.00442461   -0.00793996
     atom    2 type  1   force =    -0.04238662    0.01098011    0.00653476
     atom    3 type  1   force =    -0.01530296    0.03302881   -0.00744121
     atom    4 type  1   force =     0.01798008   -0.02159412   -0.00927154
     atom    5 type  1   force =    -0.06113651   -0.01404643    0.00447717
     atom    6 type  1   force =     0.07110440   -0.00482509    0.00494649
     atom    7 type  1   force =    -0.01439764   -0.01959103   -0.04870785
     atom    8 type  1   force =     0.01822531    0.03769350    0.03967277
     atom    9 type  1   force =    -0.00177887    0.01343267   -0.02920555
     atom   10 type  1   force =     0.00608460   -0.00787057    0.06415922
     atom   11 type  1   force =     0.01687079   -0.01320098   -0.00153893
     atom   12 type  1   force =    -0.03383801    0.00162166   -0.00255587
     atom   13 type  2   force =    -0.02644203    0.00377203   -0.01123136
     atom   14 type  2   force =     0.00726845   -0.00500609    0.00053246
     atom   15 type  2   force =    -0.00976765   -0.01297161   -0.01044226
     atom   16 type  2   force =     0.01340533    0.00199490    0.00782331
     atom   17 type  2   force =    -0.01717502   -0.00311751    0.00067383
     atom   18 type  2   force =    -0.00419910   -0.00641097    0.00866611
     atom   19 type  2   force =    -0.01305631   -0.00524582    0.01761481
     atom   20 type  2   force =    -0.00771437   -0.00282461   -0.00933701
     atom   21 type  2   force =     0.01048163   -0.00140351   -0.00169618
     atom   22 type  2   force =     0.01072661   -0.00777183   -0.00257540
     atom   23 type  2   force =     0.01496288    0.00359116   -0.01728820
     atom   24 type  2   force =    -0.00049468    0.00688547    0.02139029
     atom   25 type  2   force =     0.00162212    0.00711808    0.00249404
     atom   26 type  2   force =    -0.00607723   -0.00164491   -0.00505079
     atom   27 type  2   force =    -0.00494363   -0.01934295   -0.00547385
     atom   28 type  2   force =     0.01143403   -0.01086290   -0.00317376
     atom   29 type  2   force =     0.00268550    0.03797773    0.03577381
     atom   30 type  2   force =    -0.02223311   -0.01629297   -0.02426622
     atom   31 type  2   force =     0.02754560   -0.00059043    0.02754609
     atom   32 type  2   force =    -0.02949629   -0.00214928   -0.00017837
     atom   33 type  2   force =     0.03410268    0.00686095   -0.00043755
     atom   34 type  2   force =    -0.01635435   -0.00899674   -0.02335224
     atom   35 type  2   force =     0.00810494    0.03054286   -0.01937129
     atom   36 type  2   force =     0.00869430   -0.00531498   -0.00176977

     Total force =     0.208391     Total SCF correction =     0.002041

     General routines

     Parallel routines

   This run was terminated on:  14: 3: 7   2Sep2021

   JOB DONE.