     Program PWSCF v.6.4 starts on 19Nov2021 at 23: 1:17

     R & G space division:  proc/nbgrp/npool/nimage =      40
     Waiting for input...
     Reading input from standard input
Warning: card    &IONS ignored
Warning: card      ION_DYNAMICS = 'BFGS' ignored
Warning: card   / ignored
Warning: card    &CELL ignored
Warning: card      CELL_DYNAMICS = 'BFGS', ignored
Warning: card    / ignored

     Current dimensions of program PWSCF are:
     Max number of different atomic species (ntypx) = 10
     Max number of k-points (npk) =  40000
     Max angular momentum in pseudopotentials (lmaxx) =  3

     bravais-lattice index     =            0
     lattice parameter (alat)  =      12.1547  a.u.
     unit-cell volume          =    5939.4385 (a.u.)^3
     number of atoms/cell      =           36
     number of atomic types    =            2
     number of electrons       =       216.00
     number of Kohn-Sham states=          130
     kinetic-energy cutoff     =      45.0000  Ry
     charge density cutoff     =     360.0000  Ry
     convergence threshold     =      1.0E-06
     mixing beta               =       0.7000
     number of iterations used =            8  local-TF  mixing
     Exchange-correlation      = SLA PW GGX GGC ( 1  4  2  2 0 0)

     celldm(1)=  12.154729  celldm(2)=   0.000000  celldm(3)=   0.000000
     celldm(4)=   0.000000  celldm(5)=   0.000000  celldm(6)=   0.000000

     crystal axes: (cart. coord. in units of alat)
               a(1) = (   1.000000   0.000000   0.000000 )
               a(2) = (  -0.013374   1.713782   0.000000 )
               a(3) = (  -0.006129  -0.268723   1.929985 )

     reciprocal axes: (cart. coord. in units 2 pi/alat)
               b(1) = (  1.000000  0.007804  0.004262 )
               b(2) = (  0.000000  0.583505  0.081245 )
               b(3) = (  0.000000  0.000000  0.518139 )

     PseudoPot. # 1 for Mo read from file:
     ~/pseudo/Mo.pw91-n-van.UPF
     MD5 check sum: Not computed, couldn't open file
     Pseudo is Ultrasoft + core correction, Zval =  6.0
     Generated by new atomic code, or converted to UPF format
     Using radial grid of  965 points,  3 beta functions with:
                l(1) =   1
                l(2) =   2
                l(3) =   2
     Q(r) pseudized with  8 coefficients,  rinner =    1.000   1.000   1.000
                                                       1.200   1.200

     PseudoPot. # 2 for S  read from file:
     ~/pseudo/S.pw91-van_ak.UPF
     MD5 check sum: Not computed, couldn't open file
     Pseudo is Ultrasoft, Zval =  6.0
     Generated by new atomic code, or converted to UPF format
     Using radial grid of  811 points,  6 beta functions with:
                l(1) =   0
                l(2) =   0
                l(3) =   1
                l(4) =   1
                l(5) =   2
                l(6) =   2
     Q(r) pseudized with  8 coefficients,  rinner =    1.100   1.100   1.100
                                                       1.100   1.100

     atomic species   valence    mass     pseudopotential
        Mo             6.00    95.50000     Mo( 1.00)
        S              6.00    32.06500     S ( 1.00)

     No symmetry found

   Cartesian axes

     site n.     atom                  positions (alat units)
         1           Mo  tau(   1) = (   1.0023698   0.1014812   1.2644789  )
         2           Mo  tau(   2) = (   0.7585059   0.5289988   1.2705774  )
         3           Mo  tau(   3) = (   0.5084458   0.0965654   1.2594632  )
         4           Mo  tau(   4) = (   0.2561492   0.5286693   1.2753919  )
         5           Mo  tau(   5) = (   0.5075797   0.9542578   1.2891127  )
         6           Mo  tau(   6) = (   0.0049824   0.9552048   1.2890196  )
         7           Mo  tau(   7) = (   0.2514808   1.3802989   1.2891878  )
         8           Mo  tau(   8) = (   0.7504422   1.3861148   1.2794197  )
         9           Mo  tau(   9) = (   0.4096382   0.1297526   0.3989740  )
        10           Mo  tau(  10) = (   0.7767838  -0.0163272   0.5291009  )
        11           Mo  tau(  11) = (   0.6473443   1.2352092   0.2758818  )
        12           Mo  tau(  12) = (   0.0676154   1.2198709   0.3329344  )
        13           S   tau(  13) = (   0.7534852   0.2384624   1.5129151  )
        14           S   tau(  14) = (   0.0125543  -0.1795203   1.5244705  )
        15           S   tau(  15) = (   0.2587122   0.2324700   1.5125761  )
        16           S   tau(  16) = (   0.5156030  -0.1815434   1.5249041  )
        17           S   tau(  17) = (   0.8135106   1.3184670   0.5913086  )
        18           S   tau(  18) = (   0.3478156   1.4440273   0.2953009  )
        19           S   tau(  19) = (   0.7513039   0.2442390   0.9850226  )
        20           S   tau(  20) = (   0.0053297   1.5172396   1.0327886  )
        21           S   tau(  21) = (   0.2497054   0.2480555   1.0222178  )
        22           S   tau(  22) = (   0.4936891   1.5104667   1.0286561  )
        23           S   tau(  23) = (   0.8862480   1.0857834   0.0727226  )
        24           S   tau(  24) = (   0.3637444   1.0048017   0.3224178  )
        25           S   tau(  25) = (   0.5101530   0.6621443   1.5265102  )
        26           S   tau(  26) = (   0.0063823   0.6637576   1.5271575  )
        27           S   tau(  27) = (   0.5043659   0.6760783   1.0311785  )
        28           S   tau(  28) = (   0.0108074   0.6801817   1.0300731  )
        29           S   tau(  29) = (   0.2557057   1.0947683   1.0419913  )
        30           S   tau(  30) = (   0.7553458   1.0964842   1.0382655  )
        31           S   tau(  31) = (   0.5979313   0.2461725   0.6986165  )
        32           S   tau(  32) = (   0.0685080   0.1946156   0.4835257  )
        33           S   tau(  33) = (   0.2561261   1.0937819   1.5356696  )
        34           S   tau(  34) = (   0.7564412   1.1051279   1.5347843  )
        35           S   tau(  35) = (   0.6070334   1.6018398   0.1959136  )
        36           S   tau(  36) = (   0.0864346   1.5969054   0.3999942  )

     number of k points=     8  Marzari-Vanderbilt smearing, width (Ry)=  0.0200
                       cart. coord. in units 2pi/alat
        k(    1) = (   0.0000000   0.0000000   0.0000000), wk =   0.1666667
        k(    2) = (   0.0000000   0.0000000  -0.2590694), wk =   0.1666667
        k(    3) = (   0.0000000  -0.2917523  -0.0406224), wk =   0.1666667
        k(    4) = (   0.0000000  -0.2917523  -0.2996918), wk =   0.1666667
        k(    5) = (   0.3333333   0.0026012   0.0014207), wk =   0.3333333
        k(    6) = (   0.3333333   0.0026012  -0.2576488), wk =   0.3333333
        k(    7) = (   0.3333333  -0.2891512  -0.0392018), wk =   0.3333333
        k(    8) = (   0.3333333  -0.2891512  -0.2982712), wk =   0.3333333

     Initial potential from superposition of free atoms

     starting charge  215.98107, renormalised to  216.00000
     Starting wfcs are  204 randomized atomic wfcs

     Self-consistent Calculation

     iteration #  1     ecut=    45.00 Ry     beta= 0.70
     Davidson diagonalization with overlap
     ethr =  1.00E-02,  avg # of iterations =  2.0

     total energy              =    -843.11227229 Ry
     Harris-Foulkes estimate   =    -845.48720213 Ry
     estimated scf accuracy    <       6.13380473 Ry

[...]

     total energy              =    -844.28226132 Ry
     Harris-Foulkes estimate   =    -844.28226179 Ry
     estimated scf accuracy    <       0.00000221 Ry

     iteration # 17     ecut=    45.00 Ry     beta= 0.70
     Davidson diagonalization with overlap
     ethr =  1.02E-09,  avg # of iterations =  2.8

     End of self-consistent calculation

          k = 0.0000 0.0000 0.0000 ( 30211 PWs)   bands (ev):

   -12.1606 -10.5144 -10.2740  -9.4691  -8.7978  -8.7002  -8.4631  -8.3430
    -8.0717  -7.9778  -7.9381  -7.8297  -7.8099  -7.7919  -7.7619  -7.6596
    -7.5984  -7.5902  -7.5528  -7.5198  -7.4993  -7.0871  -6.8001  -5.9254
    -2.4923  -1.8722  -1.6382  -1.2909  -1.2383  -1.1680  -0.9789  -0.8945
    -0.7377  -0.6073  -0.5377  -0.4692  -0.4188  -0.3982  -0.3495  -0.3135
    -0.2989  -0.2265  -0.0509   0.2646   0.2816   0.3481   0.4287   0.5627
     0.6801   0.7322   0.7525   0.8198   0.8346   0.9563   1.0082   1.0931
     1.2333   1.2634   1.2885   1.3247   1.4125   1.4707   1.4919   1.5712
     1.6124   1.6479   1.6984   1.8357   1.9346   1.9915   2.0181   2.0232
     2.0797   2.2226   2.3804   2.4998   2.5193   2.6352   2.6832   2.7265
     2.7846   2.9087   2.9300   3.0400   3.0864   3.1400   3.1873   3.2600
     3.3617   3.4281   3.5299   3.5945   3.6493   3.7234   3.7514   3.8076
     3.8461   3.9774   4.0111   4.0893   4.1386   4.2413   4.4626   4.6899
     4.7856   4.8846   5.1146   5.2123   5.4884   5.5789   5.7939   6.0993
     6.1746   6.2263   6.3796   6.4714   6.5045   6.5390   6.5609   6.5740
     6.5948   6.6498   6.6528   6.7358   6.9217   7.0069   7.0332   7.0415
     7.0507   7.0950

[...]

          k = 0.3333-0.2892-0.2983 ( 30298 PWs)   bands (ev):

   -12.0991 -10.6097 -10.2379  -9.1273  -8.9614  -8.4957  -8.4710  -8.3861
    -8.2219  -8.1098  -7.9581  -7.9404  -7.9039  -7.8112  -7.7798  -7.6891
    -7.6435  -7.5983  -7.5334  -7.4928  -7.4603  -7.1242  -6.7905  -5.7900
    -2.6412  -1.7835  -1.4148  -1.1152  -0.8612  -0.7507  -0.7343  -0.6622
    -0.6497  -0.6082  -0.5603  -0.5415  -0.5195  -0.5015  -0.3336  -0.1845
    -0.1263  -0.1094   0.1632   0.3406   0.4152   0.4712   0.5382   0.5895
     0.6332   0.6699   0.7290   0.8072   0.9005   0.9552   1.0197   1.0811
     1.1163   1.1424   1.2230   1.2741   1.2943   1.3959   1.4490   1.5081
     1.5747   1.7311   1.7636   1.7784   1.8187   1.9002   1.9626   2.0494
     2.1261   2.2172   2.2330   2.3339   2.3924   2.4626   2.5106   2.5557
     2.6356   2.6900   2.8048   2.8566   2.8797   2.9571   3.0118   3.0711
     3.1139   3.2219   3.3628   3.5102   3.5242   3.5548   3.8019   3.8397
     3.8666   3.9420   4.0221   4.0751   4.1346   4.2241   4.3979   4.5643
     4.7241   5.0122   5.0862   5.3933   5.4507   5.7021   5.8096   6.0801
     6.1861   6.3157   6.4107   6.4220   6.4901   6.5077   6.5158   6.5309
     6.5685   6.6399   6.6602   6.7132   6.8019   6.8172   6.8302   6.8976
     6.9209   6.9639

     the Fermi energy is     5.3961 ev

!    total energy              =    -844.28226142 Ry
     Harris-Foulkes estimate   =    -844.28226160 Ry
     estimated scf accuracy    <       0.00000023 Ry

     The total energy is the sum of the following terms:

     one-electron contribution =    -548.08350386 Ry
     hartree contribution      =     382.97385142 Ry
     xc contribution           =    -334.71018462 Ry
     ewald contribution        =    -344.46305185 Ry
     smearing contrib. (-TS)   =       0.00062748 Ry

     convergence has been achieved in  17 iterations

     Forces acting on atoms (cartesian axes, Ry/au):

     atom    1 type  1   force =     0.01564973   -0.01096815    0.01992416
     atom    2 type  1   force =    -0.00191209   -0.02032017   -0.00417218
     atom    3 type  1   force =     0.00706792    0.01013096    0.00878866
     atom    4 type  1   force =     0.00460924   -0.00481518    0.00425006
     atom    5 type  1   force =    -0.00275299    0.00786975   -0.01131241
     atom    6 type  1   force =    -0.00115487    0.00743059   -0.01142694
     atom    7 type  1   force =    -0.00082601    0.00390014   -0.02020690
     atom    8 type  1   force =     0.00589378   -0.01286120   -0.00072871
     atom    9 type  1   force =    -0.01644314   -0.04265042   -0.01579855
     atom   10 type  1   force =    -0.03512167   -0.03560587    0.01976610
     atom   11 type  1   force =    -0.04223277    0.02307719    0.06851404
     atom   12 type  1   force =     0.03429153   -0.02503809    0.06485193
     atom   13 type  2   force =     0.00076390    0.00361313   -0.01799115
     atom   14 type  2   force =    -0.00422153    0.00472837   -0.00528103
     atom   15 type  2   force =    -0.00417743    0.00752444   -0.00870907
     atom   16 type  2   force =    -0.00278231    0.00749754   -0.00809828
     atom   17 type  2   force =    -0.01646618   -0.02492555    0.01416696
     atom   18 type  2   force =     0.05543121   -0.08345449   -0.03307939
     atom   19 type  2   force =     0.05077817    0.00065152    0.17048749
     atom   20 type  2   force =    -0.00752896    0.00700133    0.00134219
     atom   21 type  2   force =     0.00648238   -0.00631416    0.00408362
     atom   22 type  2   force =     0.00822143    0.01469647    0.00546462
     atom   23 type  2   force =     0.00708375   -0.03237413   -0.09980704
     atom   24 type  2   force =     0.00148421   -0.03746803    0.00791663
     atom   25 type  2   force =    -0.00233305   -0.00208256   -0.00579359
     atom   26 type  2   force =    -0.00208963   -0.00591504   -0.01145061
     atom   27 type  2   force =     0.00405456    0.00347012    0.00448810
     atom   28 type  2   force =    -0.00629416   -0.00677585    0.00485687
     atom   29 type  2   force =    -0.00125151   -0.00131951    0.00672030
     atom   30 type  2   force =    -0.00203518   -0.00575251    0.01358226
     atom   31 type  2   force =    -0.07858531    0.00055877   -0.14156046
     atom   32 type  2   force =    -0.04449681    0.17371215    0.04537658
     atom   33 type  2   force =    -0.00087289    0.00409299    0.00353193
     atom   34 type  2   force =    -0.00377617   -0.00594481   -0.00799521
     atom   35 type  2   force =     0.13594395    0.09467407   -0.06709905
     atom   36 type  2   force =    -0.06040110   -0.01004382    0.00239808

     Total force =     0.418649     Total SCF correction =     0.001047

     General routines

     Parallel routines

   This run was terminated on:  23: 4:20  19Nov2021

   JOB DONE.