     Program PWSCF v.6.4 starts on 24Dec2021 at 20:45:55

     R & G space division:  proc/nbgrp/npool/nimage =      40
     Waiting for input...
     Reading input from standard input
Warning: card    &IONS ignored
Warning: card      ION_DYNAMICS = 'BFGS' ignored
Warning: card   / ignored
Warning: card    &CELL ignored
Warning: card      CELL_DYNAMICS = 'BFGS', ignored
Warning: card    / ignored

     Current dimensions of program PWSCF are:
     Max number of different atomic species (ntypx) = 10
     Max number of k-points (npk) =  40000
     Max angular momentum in pseudopotentials (lmaxx) =  3

     bravais-lattice index     =            0
     lattice parameter (alat)  =      18.4549  a.u.
     unit-cell volume          =    6291.9932 (a.u.)^3
     number of atoms/cell      =           42
     number of atomic types    =            2
     number of electrons       =       252.00
     number of Kohn-Sham states=          151
     kinetic-energy cutoff     =      45.0000  Ry
     charge density cutoff     =     360.0000  Ry
     convergence threshold     =      1.0E-06
     mixing beta               =       0.7000
     number of iterations used =            8  local-TF  mixing
     Exchange-correlation      = SLA PW GGX GGC ( 1  4  2  2 0 0)

     celldm(1)=  18.454946  celldm(2)=   0.000000  celldm(3)=   0.000000
     celldm(4)=   0.000000  celldm(5)=   0.000000  celldm(6)=   0.000000

     crystal axes: (cart. coord. in units of alat)
               a(1) = (   1.000000   0.000000   0.000000 )
               a(2) = (   0.011658   1.002254   0.000000 )
               a(3) = (  -0.022021   0.000703   0.998786 )

     reciprocal axes: (cart. coord. in units 2 pi/alat)
               b(1) = (  1.000000 -0.011632  0.022056 )
               b(2) = (  0.000000  0.997751 -0.000703 )
               b(3) = (  0.000000  0.000000  1.001216 )

     PseudoPot. # 1 for Mo read from file:
     ~/pseudo/Mo.pw91-n-van.UPF
     MD5 check sum: Not computed, couldn't open file
     Pseudo is Ultrasoft + core correction, Zval =  6.0
     Generated by new atomic code, or converted to UPF format
     Using radial grid of  965 points,  3 beta functions with:
                l(1) =   1
                l(2) =   2
                l(3) =   2
     Q(r) pseudized with  8 coefficients,  rinner =    1.000   1.000   1.000
                                                       1.200   1.200

     PseudoPot. # 2 for S  read from file:
     ~/pseudo/S.pw91-van_ak.UPF
     MD5 check sum: Not computed, couldn't open file
     Pseudo is Ultrasoft, Zval =  6.0
     Generated by new atomic code, or converted to UPF format
     Using radial grid of  811 points,  6 beta functions with:
                l(1) =   0
                l(2) =   0
                l(3) =   1
                l(4) =   1
                l(5) =   2
                l(6) =   2
     Q(r) pseudized with  8 coefficients,  rinner =    1.100   1.100   1.100
                                                       1.100   1.100

     atomic species   valence    mass     pseudopotential
        Mo             6.00    95.50000     Mo( 1.00)
        S              6.00    32.06500     S ( 1.00)

     No symmetry found

   Cartesian axes

     site n.     atom                  positions (alat units)
         1           Mo  tau(   1) = (   0.5862220   0.8825293   0.6092804  )
         2           Mo  tau(   2) = (   0.5985083   0.5946127   0.8846307  )
         3           Mo  tau(   3) = (   0.8309720   0.8255913   0.8332167  )
         4           Mo  tau(   4) = (   0.8767736   0.5990867   0.6190044  )
         5           Mo  tau(   5) = (   0.0910699   0.3889398   0.6130297  )
         6           Mo  tau(   6) = (   0.1469807   0.1505183   0.8250975  )
         7           Mo  tau(   7) = (   0.3882790   0.3898859   0.8875474  )
         8           Mo  tau(   8) = (   0.3657142   0.0979816   0.6121418  )
         9           Mo  tau(   9) = (   0.1055272   0.6055338   0.4156486  )
        10           Mo  tau(  10) = (   0.3815882   0.8796195   0.3962100  )
        11           Mo  tau(  11) = (   0.4184010   0.6039799   0.1092773  )
        12           Mo  tau(  12) = (   0.6105765   0.3824403   0.1160788  )
        13           Mo  tau(  13) = (   0.5679733   0.1018862   0.3937599  )
        14           Mo  tau(  14) = (   0.8762312   0.4031168   0.4030901  )
        15           S   tau(  15) = (   0.5982860   0.8569294   0.8645130  )
        16           S   tau(  16) = (   0.6172420   0.6256324   0.6358619  )
        17           S   tau(  17) = (   0.1157591   0.6364856   0.6507858  )
        18           S   tau(  18) = (   0.0991597   0.8825134   0.8570270  )
        19           S   tau(  19) = (   0.3456865   0.6310839   0.8705455  )
        20           S   tau(  20) = (   0.3470690   0.8581064   0.6369519  )
        21           S   tau(  21) = (   0.3544307   0.6184902   0.3649001  )
        22           S   tau(  22) = (   0.1249240   0.3793920   0.8703002  )
        23           S   tau(  23) = (   0.1063526   0.1232070   0.5989985  )
        24           S   tau(  24) = (   0.6155482   0.1235373   0.6381202  )
        25           S   tau(  25) = (   0.6296484   0.3455903   0.8751043  )
        26           S   tau(  26) = (   0.9559927   0.0179548   0.9543541  )
        27           S   tau(  27) = (   0.8519308   0.3488392   0.6349249  )
        28           S   tau(  28) = (   0.1250858   0.8482492   0.3462878  )
        29           S   tau(  29) = (   0.8535924   0.8600765   0.6043210  )
        30           S   tau(  30) = (   0.3666574   0.8506627   0.1339991  )
        31           S   tau(  31) = (   0.6554840   0.6294937   0.1279001  )
        32           S   tau(  32) = (   0.6253800   0.8683899   0.3652026  )
        33           S   tau(  33) = (   0.8627326   0.6422314   0.3709199  )
        34           S   tau(  34) = (   0.8545522   0.5984605   0.8792308  )
        35           S   tau(  35) = (   0.6256655   0.3509787   0.3820597  )
        36           S   tau(  36) = (   0.3533710   0.3603357   0.6362326  )
        37           S   tau(  37) = (   0.6220950   0.1297358   0.1531523  )
        38           S   tau(  38) = (   0.8613090   0.3518307   0.1543263  )
        39           S   tau(  39) = (   0.1154153   0.3625145   0.3677771  )
        40           S   tau(  40) = (   0.3323697   0.1177189   0.3647962  )
        41           S   tau(  41) = (   0.3602285   0.3667355   0.1285401  )
        42           S   tau(  42) = (   0.3776858   0.1281239   0.8696618  )

     number of k points=     8  Marzari-Vanderbilt smearing, width (Ry)=  0.0200
                       cart. coord. in units 2pi/alat
        k(    1) = (   0.0000000   0.0000000   0.0000000), wk =   0.2500000
        k(    2) = (   0.0000000   0.0000000  -0.5006079), wk =   0.2500000
        k(    3) = (   0.0000000  -0.4988757   0.0003513), wk =   0.2500000
        k(    4) = (   0.0000000  -0.4988757  -0.5002566), wk =   0.2500000
        k(    5) = (  -0.5000000   0.0058159  -0.0110280), wk =   0.2500000
        k(    6) = (  -0.5000000   0.0058159  -0.5116359), wk =   0.2500000
        k(    7) = (  -0.5000000  -0.4930599  -0.0106767), wk =   0.2500000
        k(    8) = (  -0.5000000  -0.4930599  -0.5112846), wk =   0.2500000

     Initial potential from superposition of free atoms

     starting charge  251.97792, renormalised to  252.00000
     Starting wfcs are  238 randomized atomic wfcs

     Self-consistent Calculation

     iteration #  1     ecut=    45.00 Ry     beta= 0.70
     Davidson diagonalization with overlap
     ethr =  1.00E-02,  avg # of iterations =  2.0

     total energy              =    -983.57006966 Ry
     Harris-Foulkes estimate   =    -987.08358517 Ry
     estimated scf accuracy    <       9.54085355 Ry

[...]

     total energy              =    -985.34447691 Ry
     Harris-Foulkes estimate   =    -985.34447737 Ry
     estimated scf accuracy    <       0.00000322 Ry

     iteration # 14     ecut=    45.00 Ry     beta= 0.70
     Davidson diagonalization with overlap
     ethr =  1.28E-09,  avg # of iterations =  2.0

     End of self-consistent calculation

          k = 0.0000 0.0000 0.0000 ( 32089 PWs)   bands (ev):

    -9.4599  -8.1738  -7.6659  -7.5272  -7.4992  -7.4508  -7.3397  -7.2019
    -7.0739  -7.0406  -7.0344  -6.9898  -6.9554  -6.9013  -6.8947  -6.8219
    -6.8157  -6.7714  -6.7491  -6.3720  -6.2760  -6.2312  -6.0441  -5.7007
    -5.6451  -5.4756  -5.4214  -5.1425  -0.1059  -0.0017   0.0031   0.0579
     0.2593   0.4111   0.4483   0.6103   0.7020   0.7631   0.7855   0.8163
     0.8586   0.8800   1.0652   1.1776   1.2213   1.3036   1.3119   1.4263
     1.4742   1.5972   1.6320   1.6510   1.7015   1.7253   1.7574   1.7776
     1.8423   1.8855   1.9116   1.9374   1.9829   2.0364   2.0693   2.0750
     2.1386   2.2035   2.2593   2.3081   2.3556   2.3802   2.4137   2.4316
     2.4634   2.4912   2.5119   2.5505   2.5849   2.6089   2.6495   2.7095
     2.7674   2.8543   2.8816   2.9113   2.9428   2.9452   3.0405   3.0835
     3.1068   3.1707   3.2244   3.2790   3.4145   3.6261   3.6843   3.8373
     3.9054   3.9167   3.9407   4.0102   4.1443   4.1723   4.2801   4.3964
     4.4580   4.4730   4.5357   4.5653   4.6139   4.6954   4.8915   4.9718
     5.0018   5.1314   5.1897   5.2109   5.2990   5.3134   5.4049   5.4283
     5.4768   5.5058   5.5902   5.7692   5.7943   5.9425   5.9813   6.0367
     6.1166   6.1918   6.2567   6.5290   6.5646   6.6422   6.7861   6.9553
     7.0249   7.1996   7.2586   7.3602   7.4466   7.4775   7.5120   7.5421
     7.5923   7.6688   7.7058   7.7375   7.8171   7.8631   7.9443

[...]

          k = 0.0000-0.4989-0.5003 ( 32094 PWs)   bands (ev):

[...]

          k =-0.5000 0.0058-0.0110 ( 32080 PWs)   bands (ev):

[...]

          k =-0.5000-0.4931-0.5113 ( 32078 PWs)   bands (ev):

    -9.4555  -7.9196  -7.8014  -7.7018  -7.5611  -7.4717  -7.3383  -7.2207
    -7.1059  -7.0311  -7.0201  -7.0039  -6.9505  -6.9196  -6.8678  -6.8525
    -6.8087  -6.7675  -6.7124  -6.3856  -6.2050  -6.1501  -6.0112  -5.6898
    -5.6707  -5.4716  -5.4167  -5.1377   0.1313   0.2013   0.3264   0.3415
     0.4269   0.4962   0.5651   0.5964   0.6456   0.8015   0.8350   0.8508
     0.9110   0.9497   0.9821   1.0260   1.0581   1.1179   1.1476   1.2528
     1.2619   1.2673   1.3123   1.3567   1.3953   1.4863   1.5495   1.6236
     1.6788   1.7499   1.8331   1.8734   1.8885   1.9295   1.9616   2.1785
     2.2066   2.2322   2.2480   2.3002   2.3319   2.3684   2.3855   2.4303
     2.4398   2.4536   2.5012   2.5538   2.5779   2.6411   2.6938   2.7298
     2.7909   2.8146   2.9053   2.9339   2.9899   3.0654   3.1393   3.1610
     3.3410   3.3890   3.5886   3.6235   3.6593   3.6915   3.8040   3.9277
     3.9558   4.0372   4.0813   4.0935   4.1930   4.2019   4.2561   4.3721
     4.4262   4.4944   4.5143   4.6043   4.7365   4.7874   4.8737   4.9141
     4.9733   5.0604   5.1184   5.1495   5.2394   5.2897   5.3418   5.4003
     5.5486   5.6509   5.7163   5.7534   5.8543   5.8728   5.9818   6.0021
     6.0638   6.2001   6.3291   6.3824   6.4908   6.6184   6.8102   6.9290
     7.1060   7.1575   7.1988   7.3125   7.3916   7.4351   7.4929   7.6402
     7.6665   7.7677   7.7836   7.8076   7.8651   7.9032   7.9086

     the Fermi energy is     5.9301 ev

!    total energy              =    -985.34447677 Ry
     Harris-Foulkes estimate   =    -985.34447724 Ry
     estimated scf accuracy    <       0.00000081 Ry

     The total energy is the sum of the following terms:

     one-electron contribution =    -138.59775634 Ry
     hartree contribution      =     206.37683703 Ry
     xc contribution           =    -388.78787794 Ry
     ewald contribution        =    -664.33139535 Ry
     smearing contrib. (-TS)   =      -0.00428417 Ry

     convergence has been achieved in  14 iterations

     Forces acting on atoms (cartesian axes, Ry/au):

     atom    1 type  1   force =     0.04802468    0.01616563    0.00174254
     atom    2 type  1   force =    -0.02127400    0.00260533    0.01644264
     atom    3 type  1   force =     0.01321629    0.03234001   -0.02995747
     atom    4 type  1   force =    -0.02074039    0.01923148    0.00688231
     atom    5 type  1   force =     0.02281206   -0.03672841    0.02336561
     atom    6 type  1   force =    -0.00969774   -0.02190205   -0.00336174
     atom    7 type  1   force =    -0.00542356   -0.01745334    0.01450609
     atom    8 type  1   force =    -0.00073163    0.01648741    0.01664558
     atom    9 type  1   force =     0.00226129    0.04429948   -0.01732772
     atom   10 type  1   force =     0.00447419   -0.00753295   -0.01239736
     atom   11 type  1   force =    -0.01307195    0.04746585    0.01232496
     atom   12 type  1   force =    -0.00751983   -0.00167822   -0.00093966
     atom   13 type  1   force =    -0.00537023    0.01214197   -0.02766694
     atom   14 type  1   force =     0.00045578    0.02151002   -0.08142216
     atom   15 type  2   force =    -0.00897414    0.01324135    0.03104804
     atom   16 type  2   force =     0.00558197   -0.00916778   -0.01747629
     atom   17 type  2   force =     0.01939107   -0.02137274   -0.00999220
     atom   18 type  2   force =    -0.00280387    0.00343625    0.01395142
     atom   19 type  2   force =     0.03392619   -0.00473650    0.00246051
     atom   20 type  2   force =    -0.01107886   -0.01114366    0.00174819
     atom   21 type  2   force =     0.00012331    0.00607778   -0.01312457
     atom   22 type  2   force =    -0.02761571    0.01741817    0.01480749
     atom   23 type  2   force =     0.00379238    0.00490082   -0.01903720
     atom   24 type  2   force =    -0.01986463   -0.01546592   -0.02362116
     atom   25 type  2   force =    -0.00785472    0.01947009   -0.00896912
     atom   26 type  2   force =    -0.01115294    0.01117927   -0.00163518
     atom   27 type  2   force =    -0.01379747    0.01344833    0.02591726
     atom   28 type  2   force =     0.01001021   -0.03024459    0.00446792
     atom   29 type  2   force =    -0.00285278   -0.00498587   -0.00628110
     atom   30 type  2   force =     0.00132176   -0.03279356    0.01498236
     atom   31 type  2   force =    -0.01352679   -0.01361492    0.01616059
     atom   32 type  2   force =    -0.01257791   -0.01696420   -0.00345451
     atom   33 type  2   force =     0.01110026   -0.03558258    0.01716146
     atom   34 type  2   force =     0.01966948   -0.02309067   -0.00093033
     atom   35 type  2   force =     0.00937054    0.00302650   -0.01455848
     atom   36 type  2   force =    -0.00479745   -0.00649287   -0.01410025
     atom   37 type  2   force =     0.00040570   -0.00847500    0.02341416
     atom   38 type  2   force =    -0.00376988    0.00216085    0.02929522
     atom   39 type  2   force =    -0.00295792    0.02189386    0.00319032
     atom   40 type  2   force =     0.01006952    0.00934601    0.00067693
     atom   41 type  2   force =     0.01811050   -0.00007813    0.01293254
     atom   42 type  2   force =    -0.00666280   -0.01834249    0.00212929

     Total force =     0.205884     Total SCF correction =     0.001449

     General routines

     Parallel routines

   This run was terminated on:  20:48:39  24Dec2021

   JOB DONE.