     Program PWSCF v.6.4.1 starts on  2Aug2021 at  9:35:45

     R & G space division:  proc/nbgrp/npool/nimage =      20
     Waiting for input...
     Reading input from standard input
Warning: card    &IONS ignored
Warning: card      ION_DYNAMICS = 'BFGS' ignored
Warning: card   / ignored
Warning: card    &CELL ignored
Warning: card      CELL_DYNAMICS = 'BFGS', ignored
Warning: card    / ignored

     Current dimensions of program PWSCF are:
     Max number of different atomic species (ntypx) = 10
     Max number of k-points (npk) =  40000
     Max angular momentum in pseudopotentials (lmaxx) =  3

     Subspace diagonalization in iterative solution of the eigenvalue problem:
     a serial algorithm will be used

     bravais-lattice index     =            0
     lattice parameter (alat)  =      12.6709  a.u.
     unit-cell volume          =    3857.6586 (a.u.)^3
     number of atoms/cell      =           24
     number of atomic types    =            2
     number of electrons       =       144.00
     number of Kohn-Sham states=           86
     kinetic-energy cutoff     =      45.0000  Ry
     charge density cutoff     =     360.0000  Ry
     convergence threshold     =      1.0E-06
     mixing beta               =       0.7000
     number of iterations used =            8  local-TF  mixing
     Exchange-correlation      = SLA PW GGX GGC ( 1  4  2  2 0 0)

     celldm(1)=  12.670855  celldm(2)=   0.000000  celldm(3)=   0.000000
     celldm(4)=   0.000000  celldm(5)=   0.000000  celldm(6)=   0.000000

     crystal axes: (cart. coord. in units of alat)
               a(1) = (   1.000000   0.000000   0.000000 )
               a(2) = (  -0.250000   0.433013   0.000000 )
               a(3) = (   0.000000   0.000000   4.379307 )

     reciprocal axes: (cart. coord. in units 2 pi/alat)
               b(1) = (  1.000000  0.577350 -0.000000 )
               b(2) = (  0.000000  2.309401  0.000000 )
               b(3) = (  0.000000 -0.000000  0.228347 )

     PseudoPot. # 1 for Mo read from file:
     /home/kkety/pseudo/Mo.pw91-n-van.UPF
     MD5 check sum: 875977911cf57e7168990cb144db214a
     Pseudo is Ultrasoft + core correction, Zval =  6.0
     Generated by new atomic code, or converted to UPF format
     Using radial grid of  965 points,  3 beta functions with:
                l(1) =   1
                l(2) =   2
                l(3) =   2
     Q(r) pseudized with  8 coefficients,  rinner =    1.000   1.000   1.000
                                                       1.200   1.200

     PseudoPot. # 2 for S  read from file:
     /home/kkety/pseudo/S.pw91-van_ak.UPF
     MD5 check sum: 708c80e9edb6b1bde406d41998b2c042
     Pseudo is Ultrasoft, Zval =  6.0
     Generated by new atomic code, or converted to UPF format
     Using radial grid of  811 points,  6 beta functions with:
                l(1) =   0
                l(2) =   0
                l(3) =   1
                l(4) =   1
                l(5) =   2
                l(6) =   2
     Q(r) pseudized with  8 coefficients,  rinner =    1.100   1.100   1.100
                                                       1.100   1.100

     atomic species   valence    mass     pseudopotential
        Mo             6.00    95.50000     Mo( 1.00)
        S              6.00    32.06500     S ( 1.00)

     No symmetry found

   Cartesian axes

     site n.     atom                  positions (alat units)
         1           Mo  tau(   1) = (  -0.0116476  -0.0074686   1.6366742  )
         2           Mo  tau(   2) = (  -0.0027216  -0.0033832   3.8461615  )
         3           Mo  tau(   3) = (   0.5026072   0.0039700   1.6281027  )
         4           Mo  tau(   4) = (   0.4996058  -0.0037190   3.8174561  )
         5           Mo  tau(   5) = (  -0.0087566  -0.0004952   0.5353509  )
         6           Mo  tau(   6) = (  -0.0076416   0.0110432   2.7305799  )
         7           Mo  tau(   7) = (   0.5069507  -0.0092138   0.5379677  )
         8           Mo  tau(   8) = (   0.5011872   0.0116344   2.7463220  )
         9           S   tau(   9) = (   0.2389653   0.1541367   1.8896528  )
        10           S   tau(  10) = (   0.2437193   0.1496063   4.0896130  )
        11           S   tau(  11) = (   0.7396175   0.1550074   1.8883823  )
        12           S   tau(  12) = (   0.7439688   0.1562113   4.0838670  )
        13           S   tau(  13) = (   0.0010408   0.2975629   0.3140836  )
        14           S   tau(  14) = (   0.0039974   0.2869881   2.5060748  )
        15           S   tau(  15) = (   0.5055594   0.3014954   0.2969409  )
        16           S   tau(  16) = (   0.5006510   0.2983811   2.5031107  )
        17           S   tau(  17) = (   0.0088531   0.2953037   0.7826688  )
        18           S   tau(  18) = (  -0.0120079   0.2970237   2.9794045  )
        19           S   tau(  19) = (   0.5064689   0.2804264   0.7820662  )
        20           S   tau(  20) = (   0.5016327   0.2790613   2.9710436  )
        21           S   tau(  21) = (   0.2614730   0.1475687   1.3880148  )
        22           S   tau(  22) = (   0.2502095   0.1438600   3.5717278  )
        23           S   tau(  23) = (   0.7498299   0.1491501   1.3828641  )
        24           S   tau(  24) = (   0.7540518   0.1307688   3.5819525  )

     number of k points=    14  Marzari-Vanderbilt smearing, width (Ry)=  0.0200
                       cart. coord. in units 2pi/alat
        k(    1) = (   0.0000000   0.0000000   0.0000000), wk =   0.1333333
        k(    2) = (   0.0000000   0.4618802   0.0000000), wk =   0.1333333
        k(    3) = (   0.0000000   0.9237605   0.0000000), wk =   0.1333333
        k(    4) = (   0.3333333   0.1924501   0.0000000), wk =   0.2666667
        k(    5) = (   0.3333333   0.6543303   0.0000000), wk =   0.1333333
        k(    6) = (   0.3333333   1.1162106   0.0000000), wk =   0.1333333
        k(    7) = (   0.3333333  -0.7313104   0.0000000), wk =   0.1333333
        k(    8) = (   0.3333333  -0.2694301   0.0000000), wk =   0.1333333
        k(    9) = (   0.4000000  -0.2309401   0.0000000), wk =   0.1333333
        k(   10) = (   0.8000000  -0.4618802   0.0000000), wk =   0.1333333
        k(   11) = (   0.7333333  -0.0384900   0.0000000), wk =   0.1333333
        k(   12) = (   1.1333333  -0.2694301   0.0000000), wk =   0.1333333
        k(   13) = (  -0.4666667   0.6543303   0.0000000), wk =   0.1333333
        k(   14) = (  -0.0666667   0.4233902   0.0000000), wk =   0.1333333

     Initial potential from superposition of free atoms

     starting charge  143.98738, renormalised to  144.00000
     Starting wfcs are  136 randomized atomic wfcs

     Self-consistent Calculation

     iteration #  1     ecut=    45.00 Ry     beta= 0.70
     Davidson diagonalization with overlap
     ethr =  1.00E-02,  avg # of iterations =  2.0

     total energy              =    -562.12797550 Ry
     Harris-Foulkes estimate   =    -564.49790668 Ry
     estimated scf accuracy    <       6.38625382 Ry

[...]

     total energy              =    -563.40338329 Ry
     Harris-Foulkes estimate   =    -563.40338349 Ry
     estimated scf accuracy    <       0.00000152 Ry

     iteration # 15     ecut=    45.00 Ry     beta= 0.70
     Davidson diagonalization with overlap
     ethr =  1.06E-09,  avg # of iterations =  1.8

     End of self-consistent calculation

          k = 0.0000 0.0000 0.0000 ( 19681 PWs)   bands (ev):

    -8.8882  -8.8152  -8.5198  -8.4428  -7.7830  -7.7622  -7.6976  -7.6687
    -7.5006  -7.4289  -7.1673  -7.1091  -7.1053  -7.0739  -6.8852  -6.8848
    -0.5064  -0.4753  -0.3953  -0.3412  -0.1843  -0.1051  -0.0632   0.0017
     0.4118   0.5183   0.5800   0.6414   0.9203   1.0650   1.1932   1.2803
     1.5913   1.8198   2.0194   2.0423   2.1481   2.1547   2.1647   2.1874
     2.5521   2.5858   2.6548   2.6718   2.7204   2.7661   2.8920   2.9069
     2.9685   3.0453   3.0837   3.1587   3.2406   3.3019   3.3214   3.3361
     3.3711   3.5100   3.5669   3.5877   3.7142   3.7301   3.9040   4.0813
     4.0931   4.3030   4.3152   4.3398   4.5374   4.6592   4.9060   4.9535
     6.1751   6.2379   6.2590   6.3713   6.6288   6.6393   6.6852   6.6879
     6.7104   6.7247   6.7683   6.7765   6.8802   6.8874

[...]

          k = 1.1333-0.2694 0.0000 ( 19693 PWs)   bands (ev):

[...]

          k =-0.4667 0.6543 0.0000 ( 19650 PWs)   bands (ev):

[...]

          k =-0.0667 0.4234 0.0000 ( 19659 PWs)   bands (ev):

    -8.5203  -8.4620  -8.1614  -8.0887  -7.6348  -7.5783  -7.5101  -7.4725
    -7.4373  -7.3838  -7.1123  -7.0582  -7.0433  -7.0184  -6.8392  -6.8384
    -0.0471   0.0109   0.0402   0.0669   0.1299   0.2908   0.3495   0.3713
     0.3967   0.4589   0.5141   0.6010   1.0943   1.1629   1.3596   1.3629
     1.3741   1.4220   1.7401   1.7783   1.8301   1.8393   1.8811   1.9221
     2.0457   2.0566   2.1149   2.1289   2.1600   2.1830   2.4040   2.4339
     2.4563   2.4858   2.7083   2.7626   2.8381   2.8683   2.9884   3.0203
     3.0409   3.0618   3.1731   3.1934   3.4920   3.5886   3.6459   3.7850
     4.2171   4.2313   4.2890   4.3227   4.3687   4.4875   4.5346   4.5602
     6.1835   6.2197   6.2676   6.2946   6.3434   6.4093   6.5340   6.5574
     6.6091   6.6442   6.6636   6.7277   6.7716   6.8171

     the Fermi energy is     4.7929 ev

!    total energy              =    -563.40338270 Ry
     Harris-Foulkes estimate   =    -563.40338339 Ry
     estimated scf accuracy    <       0.00000076 Ry

     The total energy is the sum of the following terms:

     one-electron contribution =    -105.96552567 Ry
     hartree contribution      =     126.90305037 Ry
     xc contribution           =    -220.75204001 Ry
     ewald contribution        =    -363.60971318 Ry
     smearing contrib. (-TS)   =       0.02084579 Ry

     convergence has been achieved in  15 iterations

     Forces acting on atoms (cartesian axes, Ry/au):

     atom    1 type  1   force =     0.02614076    0.05024011    0.00272019
     atom    2 type  1   force =     0.00811722    0.02217345   -0.05178438
     atom    3 type  1   force =    -0.00940862    0.00221158    0.04398892
     atom    4 type  1   force =    -0.00964198    0.01047221    0.04579642
     atom    5 type  1   force =     0.05148783    0.02506954    0.06147382
     atom    6 type  1   force =     0.03127493   -0.03271077    0.05741158
     atom    7 type  1   force =    -0.00246216    0.05130543    0.02868137
     atom    8 type  1   force =    -0.01381851   -0.06147085   -0.04496871
     atom    9 type  2   force =     0.00927947   -0.01226056   -0.10324329
     atom   10 type  2   force =     0.01019237   -0.00623399   -0.10635954
     atom   11 type  2   force =     0.00296185   -0.02375061   -0.08403583
     atom   12 type  2   force =    -0.00258329   -0.03427921   -0.06908870
     atom   13 type  2   force =    -0.01003213   -0.01812404    0.00035920
     atom   14 type  2   force =    -0.00804982    0.03959106    0.01637264
     atom   15 type  2   force =    -0.01061196   -0.04005026    0.03069572
     atom   16 type  2   force =    -0.01573317   -0.00583983    0.02960212
     atom   17 type  2   force =    -0.02328915   -0.01659990   -0.06109139
     atom   18 type  2   force =     0.00761629    0.00357092   -0.05663691
     atom   19 type  2   force =    -0.00478571   -0.00135103   -0.06100724
     atom   20 type  2   force =    -0.00156973    0.05645333   -0.00175333
     atom   21 type  2   force =    -0.02703592   -0.00586858    0.06638769
     atom   22 type  2   force =    -0.00645833   -0.00923808    0.09411442
     atom   23 type  2   force =    -0.00210093   -0.01022317    0.07486085
     atom   24 type  2   force =     0.00051068    0.01691326    0.08750438

     Total force =     0.342500     Total SCF correction =     0.002326

     General routines

     Parallel routines

   This run was terminated on:   9:56: 5   2Aug2021

   JOB DONE.