     Program PWSCF v.6.4 starts on  8Sep2021 at 11:15:52

     R & G space division:  proc/nbgrp/npool/nimage =      40
     Waiting for input...
     Reading input from standard input
Warning: card    &IONS ignored
Warning: card      ION_DYNAMICS = 'BFGS' ignored
Warning: card   / ignored
Warning: card    &CELL ignored
Warning: card      CELL_DYNAMICS = 'BFGS', ignored
Warning: card    / ignored

     Current dimensions of program PWSCF are:
     Max number of different atomic species (ntypx) = 10
     Max number of k-points (npk) =  40000
     Max angular momentum in pseudopotentials (lmaxx) =  3

     bravais-lattice index     =            0
     lattice parameter (alat)  =      12.2017  a.u.
     unit-cell volume          =    5853.8959 (a.u.)^3
     number of atoms/cell      =           24
     number of atomic types    =            2
     number of electrons       =       144.00
     number of Kohn-Sham states=           86
     kinetic-energy cutoff     =      45.0000  Ry
     charge density cutoff     =     360.0000  Ry
     convergence threshold     =      1.0E-06
     mixing beta               =       0.7000
     number of iterations used =            8  local-TF  mixing
     Exchange-correlation      = SLA PW GGX GGC ( 1  4  2  2 0 0)

     celldm(1)=  12.201720  celldm(2)=   0.000000  celldm(3)=   0.000000
     celldm(4)=   0.000000  celldm(5)=   0.000000  celldm(6)=   0.000000

     crystal axes: (cart. coord. in units of alat)
               a(1) = (   0.999743  -0.022374   0.003543 )
               a(2) = (  -0.478426   0.893545  -0.003043 )
               a(3) = (   0.036707  -0.082725   3.651259 )

     reciprocal axes: (cart. coord. in units 2 pi/alat)
               b(1) = (  1.012381  0.542061  0.002104 )
               b(2) = (  0.025261  1.132750  0.025410 )
               b(3) = ( -0.000961  0.000418  0.273897 )

     PseudoPot. # 1 for Mo read from file:
     ~/pseudo/Mo.pw91-n-van.UPF
     MD5 check sum: Not computed, couldn't open file
     Pseudo is Ultrasoft + core correction, Zval =  6.0
     Generated by new atomic code, or converted to UPF format
     Using radial grid of  965 points,  3 beta functions with:
                l(1) =   1
                l(2) =   2
                l(3) =   2
     Q(r) pseudized with  8 coefficients,  rinner =    1.000   1.000   1.000
                                                       1.200   1.200

     PseudoPot. # 2 for S  read from file:
     ~/pseudo/S.pw91-van_ak.UPF
     MD5 check sum: Not computed, couldn't open file
     Pseudo is Ultrasoft, Zval =  6.0
     Generated by new atomic code, or converted to UPF format
     Using radial grid of  811 points,  6 beta functions with:
                l(1) =   0
                l(2) =   0
                l(3) =   1
                l(4) =   1
                l(5) =   2
                l(6) =   2
     Q(r) pseudized with  8 coefficients,  rinner =    1.100   1.100   1.100
                                                       1.100   1.100

     atomic species   valence    mass     pseudopotential
        Mo             6.00    95.50000     Mo( 1.00)
        S              6.00    32.06500     S ( 1.00)

     No symmetry found

   Cartesian axes

     site n.     atom                  positions (alat units)
         1           Mo  tau(   1) = (   0.3824157   0.1169450   0.5911661  )
         2           Mo  tau(   2) = (   0.1406768   0.4721229   0.6137512  )
         3           Mo  tau(   3) = (   0.8826363   0.1048095   0.5936333  )
         4           Mo  tau(   4) = (   0.6402286   0.4615959   0.6153691  )
         5           Mo  tau(   5) = (  -0.0451015   0.2729050   3.0498139  )
         6           Mo  tau(   6) = (  -0.3212738   0.7695261   3.0480170  )
         7           Mo  tau(   7) = (   0.3795754   0.2582393   3.0482496  )
         8           Mo  tau(   8) = (   0.1730273   0.6944089   3.0498365  )
         9           S   tau(   9) = (  -0.1123096   0.3799658   0.8737436  )
        10           S   tau(  10) = (  -0.3516118   0.8190700   0.8095548  )
        11           S   tau(  11) = (   0.3870883   0.3688648   0.8753515  )
        12           S   tau(  12) = (   0.1483896   0.8077970   0.8116645  )
        13           S   tau(  13) = (   0.1631361   0.1312216   3.3262565  )
        14           S   tau(  14) = (  -0.0812570   0.5757631   3.2896614  )
        15           S   tau(  15) = (   0.6630626   0.1219643   3.2717483  )
        16           S   tau(  16) = (   0.4262901   0.5630976   3.2863090  )
        17           S   tau(  17) = (   0.1357133   0.2197069   0.3295540  )
        18           S   tau(  18) = (  -0.1039658   0.6742850   0.3909973  )
        19           S   tau(  19) = (   0.6353057   0.2093221   0.3317043  )
        20           S   tau(  20) = (   0.3964229   0.6631626   0.3928122  )
        21           S   tau(  21) = (   0.4120448  -0.0221682   2.7990193  )
        22           S   tau(  22) = (   0.1729323   0.4284832   2.7831729  )
        23           S   tau(  23) = (   0.9079357  -0.0296697   2.8043159  )
        24           S   tau(  24) = (   0.6712307   0.4162596   2.8401961  )

     number of k points=     5  Marzari-Vanderbilt smearing, width (Ry)=  0.0200
                       cart. coord. in units 2pi/alat
        k(    1) = (   0.0000000   0.0000000   0.0000000), wk =   0.2222222
        k(    2) = (   0.0084203   0.3775832   0.0084701), wk =   0.4444444
        k(    3) = (   0.3374602   0.1806870   0.0007012), wk =   0.4444444
        k(    4) = (   0.3458805   0.5582702   0.0091714), wk =   0.4444444
        k(    5) = (   0.3290399  -0.1968962  -0.0077689), wk =   0.4444444

     Initial potential from superposition of free atoms

     starting charge  143.98738, renormalised to  144.00000

     negative rho (up, down):  5.737E-04 0.000E+00
     Starting wfcs are  136 randomized atomic wfcs

     Self-consistent Calculation

     iteration #  1     ecut=    45.00 Ry     beta= 0.70
     Davidson diagonalization with overlap
     ethr =  1.00E-02,  avg # of iterations =  2.0

     negative rho (up, down):  3.442E-05 0.000E+00

     total energy              =    -562.32158684 Ry
     Harris-Foulkes estimate   =    -564.28131677 Ry
     estimated scf accuracy    <       5.30827901 Ry

[...]

     total energy              =    -563.34126171 Ry
     Harris-Foulkes estimate   =    -563.34126274 Ry
     estimated scf accuracy    <       0.00000139 Ry

     iteration # 17     ecut=    45.00 Ry     beta= 0.70
     Davidson diagonalization with overlap
     ethr =  9.64E-10,  avg # of iterations =  1.0

[...]

     End of self-consistent calculation

          k = 0.0000 0.0000 0.0000 ( 29799 PWs)   bands (ev):

   -12.8728 -12.6874 -11.8738 -11.7051 -11.5309 -11.4954 -11.2422 -11.2370
   -11.1929 -10.9907 -10.9536 -10.8803 -10.8455 -10.5720 -10.5607 -10.5236
    -4.9404  -4.7919  -4.7410  -4.6205  -4.6192  -4.5832  -4.2535  -3.9903
    -3.4374  -3.3185  -3.2783  -3.2232  -3.2164  -3.2150  -3.1023  -2.9687
    -2.9203  -2.8096  -2.5364  -2.5317  -2.3056  -2.2320  -2.1059  -2.1026
    -1.9594  -1.8787  -1.7582  -1.7493  -1.6078  -1.4150  -1.2671  -1.1838
    -1.1095  -1.0873  -1.0835  -1.0665  -0.9777  -0.5486  -0.5010  -0.4958
    -0.4832  -0.3496  -0.2467   0.0575   0.1083   0.1737   0.1874   0.2433
     0.4246   0.4276   0.7723   0.8580   0.8889   1.0043   1.0942   1.1211
     1.2427   1.3715   1.6832   2.0194   2.6004   2.6805   2.8656   2.8678
     2.8923   3.2047   3.2376   3.3844   3.5409   3.7037

[...]

          k = 0.3290-0.1969-0.0078 ( 29868 PWs)   bands (ev):

   -12.5045 -12.3123 -11.7997 -11.6560 -11.5759 -11.4978 -11.4472 -11.3374
   -11.2788 -11.2100 -11.0256 -11.0189 -10.9647 -10.8397 -10.6429 -10.6179
    -4.3252  -4.1844  -4.1048  -4.1014  -4.0151  -3.8443  -3.6701  -3.6345
    -3.5827  -3.4895  -3.4616  -3.3612  -3.3377  -2.9394  -2.8583  -2.8347
    -2.7551  -2.7167  -2.6416  -2.4911  -2.3620  -2.3272  -2.3113  -2.2768
    -2.1727  -2.0561  -1.9943  -1.7948  -1.7226  -1.6763  -1.6544  -1.5322
    -1.2534  -1.2450  -1.1737  -1.1538  -1.1091  -1.0276  -0.8623  -0.7901
    -0.6953  -0.3651  -0.3578  -0.1858  -0.0546   0.0799   0.0988   0.1185
     0.2166   0.3234   0.3576   0.4042   0.5648   0.6417   0.8087   0.8814
     1.5770   1.6037   1.7151   2.2710   2.3689   2.4440   2.5588   2.7730
     2.9766   3.1780   3.4429   3.4580   3.4873   3.6128

     the Fermi energy is     1.0935 ev

!    total energy              =    -563.34126214 Ry
     Harris-Foulkes estimate   =    -563.34126181 Ry
     estimated scf accuracy    <       0.00000044 Ry

     The total energy is the sum of the following terms:

     one-electron contribution =   -2444.48298378 Ry
     hartree contribution      =    1276.50733150 Ry
     xc contribution           =    -222.41968988 Ry
     ewald contribution        =     827.03849156 Ry
     smearing contrib. (-TS)   =       0.01558847 Ry

     convergence has been achieved in  17 iterations

     negative rho (up, down):  7.976E-04 0.000E+00

     Forces acting on atoms (cartesian axes, Ry/au):

     atom    1 type  1   force =     0.00077966   -0.00485026    0.00297362
     atom    2 type  1   force =    -0.00140900    0.00216838   -0.00219443
     atom    3 type  1   force =    -0.00188467    0.00146069    0.00014567
     atom    4 type  1   force =     0.00171589   -0.00172322    0.00005997
     atom    5 type  1   force =     0.00035007   -0.00545934   -0.00115399
     atom    6 type  1   force =    -0.00069887    0.00255139   -0.00180242
     atom    7 type  1   force =    -0.00029389   -0.00214886    0.00059349
     atom    8 type  1   force =     0.00130855    0.00247041    0.00332127
     atom    9 type  2   force =    -0.00076662   -0.00121316    0.00003356
     atom   10 type  2   force =     0.00053109    0.00104542   -0.00027038
     atom   11 type  2   force =     0.00140835   -0.00169202    0.00104990
     atom   12 type  2   force =    -0.00061301    0.00145559   -0.00176799
     atom   13 type  2   force =     0.00056937    0.00088616    0.00110990
     atom   14 type  2   force =    -0.00147195   -0.00010700   -0.00329807
     atom   15 type  2   force =    -0.00021213    0.00091324   -0.00037251
     atom   16 type  2   force =     0.00160208    0.00023701   -0.00203207
     atom   17 type  2   force =    -0.00113698    0.00195657    0.00029931
     atom   18 type  2   force =     0.00082203   -0.00014125    0.00058325
     atom   19 type  2   force =     0.00116795    0.00130902   -0.00069432
     atom   20 type  2   force =    -0.00077084   -0.00042266    0.00032362
     atom   21 type  2   force =     0.00046119    0.00032149   -0.00006741
     atom   22 type  2   force =    -0.00081204    0.00050061    0.00125034
     atom   23 type  2   force =    -0.00061398   -0.00067656   -0.00096424
     atom   24 type  2   force =    -0.00003223    0.00115833    0.00287393

     Total force =     0.013587     Total SCF correction =     0.001513
     SCF correction compared to forces is large: reduce conv_thr to get better values

     General routines

     Parallel routines

   This run was terminated on:  11:17: 8   8Sep2021

   JOB DONE.