     Program PWSCF v.6.4 starts on 23Dec2021 at 23: 5:25

     R & G space division:  proc/nbgrp/npool/nimage =      40
     Waiting for input...
     Reading input from standard input
Warning: card    &IONS ignored
Warning: card      ION_DYNAMICS = 'BFGS' ignored
Warning: card   / ignored
Warning: card    &CELL ignored
Warning: card      CELL_DYNAMICS = 'BFGS', ignored
Warning: card    / ignored

     Current dimensions of program PWSCF are:
     Max number of different atomic species (ntypx) = 10
     Max number of k-points (npk) =  40000
     Max angular momentum in pseudopotentials (lmaxx) =  3

     bravais-lattice index     =            0
     lattice parameter (alat)  =      16.6170  a.u.
     unit-cell volume          =   18304.2683 (a.u.)^3
     number of atoms/cell      =           27
     number of atomic types    =            2
     number of electrons       =       162.00
     number of Kohn-Sham states=           97
     kinetic-energy cutoff     =      45.0000  Ry
     charge density cutoff     =     360.0000  Ry
     convergence threshold     =      1.0E-06
     mixing beta               =       0.7000
     number of iterations used =            8  local-TF  mixing
     Exchange-correlation      = SLA PW GGX GGC ( 1  4  2  2 0 0)

     celldm(1)=  16.617045  celldm(2)=   0.000000  celldm(3)=   0.000000
     celldm(4)=   0.000000  celldm(5)=   0.000000  celldm(6)=   0.000000

     crystal axes: (cart. coord. in units of alat)
               a(1) = (   1.000000   0.000000   0.000000 )
               a(2) = (   0.461853   1.248072   0.000000 )
               a(3) = (   0.203881   0.372952   3.196328 )

     reciprocal axes: (cart. coord. in units 2 pi/alat)
               b(1) = (  1.000000 -0.370053 -0.020608 )
               b(2) = (  0.000000  0.801236 -0.093489 )
               b(3) = (  0.000000  0.000000  0.312859 )

     PseudoPot. # 1 for Mo read from file:
     ~/pseudo/Mo.pw91-n-van.UPF
     MD5 check sum: Not computed, couldn't open file
     Pseudo is Ultrasoft + core correction, Zval =  6.0
     Generated by new atomic code, or converted to UPF format
     Using radial grid of  965 points,  3 beta functions with:
                l(1) =   1
                l(2) =   2
                l(3) =   2
     Q(r) pseudized with  8 coefficients,  rinner =    1.000   1.000   1.000
                                                       1.200   1.200

     PseudoPot. # 2 for S  read from file:
     ~/pseudo/S.pw91-van_ak.UPF
     MD5 check sum: Not computed, couldn't open file
     Pseudo is Ultrasoft, Zval =  6.0
     Generated by new atomic code, or converted to UPF format
     Using radial grid of  811 points,  6 beta functions with:
                l(1) =   0
                l(2) =   0
                l(3) =   1
                l(4) =   1
                l(5) =   2
                l(6) =   2
     Q(r) pseudized with  8 coefficients,  rinner =    1.100   1.100   1.100
                                                       1.100   1.100

     atomic species   valence    mass     pseudopotential
        Mo             6.00    95.50000     Mo( 1.00)
        S              6.00    32.06500     S ( 1.00)

     No symmetry found

   Cartesian axes

     site n.     atom                  positions (alat units)
         1           Mo  tau(   1) = (   0.7040232   1.3627857   1.6827205  )
         2           Mo  tau(   2) = (   0.6244282   1.0412750   1.7195896  )
         3           Mo  tau(   3) = (   1.0606356   1.1399789   1.6944607  )
         4           Mo  tau(   4) = (   0.9968779   0.3171382   1.6930581  )
         5           Mo  tau(   5) = (   0.6571976   0.2019552   1.6822399  )
         6           Mo  tau(   6) = (   1.3866877   1.2464374   1.6954788  )
         7           Mo  tau(   7) = (   0.3299156   0.4639285   1.6691950  )
         8           Mo  tau(   8) = (   0.5959831   0.6329733   1.7666116  )
         9           Mo  tau(   9) = (   0.3610096   0.8418976   1.6813441  )
        10           S   tau(  10) = (   0.4243079   0.2644914   1.8463043  )
        11           S   tau(  11) = (   0.1947770   0.3060542   1.4902669  )
        12           S   tau(  12) = (   0.8839933   0.5656778   1.8036932  )
        13           S   tau(  13) = (   0.8567531   0.1868557   1.4956965  )
        14           S   tau(  14) = (   1.0716444   0.8717299   1.7325228  )
        15           S   tau(  15) = (   0.6323460   0.6270787   2.0667201  )
        16           S   tau(  16) = (   1.4122814   1.0278757   1.8840627  )
        17           S   tau(  17) = (   0.3430181   0.6569266   1.8754699  )
        18           S   tau(  18) = (   0.8263196   1.1505923   1.8454114  )
        19           S   tau(  19) = (   0.5931519   1.1876910   1.5021615  )
        20           S   tau(  20) = (   1.2586824   1.0568055   1.5159675  )
        21           S   tau(  21) = (   0.5783728   0.4497290   1.5726607  )
        22           S   tau(  22) = (   1.5235616   1.3993159   1.8853680  )
        23           S   tau(  23) = (   1.1739271   1.2751423   1.8876211  )
        24           S   tau(  24) = (   1.2469187   0.6663926   1.4903229  )
        25           S   tau(  25) = (   0.9478458   1.3059880   1.5225272  )
        26           S   tau(  26) = (   0.7781757   0.3691536   1.8922532  )
        27           S   tau(  27) = (   0.6105073   0.8132228   1.5789552  )

     number of k points=     4  Marzari-Vanderbilt smearing, width (Ry)=  0.0200
                       cart. coord. in units 2pi/alat
        k(    1) = (   0.0000000   0.0000000   0.0000000), wk =   0.5000000
        k(    2) = (   0.0000000  -0.4006179   0.0467446), wk =   0.5000000
        k(    3) = (  -0.5000000   0.1850267   0.0103039), wk =   0.5000000
        k(    4) = (  -0.5000000  -0.2155912   0.0570485), wk =   0.5000000

     Initial potential from superposition of free atoms

     starting charge  161.98581, renormalised to  162.00000

     negative rho (up, down):  3.297E-03 0.000E+00
     Starting wfcs are  153 randomized atomic wfcs

     Self-consistent Calculation

     iteration #  1     ecut=    45.00 Ry     beta= 0.70
     Davidson diagonalization with overlap
     ethr =  1.00E-02,  avg # of iterations =  2.0

     negative rho (up, down):  5.388E-03 0.000E+00

     total energy              =    -632.04221629 Ry
     Harris-Foulkes estimate   =    -634.28366928 Ry
     estimated scf accuracy    <       6.25785038 Ry

[...]

     total energy              =    -633.20377808 Ry
     Harris-Foulkes estimate   =    -633.20377314 Ry
     estimated scf accuracy    <       0.00000156 Ry

     iteration # 21     ecut=    45.00 Ry     beta= 0.70
     Davidson diagonalization with overlap
     ethr =  9.62E-10,  avg # of iterations =  2.2

[...]

     End of self-consistent calculation

          k = 0.0000 0.0000 0.0000 ( 93299 PWs)   bands (ev):

   -18.2519 -17.0363 -16.4760 -16.3809 -16.2619 -16.1907 -16.1394 -16.0866
   -15.9736 -15.8384 -15.7494 -15.7272 -15.6271 -15.4365 -14.9146 -14.6339
   -14.2276 -13.9119  -8.9994  -8.7088  -8.6704  -8.6072  -8.4410  -8.2664
    -8.2372  -8.1703  -8.1081  -8.0242  -7.9797  -7.8168  -7.7200  -7.6520
    -7.5464  -7.4800  -7.4272  -7.3693  -7.3373  -7.2512  -7.0533  -6.9948
    -6.9827  -6.8551  -6.7996  -6.7445  -6.6582  -6.6090  -6.5041  -6.4321
    -6.3785  -6.3225  -6.2803  -6.1959  -6.0970  -6.0417  -5.9882  -5.8802
    -5.7071  -5.5822  -5.5304  -5.4824  -5.2693  -5.1200  -5.0945  -4.9661
    -4.9393  -4.7478  -4.6488  -4.5494  -4.4826  -4.3224  -4.2162  -4.0711
    -4.0301  -3.8722  -3.8062  -3.6894  -3.6146  -3.5675  -3.4119  -3.3359
    -3.1210  -2.9610  -2.7801  -2.7376  -2.6658  -2.5412  -2.2758  -2.2166
    -2.1134  -2.0464  -1.9503  -1.7375  -1.6206  -1.5239  -1.2415  -1.1667
    -1.0558

          k = 0.0000-0.4006 0.0467 ( 93332 PWs)   bands (ev):

[...]

          k =-0.5000 0.1850 0.0103 ( 93374 PWs)   bands (ev):

[...]

          k =-0.5000-0.2156 0.0570 ( 93278 PWs)   bands (ev):

   -18.2452 -16.8587 -16.7053 -16.4721 -16.3322 -16.1699 -16.1309 -16.0267
   -16.0103 -15.7980 -15.7202 -15.6553 -15.5649 -15.4596 -14.9380 -14.6353
   -14.2221 -13.9116  -9.0201  -8.8976  -8.6400  -8.5415  -8.3719  -8.3053
    -8.1912  -8.1412  -8.0264  -8.0006  -7.8887  -7.8160  -7.6951  -7.6524
    -7.6106  -7.5035  -7.4348  -7.3170  -7.3028  -7.1636  -7.1034  -7.0183
    -6.9803  -6.8998  -6.8908  -6.7998  -6.7719  -6.6331  -6.5685  -6.5018
    -6.4145  -6.2693  -6.2243  -6.1802  -6.1656  -6.0162  -5.9299  -5.8606
    -5.6698  -5.6544  -5.4948  -5.4191  -5.2590  -5.1244  -5.0751  -4.9316
    -4.8589  -4.8060  -4.6490  -4.6221  -4.4351  -4.3743  -4.1973  -4.0945
    -4.0511  -3.9225  -3.8409  -3.7307  -3.5784  -3.4668  -3.3252  -3.1992
    -3.1035  -3.0148  -2.8505  -2.8259  -2.6088  -2.4484  -2.4036  -2.2314
    -2.1706  -2.0354  -1.8540  -1.7499  -1.6244  -1.4216  -1.3369  -1.3158
    -1.1530

     the Fermi energy is    -3.0459 ev

!    total energy              =    -633.20377802 Ry
     Harris-Foulkes estimate   =    -633.20377817 Ry
     estimated scf accuracy    <       0.00000037 Ry

     The total energy is the sum of the following terms:

     one-electron contribution =   -5769.03565528 Ry
     hartree contribution      =    2918.84838369 Ry
     xc contribution           =    -249.69355067 Ry
     ewald contribution        =    2466.67487907 Ry
     smearing contrib. (-TS)   =       0.00216517 Ry

     convergence has been achieved in  21 iterations

     negative rho (up, down):  4.449E-03 0.000E+00

     Forces acting on atoms (cartesian axes, Ry/au):

     atom    1 type  1   force =    -0.00657708    0.02397778    0.01560864
     atom    2 type  1   force =    -0.01013099   -0.04235863    0.02253166
     atom    3 type  1   force =     0.02185881   -0.09234018   -0.01317737
     atom    4 type  1   force =    -0.04070725   -0.00341889   -0.02150748
     atom    5 type  1   force =     0.04613185    0.04483329    0.05359857
     atom    6 type  1   force =    -0.01903704    0.01619056   -0.01609942
     atom    7 type  1   force =    -0.00463442    0.06122401   -0.01992341
     atom    8 type  1   force =    -0.01211671   -0.02533459    0.11987694
     atom    9 type  1   force =    -0.04561479   -0.06618777    0.01063727
     atom   10 type  2   force =    -0.02172949    0.00561130   -0.01475327
     atom   11 type  2   force =    -0.00735999    0.01096348    0.01595725
     atom   12 type  2   force =     0.01417760   -0.01951216   -0.01533909
     atom   13 type  2   force =     0.00257078    0.00936572    0.00931853
     atom   14 type  2   force =    -0.00285384    0.01657202    0.00836534
     atom   15 type  2   force =    -0.02288670    0.01716251   -0.09424254
     atom   16 type  2   force =     0.02053720    0.01398929   -0.02179211
     atom   17 type  2   force =     0.00747562   -0.02874210    0.00661221
     atom   18 type  2   force =    -0.01107593   -0.00931746    0.01992233
     atom   19 type  2   force =    -0.00797399    0.01220362    0.00370423
     atom   20 type  2   force =    -0.00377605    0.02545868    0.02041950
     atom   21 type  2   force =     0.00788611   -0.00441464   -0.02722009
     atom   22 type  2   force =     0.01348996   -0.01931797    0.01471436
     atom   23 type  2   force =     0.01532640    0.01276661   -0.00510111
     atom   24 type  2   force =     0.01985429   -0.01076767    0.04194276
     atom   25 type  2   force =    -0.00435355    0.01525856   -0.02180627
     atom   26 type  2   force =     0.00750521    0.00150769   -0.02795848
     atom   27 type  2   force =     0.04401399    0.03462692   -0.06428896

     Total force =     0.278616     Total SCF correction =     0.001405

     General routines

     Parallel routines

   This run was terminated on:  23:12:28  23Dec2021

   JOB DONE.