     Program PWSCF v.6.4 starts on 19Nov2021 at 17: 1:13

     R & G space division:  proc/nbgrp/npool/nimage =      40
     Waiting for input...
     Reading input from standard input
Warning: card    &IONS ignored
Warning: card      ION_DYNAMICS = 'BFGS' ignored
Warning: card   / ignored
Warning: card    &CELL ignored
Warning: card      CELL_DYNAMICS = 'BFGS', ignored
Warning: card    / ignored

     Current dimensions of program PWSCF are:
     Max number of different atomic species (ntypx) = 10
     Max number of k-points (npk) =  40000
     Max angular momentum in pseudopotentials (lmaxx) =  3

     bravais-lattice index     =            0
     lattice parameter (alat)  =      11.7664  a.u.
     unit-cell volume          =    8145.6010 (a.u.)^3
     number of atoms/cell      =           36
     number of atomic types    =            2
     number of electrons       =       216.00
     number of Kohn-Sham states=          130
     kinetic-energy cutoff     =      45.0000  Ry
     charge density cutoff     =     360.0000  Ry
     convergence threshold     =      1.0E-06
     mixing beta               =       0.7000
     number of iterations used =            8  local-TF  mixing
     Exchange-correlation      = SLA PW GGX GGC ( 1  4  2  2 0 0)

     celldm(1)=  11.766356  celldm(2)=   0.000000  celldm(3)=   0.000000
     celldm(4)=   0.000000  celldm(5)=   0.000000  celldm(6)=   0.000000

     crystal axes: (cart. coord. in units of alat)
               a(1) = (   1.000000   0.000000   0.000000 )
               a(2) = (   0.014770   1.815255   0.000000 )
               a(3) = (   0.364916   0.404056   2.754607 )

     reciprocal axes: (cart. coord. in units 2 pi/alat)
               b(1) = (  1.000000 -0.008136 -0.131281 )
               b(2) = (  0.000000  0.550887 -0.080806 )
               b(3) = (  0.000000  0.000000  0.363028 )

     PseudoPot. # 1 for Mo read from file:
     ~/pseudo/Mo.pw91-n-van.UPF
     MD5 check sum: Not computed, couldn't open file
     Pseudo is Ultrasoft + core correction, Zval =  6.0
     Generated by new atomic code, or converted to UPF format
     Using radial grid of  965 points,  3 beta functions with:
                l(1) =   1
                l(2) =   2
                l(3) =   2
     Q(r) pseudized with  8 coefficients,  rinner =    1.000   1.000   1.000
                                                       1.200   1.200

     PseudoPot. # 2 for S  read from file:
     ~/pseudo/S.pw91-van_ak.UPF
     MD5 check sum: Not computed, couldn't open file
     Pseudo is Ultrasoft, Zval =  6.0
     Generated by new atomic code, or converted to UPF format
     Using radial grid of  811 points,  6 beta functions with:
                l(1) =   0
                l(2) =   0
                l(3) =   1
                l(4) =   1
                l(5) =   2
                l(6) =   2
     Q(r) pseudized with  8 coefficients,  rinner =    1.100   1.100   1.100
                                                       1.100   1.100

     atomic species   valence    mass     pseudopotential
        Mo             6.00    95.50000     Mo( 1.00)
        S              6.00    32.06500     S ( 1.00)

     No symmetry found

   Cartesian axes

     site n.     atom                  positions (alat units)
         1           Mo  tau(   1) = (   0.6716310   1.1136370   1.8793065  )
         2           Mo  tau(   2) = (   0.4234408   1.5666460   1.8832320  )
         3           Mo  tau(   3) = (   1.1713754   1.1135144   1.8793373  )
         4           Mo  tau(   4) = (   0.9231318   1.5664395   1.8829904  )
         5           Mo  tau(   5) = (   1.1769519   2.0218346   1.8793919  )
         6           Mo  tau(   6) = (   0.6770306   2.0211911   1.8783477  )
         7           Mo  tau(   7) = (   0.9181637   0.6594174   1.8754592  )
         8           Mo  tau(   8) = (   0.4174771   0.6594173   1.8751904  )
         9           Mo  tau(   9) = (   0.5261608   0.0384714   0.1700108  )
        10           Mo  tau(  10) = (   0.0684614   0.0327828   0.1687720  )
        11           Mo  tau(  11) = (   0.1390652   1.1194458   0.6455199  )
        12           Mo  tau(  12) = (   0.6789862   1.1164725   0.6380084  )
        13           S   tau(  13) = (   0.4217116   1.2667802   2.1369798  )
        14           S   tau(  14) = (   0.6682752   0.8130849   2.1317650  )
        15           S   tau(  15) = (   0.9214775   1.2668556   2.1371067  )
        16           S   tau(  16) = (   1.1685766   0.8133083   2.1318111  )
        17           S   tau(  17) = (   0.4100184   0.9352106   0.8227939  )
        18           S   tau(  18) = (   0.9035631   1.3194127   0.8501082  )
        19           S   tau(  19) = (   0.4221797   1.2696890   1.6247842  )
        20           S   tau(  20) = (   0.6689543   0.8161198   1.6209367  )
        21           S   tau(  21) = (   0.9221396   1.2694719   1.6242289  )
        22           S   tau(  22) = (   1.1686725   0.8162784   1.6201708  )
        23           S   tau(  23) = (   0.4002091   1.3129065   0.4509793  )
        24           S   tau(  24) = (   0.9159435   0.8992915   0.4477049  )
        25           S   tau(  25) = (   1.1730318   1.7233807   2.1377019  )
        26           S   tau(  26) = (   0.6732453   1.7242609   2.1383825  )
        27           S   tau(  27) = (   1.1739309   1.7211185   1.6273683  )
        28           S   tau(  28) = (   0.6737852   1.7200423   1.6266309  )
        29           S   tau(  29) = (   0.9136956   0.3598884   1.6215967  )
        30           S   tau(  30) = (   0.4125755   0.3596994   1.6216256  )
        31           S   tau(  31) = (   0.8133701   1.8388348   0.4284461  )
        32           S   tau(  32) = (   0.2931248   0.3268374   0.2017527  )
        33           S   tau(  33) = (   0.9115208   0.3620677   2.1332992  )
        34           S   tau(  34) = (   0.4136496   0.3621382   2.1331057  )
        35           S   tau(  35) = (   1.1601793   0.4427467   2.6647387  )
        36           S   tau(  36) = (   0.3228466   1.5513339   0.2214500  )

     number of k points=     4  Marzari-Vanderbilt smearing, width (Ry)=  0.0200
                       cart. coord. in units 2pi/alat
        k(    1) = (   0.0000000   0.0000000   0.0000000), wk =   0.3333333
        k(    2) = (   0.0000000  -0.2754434   0.0404031), wk =   0.3333333
        k(    3) = (   0.3333333  -0.0027121  -0.0437604), wk =   0.6666667
        k(    4) = (   0.3333333  -0.2781556  -0.0033573), wk =   0.6666667

     Initial potential from superposition of free atoms

     starting charge  215.98107, renormalised to  216.00000

     negative rho (up, down):  1.977E-07 0.000E+00
     Starting wfcs are  204 randomized atomic wfcs

     Self-consistent Calculation

     iteration #  1     ecut=    45.00 Ry     beta= 0.70
     Davidson diagonalization with overlap
     ethr =  1.00E-02,  avg # of iterations =  2.0

     total energy              =    -843.72181508 Ry
     Harris-Foulkes estimate   =    -846.22433940 Ry
     estimated scf accuracy    <       6.39614346 Ry

[...]

     iteration #  5     ecut=    45.00 Ry     beta= 0.70
     Davidson diagonalization with overlap
     c_bands:  1 eigenvalues not converged
     ethr =  3.44E-05,  avg # of iterations = 10.8

[...]

     negative rho (up, down):  1.325E-05 0.000E+00

[...]

     iteration # 13     ecut=    45.00 Ry     beta= 0.70
     Davidson diagonalization with overlap
     c_bands:  1 eigenvalues not converged
     c_bands:  1 eigenvalues not converged
     ethr =  3.53E-07,  avg # of iterations = 13.2

[...]

     total energy              =    -844.95724588 Ry
     Harris-Foulkes estimate   =    -844.95724148 Ry
     estimated scf accuracy    <       0.00000140 Ry

     iteration # 23     ecut=    45.00 Ry     beta= 0.70
     Davidson diagonalization with overlap
     ethr =  5.45E-10,  avg # of iterations =  6.5

[...]

     End of self-consistent calculation

          k = 0.0000 0.0000 0.0000 ( 41523 PWs)   bands (ev):

   -13.0537 -12.3908 -11.6393 -11.6360 -11.2268 -10.8943 -10.8846 -10.7412
   -10.6742 -10.6632 -10.5324 -10.5282 -10.5144 -10.4924 -10.4856 -10.3109
   -10.2926 -10.2589 -10.2492 -10.2488 -10.1933 -10.1913 -10.1362  -9.8194
    -4.5120  -4.0773  -4.0176  -3.9969  -3.8690  -3.4659  -3.4582  -3.2429
    -3.2380  -3.2341  -3.2186  -3.1516  -3.1345  -3.0442  -2.7282  -2.6136
    -2.3739  -2.3508  -2.3422  -2.3402  -2.2867  -2.2194  -2.2046  -1.9336
    -1.9171  -1.9037  -1.8934  -1.8408  -1.7274  -1.6571  -1.6279  -1.6038
    -1.5662  -1.5172  -1.5099  -1.4744  -1.4502  -1.3738  -1.3594  -1.1647
    -1.0889  -1.0741  -1.0685  -1.0626  -1.0382  -0.8064  -0.7966  -0.5731
    -0.5042  -0.4072  -0.3965  -0.3793  -0.3039  -0.2079  -0.2062  -0.1627
    -0.1157   0.0228   0.0363   0.1133   0.1806   0.2342   0.2438   0.2526
     0.3140   0.4956   0.5883   0.6242   0.7103   0.7623   0.7702   0.7955
     0.8364   1.0525   1.0696   1.0855   1.1160   1.1248   1.2830   1.5152
     1.6575   1.7126   1.7367   1.8693   1.9188   2.4155   2.9209   3.0159
     3.5454   3.6175   3.6396   3.7193   3.7396   3.7599   3.7640   3.7950
     3.8014   3.8334   3.8551   3.9590   4.0561   4.1347   4.1520   4.2275
     4.2789   4.3198

[...]

          k = 0.3333-0.2782-0.0034 ( 41522 PWs)   bands (ev):

   -13.0450 -11.9013 -11.8905 -11.1865 -11.1701 -10.9834 -10.9720 -10.8124
   -10.7981 -10.6158 -10.5962 -10.5818 -10.5542 -10.4907 -10.4790 -10.4750
   -10.4554 -10.3107 -10.2955 -10.2813 -10.2664 -10.2424 -10.1253  -9.8496
    -4.4054  -3.4630  -3.4379  -3.3905  -3.3802  -3.3635  -3.3545  -3.3526
    -3.3408  -3.3358  -3.3133  -2.8614  -2.8381  -2.7762  -2.3622  -2.3097
    -2.2845  -2.1497  -2.1309  -2.1073  -2.0941  -2.0856  -2.0770  -2.0687
    -2.0283  -1.7848  -1.7599  -1.7333  -1.7189  -1.6818  -1.6342  -1.5723
    -1.5152  -1.4999  -1.4764  -1.4410  -1.4264  -1.3554  -1.2881  -1.2634
    -1.2496  -1.1854  -1.1746  -1.1728  -1.1544  -0.9747  -0.9491  -0.8684
    -0.8475  -0.6853  -0.5956  -0.5654  -0.5335  -0.5276  -0.5165  -0.4593
    -0.3916  -0.3314  -0.3162  -0.2357  -0.2112  -0.0568   0.0334   0.0482
     0.0833   0.1610   0.1764   0.2034   0.2297   0.6055   0.6320   0.7331
     0.7621   0.8519   1.0959   1.1366   1.1947   1.2162   1.4098   1.4218
     1.4346   1.5812   2.1051   2.2088   2.5610   2.8050   3.1286   3.3156
     3.5877   3.6013   3.6184   3.6288   3.6598   3.6830   3.7035   3.7391
     3.7530   3.7593   3.7803   3.8124   3.9243   3.9995   4.0188   4.0336
     4.0519   4.0669

     the Fermi energy is     2.2443 ev

!    total energy              =    -844.95724274 Ry
     Harris-Foulkes estimate   =    -844.95724351 Ry
     estimated scf accuracy    <       0.00000080 Ry

     The total energy is the sum of the following terms:

     one-electron contribution =   -1340.83865228 Ry
     hartree contribution      =     757.03509851 Ry
     xc contribution           =    -333.52964361 Ry
     ewald contribution        =      72.37362315 Ry
     smearing contrib. (-TS)   =       0.00233149 Ry

     convergence has been achieved in  23 iterations

     negative rho (up, down):  7.285E-06 0.000E+00

     Forces acting on atoms (cartesian axes, Ry/au):

     atom    1 type  1   force =    -0.00178377    0.00477017    0.00020935
     atom    2 type  1   force =     0.00038099    0.00846505   -0.00126946
     atom    3 type  1   force =    -0.00082503    0.00542522   -0.00071284
     atom    4 type  1   force =     0.00048912    0.00880021   -0.00104643
     atom    5 type  1   force =     0.00018145    0.00327153    0.00068367
     atom    6 type  1   force =     0.00024965    0.00492448   -0.00174947
     atom    7 type  1   force =    -0.00382812    0.00778921    0.00264110
     atom    8 type  1   force =     0.00044417    0.00798662    0.00288504
     atom    9 type  1   force =     0.06460758    0.00069433    0.02460623
     atom   10 type  1   force =    -0.05955664   -0.00435663    0.02889449
     atom   11 type  1   force =     0.05902254    0.00462089   -0.01597031
     atom   12 type  1   force =    -0.06448320    0.01278539   -0.02196593
     atom   13 type  2   force =     0.00065947   -0.00379836   -0.00381091
     atom   14 type  2   force =     0.00067717   -0.00345917   -0.00162355
     atom   15 type  2   force =     0.00126614   -0.00387924   -0.00418418
     atom   16 type  2   force =     0.00018820   -0.00357183   -0.00104756
     atom   17 type  2   force =     0.00352622   -0.01557647    0.01756489
     atom   18 type  2   force =     0.00076695   -0.00268956   -0.00524376
     atom   19 type  2   force =    -0.00066724   -0.00221189    0.00272621
     atom   20 type  2   force =    -0.00077848   -0.00319569    0.00268112
     atom   21 type  2   force =    -0.00031088   -0.00199053    0.00371179
     atom   22 type  2   force =    -0.00037496   -0.00306093    0.00411123
     atom   23 type  2   force =     0.01226724   -0.06823447    0.07981510
     atom   24 type  2   force =    -0.00486988    0.01678340    0.00878725
     atom   25 type  2   force =     0.00190395   -0.00212571   -0.00313086
     atom   26 type  2   force =     0.00182666   -0.00431422   -0.00591765
     atom   27 type  2   force =    -0.00007146   -0.00430717    0.00048636
     atom   28 type  2   force =     0.00018310   -0.00307063    0.00076369
     atom   29 type  2   force =    -0.00080465   -0.00443128    0.00288605
     atom   30 type  2   force =     0.00139843   -0.00417411    0.00253836
     atom   31 type  2   force =    -0.00212742   -0.00042966    0.01287367
     atom   32 type  2   force =    -0.00063163   -0.01851359   -0.01520138
     atom   33 type  2   force =     0.00319341   -0.00198809   -0.00286157
     atom   34 type  2   force =    -0.00016950   -0.00200412   -0.00243698
     atom   35 type  2   force =     0.00320449   -0.00276284   -0.02212930
     atom   36 type  2   force =    -0.01515406    0.07782967   -0.08856347

     Total force =     0.214584     Total SCF correction =     0.001967

     General routines

     Parallel routines

   This run was terminated on:  17: 4:34  19Nov2021

   JOB DONE.