     Program PWSCF v.6.4 starts on 10Nov2021 at 17:58: 0

     R & G space division:  proc/nbgrp/npool/nimage =      40
     Waiting for input...
     Reading input from standard input
Warning: card    &IONS ignored
Warning: card      ION_DYNAMICS = 'BFGS' ignored
Warning: card   / ignored
Warning: card    &CELL ignored
Warning: card      CELL_DYNAMICS = 'BFGS', ignored
Warning: card    / ignored

     Current dimensions of program PWSCF are:
     Max number of different atomic species (ntypx) = 10
     Max number of k-points (npk) =  40000
     Max angular momentum in pseudopotentials (lmaxx) =  3

     bravais-lattice index     =            0
     lattice parameter (alat)  =       6.0994  a.u.
     unit-cell volume          =    1249.8450 (a.u.)^3
     number of atoms/cell      =            9
     number of atomic types    =            2
     number of electrons       =        54.00
     number of Kohn-Sham states=           32
     kinetic-energy cutoff     =      45.0000  Ry
     charge density cutoff     =     360.0000  Ry
     convergence threshold     =      1.0E-06
     mixing beta               =       0.7000
     number of iterations used =            8  local-TF  mixing
     Exchange-correlation      = SLA PW GGX GGC ( 1  4  2  2 0 0)

     celldm(1)=   6.099393  celldm(2)=   0.000000  celldm(3)=   0.000000
     celldm(4)=   0.000000  celldm(5)=   0.000000  celldm(6)=   0.000000

     crystal axes: (cart. coord. in units of alat)
               a(1) = (   1.000000   0.000000   0.000000 )
               a(2) = (  -0.498200   0.865242   0.000000 )
               a(3) = (  -0.068853  -0.269727   6.365885 )

     reciprocal axes: (cart. coord. in units 2 pi/alat)
               b(1) = (  1.000000  0.575792  0.035213 )
               b(2) = (  0.000000  1.155746  0.048970 )
               b(3) = (  0.000000  0.000000  0.157087 )

     PseudoPot. # 1 for Mo read from file:
     ~/pseudo/Mo.pw91-n-van.UPF
     MD5 check sum: Not computed, couldn't open file
     Pseudo is Ultrasoft + core correction, Zval =  6.0
     Generated by new atomic code, or converted to UPF format
     Using radial grid of  965 points,  3 beta functions with:
                l(1) =   1
                l(2) =   2
                l(3) =   2
     Q(r) pseudized with  8 coefficients,  rinner =    1.000   1.000   1.000
                                                       1.200   1.200

     PseudoPot. # 2 for S  read from file:
     ~/pseudo/S.pw91-van_ak.UPF
     MD5 check sum: Not computed, couldn't open file
     Pseudo is Ultrasoft, Zval =  6.0
     Generated by new atomic code, or converted to UPF format
     Using radial grid of  811 points,  6 beta functions with:
                l(1) =   0
                l(2) =   0
                l(3) =   1
                l(4) =   1
                l(5) =   2
                l(6) =   2
     Q(r) pseudized with  8 coefficients,  rinner =    1.100   1.100   1.100
                                                       1.100   1.100

     atomic species   valence    mass     pseudopotential
        Mo             6.00    95.50000     Mo( 1.00)
        S              6.00    32.06500     S ( 1.00)

     No symmetry found

   Cartesian axes

     site n.     atom                  positions (alat units)
         1           Mo  tau(   1) = (   0.1257023   0.1917521   4.2415116  )
         2           Mo  tau(   2) = (   0.6109389   0.0457460   2.2889279  )
         3           Mo  tau(   3) = (   0.6275740   0.0886276   6.2057292  )
         4           S   tau(   4) = (   0.1222763  -0.1991361   5.7134770  )
         5           S   tau(   5) = (   0.6302839  -0.1003744   4.7281748  )
         6           S   tau(   6) = (   0.6220579  -0.0929691   3.7544086  )
         7           S   tau(   7) = (  -0.3896099   0.6239491   2.7816687  )
         8           S   tau(   8) = (  -0.3852178   0.6216601   1.8040042  )
         9           S   tau(   9) = (   0.2021342   0.0667842   0.3240110  )

     number of k points=    20  Marzari-Vanderbilt smearing, width (Ry)=  0.0200
                       cart. coord. in units 2pi/alat
        k(    1) = (   0.0000000   0.0000000   0.0000000), wk =   0.0555556
        k(    2) = (   0.0000000   0.1926243   0.0081616), wk =   0.1111111
        k(    3) = (   0.0000000   0.3852487   0.0163232), wk =   0.1111111
        k(    4) = (   0.0000000  -0.5778730  -0.0244849), wk =   0.0555556
        k(    5) = (   0.1666667   0.0959654   0.0058688), wk =   0.1111111
        k(    6) = (   0.1666667   0.2885897   0.0140304), wk =   0.1111111
        k(    7) = (   0.1666667   0.4812141   0.0221920), wk =   0.1111111
        k(    8) = (   0.1666667  -0.4819076  -0.0186161), wk =   0.1111111
        k(    9) = (   0.1666667  -0.2892833  -0.0104545), wk =   0.1111111
        k(   10) = (   0.1666667  -0.0966589  -0.0022929), wk =   0.1111111
        k(   11) = (   0.3333333   0.1919308   0.0117375), wk =   0.1111111
        k(   12) = (   0.3333333   0.3845552   0.0198992), wk =   0.1111111
        k(   13) = (   0.3333333   0.5771795   0.0280608), wk =   0.1111111
        k(   14) = (   0.3333333  -0.3859422  -0.0127473), wk =   0.1111111
        k(   15) = (   0.3333333  -0.1933179  -0.0045857), wk =   0.1111111
        k(   16) = (   0.3333333  -0.0006935   0.0035759), wk =   0.1111111
        k(   17) = (  -0.5000000  -0.2878962  -0.0176063), wk =   0.0555556
        k(   18) = (  -0.5000000  -0.0952719  -0.0094447), wk =   0.1111111
        k(   19) = (  -0.5000000   0.0973524  -0.0012831), wk =   0.1111111
        k(   20) = (  -0.5000000  -0.8657692  -0.0420912), wk =   0.0555556

     Initial potential from superposition of free atoms

     starting charge   53.99527, renormalised to   54.00000
     Starting wfcs are   51 randomized atomic wfcs

     Self-consistent Calculation

     iteration #  1     ecut=    45.00 Ry     beta= 0.70
     Davidson diagonalization with overlap
     ethr =  1.00E-02,  avg # of iterations =  2.0

     total energy              =    -211.04923884 Ry
     Harris-Foulkes estimate   =    -211.71192553 Ry
     estimated scf accuracy    <       1.69496400 Ry

[...]

     total energy              =    -211.38196957 Ry
     Harris-Foulkes estimate   =    -211.38196979 Ry
     estimated scf accuracy    <       0.00000221 Ry

     iteration # 11     ecut=    45.00 Ry     beta= 0.70
     Davidson diagonalization with overlap
     ethr =  4.10E-09,  avg # of iterations =  3.5

     End of self-consistent calculation

          k = 0.0000 0.0000 0.0000 (  6443 PWs)   bands (ev):

    -7.7415  -7.6314  -7.5815  -6.5735  -6.4304  -6.3301   0.5287   0.8788
     1.1404   3.6744   3.6905   3.7338   3.7427   3.7589   3.7639   4.0470
     4.5693   4.7784   4.8144   4.8398   4.8530   4.8730   4.8817   5.4653
     6.0778   6.5891   6.8110   8.9105   8.9637   8.9858   8.9994   9.0203

[...]

          k = 0.3333-0.0007 0.0036 (  6405 PWs)   bands (ev):

[...]

          k =-0.5000-0.2879-0.0176 (  6328 PWs)   bands (ev):

[...]

          k =-0.5000-0.8658-0.0421 (  6316 PWs)   bands (ev):

    -5.9795  -5.9184  -5.9154  -5.6878  -5.6360  -5.6293   0.6690   0.7382
     0.7412   1.6085   1.6538   1.6814   2.3047   2.3655   2.3757   3.1626
     3.2238   3.2352   4.4494   4.4892   4.5692   5.2890   5.3675   5.3816
     5.6668   5.6986   5.7304   8.2973   8.3377   8.3440   8.8162   8.8522

     the Fermi energy is     6.9714 ev

!    total energy              =    -211.38196942 Ry
     Harris-Foulkes estimate   =    -211.38197002 Ry
     estimated scf accuracy    <       0.00000065 Ry

     The total energy is the sum of the following terms:

     one-electron contribution =     -59.50299710 Ry
     hartree contribution      =      60.60627559 Ry
     xc contribution           =     -83.53744932 Ry
     ewald contribution        =    -128.94822193 Ry
     smearing contrib. (-TS)   =       0.00042334 Ry

     convergence has been achieved in  11 iterations

     Forces acting on atoms (cartesian axes, Ry/au):

     atom    1 type  1   force =     0.00147040   -0.00019663   -0.00039863
     atom    2 type  1   force =     0.00074757    0.00041474    0.01297578
     atom    3 type  1   force =     0.00200982   -0.00373255   -0.01430866
     atom    4 type  2   force =     0.00586496   -0.00105834    0.00979704
     atom    5 type  2   force =    -0.00599404    0.00469359    0.00087365
     atom    6 type  2   force =     0.00341189   -0.00336540    0.00046523
     atom    7 type  2   force =     0.00223963   -0.00192146   -0.01112205
     atom    8 type  2   force =    -0.00283167    0.00139668   -0.00646168
     atom    9 type  2   force =    -0.00691855    0.00376936    0.00817934

     Total force =     0.030343     Total SCF correction =     0.002333

     General routines

     Parallel routines

   This run was terminated on:  17:58:21  10Nov2021

   JOB DONE.