     Program PWSCF v.6.4 starts on  8Sep2021 at 12:23:30

     R & G space division:  proc/nbgrp/npool/nimage =      40
     Waiting for input...
     Reading input from standard input
Warning: card    &IONS ignored
Warning: card      ION_DYNAMICS = 'BFGS' ignored
Warning: card   / ignored
Warning: card    &CELL ignored
Warning: card      CELL_DYNAMICS = 'BFGS', ignored
Warning: card    / ignored

     Current dimensions of program PWSCF are:
     Max number of different atomic species (ntypx) = 10
     Max number of k-points (npk) =  40000
     Max angular momentum in pseudopotentials (lmaxx) =  3

     bravais-lattice index     =            0
     lattice parameter (alat)  =      12.5273  a.u.
     unit-cell volume          =    3311.2291 (a.u.)^3
     number of atoms/cell      =           24
     number of atomic types    =            2
     number of electrons       =       144.00
     number of Kohn-Sham states=           86
     kinetic-energy cutoff     =      45.0000  Ry
     charge density cutoff     =     360.0000  Ry
     convergence threshold     =      1.0E-06
     mixing beta               =       0.7000
     number of iterations used =            8  local-TF  mixing
     Exchange-correlation      = SLA PW GGX GGC ( 1  4  2  2 0 0)

     celldm(1)=  12.527259  celldm(2)=   0.000000  celldm(3)=   0.000000
     celldm(4)=   0.000000  celldm(5)=   0.000000  celldm(6)=   0.000000

     crystal axes: (cart. coord. in units of alat)
               a(1) = (   0.999523   0.030108  -0.006853 )
               a(2) = (  -0.244563   0.414703  -0.004147 )
               a(3) = (  -0.473381  -1.037612   4.009859 )

     reciprocal axes: (cart. coord. in units 2 pi/alat)
               b(1) = (  0.984736  0.583402  0.267216 )
               b(2) = ( -0.067456  2.377657  0.607292 )
               b(3) = (  0.001613  0.003456  0.250470 )

     PseudoPot. # 1 for Mo read from file:
     ~/pseudo/Mo.pw91-n-van.UPF
     MD5 check sum: Not computed, couldn't open file
     Pseudo is Ultrasoft + core correction, Zval =  6.0
     Generated by new atomic code, or converted to UPF format
     Using radial grid of  965 points,  3 beta functions with:
                l(1) =   1
                l(2) =   2
                l(3) =   2
     Q(r) pseudized with  8 coefficients,  rinner =    1.000   1.000   1.000
                                                       1.200   1.200

     PseudoPot. # 2 for S  read from file:
     ~/pseudo/S.pw91-van_ak.UPF
     MD5 check sum: Not computed, couldn't open file
     Pseudo is Ultrasoft, Zval =  6.0
     Generated by new atomic code, or converted to UPF format
     Using radial grid of  811 points,  6 beta functions with:
                l(1) =   0
                l(2) =   0
                l(3) =   1
                l(4) =   1
                l(5) =   2
                l(6) =   2
     Q(r) pseudized with  8 coefficients,  rinner =    1.100   1.100   1.100
                                                       1.100   1.100

     atomic species   valence    mass     pseudopotential
        Mo             6.00    95.50000     Mo( 1.00)
        S              6.00    32.06500     S ( 1.00)

     No symmetry found

   Cartesian axes

     site n.     atom                  positions (alat units)
         1           Mo  tau(   1) = (  -0.0686853  -0.3382497   1.4719577  )
         2           Mo  tau(   2) = (  -0.4880539  -0.9749874   3.5319722  )
         3           Mo  tau(   3) = (   0.4834470  -0.2639944   1.4507669  )
         4           Mo  tau(   4) = (  -0.0631431  -1.0086394   3.5621805  )
         5           Mo  tau(   5) = (  -0.0999970  -0.0700832   0.5314891  )
         6           Mo  tau(   6) = (  -0.3870008  -0.6086154   2.4836973  )
         7           Mo  tau(   7) = (   0.3396217  -0.0779345   0.5127022  )
         8           Mo  tau(   8) = (   0.2061785  -0.5714203   2.4596388  )
         9           S   tau(   9) = (   0.2259434  -0.4406176   1.6849930  )
        10           S   tau(  10) = (  -0.2768030  -0.8538568   3.8135254  )
        11           S   tau(  11) = (   0.6861291  -0.4291484   1.7181026  )
        12           S   tau(  12) = (   0.2255258  -0.8415680   3.7460283  )
        13           S   tau(  13) = (  -0.1401084   0.1850326   0.2687919  )
        14           S   tau(  14) = (  -0.2994636  -0.3457700   2.2644162  )
        15           S   tau(  15) = (   0.3714500   0.2206457   0.2846828  )
        16           S   tau(  16) = (   0.1941294  -0.3221877   2.1833082  )
        17           S   tau(  17) = (   0.1359315   0.0787259   0.7727139  )
        18           S   tau(  18) = (  -0.5196040  -0.3936709   2.7525536  )
        19           S   tau(  19) = (   0.6198047   0.0717328   0.7452589  )
        20           S   tau(  20) = (  -0.0015072  -0.4203396   2.7106318  )
        21           S   tau(  21) = (   0.1993410  -0.1611520   1.2318936  )
        22           S   tau(  22) = (  -0.0152625  -0.6925748   3.3351248  )
        23           S   tau(  23) = (   0.7317057  -0.1422821   1.2039515  )
        24           S   tau(  24) = (   0.4856399  -0.6847822   3.2638223  )

     number of k points=    10  Marzari-Vanderbilt smearing, width (Ry)=  0.0200
                       cart. coord. in units 2pi/alat
        k(    1) = (   0.0000000   0.0000000   0.0000000), wk =   0.1111111
        k(    2) = (  -0.0112427   0.3962761   0.1012153), wk =   0.2222222
        k(    3) = (  -0.0224855   0.7925523   0.2024306), wk =   0.2222222
        k(    4) = (   0.0337282  -1.1888284  -0.3036458), wk =   0.1111111
        k(    5) = (   0.3282453   0.1944673   0.0890721), wk =   0.2222222
        k(    6) = (   0.3170025   0.5907434   0.1902874), wk =   0.2222222
        k(    7) = (   0.3057598   0.9870196   0.2915027), wk =   0.2222222
        k(    8) = (   0.3619735  -0.9943612  -0.2145737), wk =   0.2222222
        k(    9) = (   0.3507308  -0.5980850  -0.1133584), wk =   0.2222222
        k(   10) = (   0.3394880  -0.2018089  -0.0121431), wk =   0.2222222

     Initial potential from superposition of free atoms

     starting charge  143.98738, renormalised to  144.00000
     Starting wfcs are  136 randomized atomic wfcs

     Self-consistent Calculation

     iteration #  1     ecut=    45.00 Ry     beta= 0.70
     Davidson diagonalization with overlap
     ethr =  1.00E-02,  avg # of iterations =  2.0

     total energy              =    -562.11033563 Ry
     Harris-Foulkes estimate   =    -564.13935660 Ry
     estimated scf accuracy    <       5.62003071 Ry

[...]

     iteration #  7     ecut=    45.00 Ry     beta= 0.70
     Davidson diagonalization with overlap
     c_bands:  1 eigenvalues not converged
     ethr =  1.42E-06,  avg # of iterations =  9.2

[...]

     total energy              =    -563.19305421 Ry
     Harris-Foulkes estimate   =    -563.19305431 Ry
     estimated scf accuracy    <       0.00000130 Ry

     iteration # 14     ecut=    45.00 Ry     beta= 0.70
     Davidson diagonalization with overlap
     ethr =  9.06E-10,  avg # of iterations =  1.0

     End of self-consistent calculation

          k = 0.0000 0.0000 0.0000 ( 16985 PWs)   bands (ev):

    -7.3987  -7.2586  -7.1711  -7.0918  -6.5113  -6.3645  -6.2855  -6.2235
    -5.8296  -5.7952  -5.7195  -5.5495  -5.4977  -5.4876  -5.3971  -5.3643
     0.7277   0.8206   0.9209   0.9619   1.2059   1.2771   1.4030   1.6590
     1.8157   2.0302   2.1171   2.2230   2.2895   2.3740   2.4860   2.5962
     3.4850   3.5202   3.5587   3.6108   3.6287   3.6692   3.7098   3.7612
     3.7701   3.8911   3.9066   3.9256   4.0757   4.1458   4.2523   4.3266
     4.6940   4.7126   4.9046   5.0916   5.2596   5.2742   5.3582   5.4737
     5.5695   5.6478   5.7366   5.8331   5.8637   6.1041   6.1844   6.2929
     6.3804   6.5030   6.5415   6.5723   6.6052   6.6260   6.6813   6.7051
     6.7371   6.8668   6.9176   6.9830   7.2550   7.3367   7.3902   7.9429
     8.1843   8.3223   8.3541   8.4737   8.6198   8.6528

          k =-0.0112 0.3963 0.1012 ( 16916 PWs)   bands (ev):

[...]

          k =-0.0225 0.7926 0.2024 ( 16846 PWs)   bands (ev):

[...]

          k = 0.3395-0.2018-0.0121 ( 16931 PWs)   bands (ev):

    -7.0277  -6.8923  -6.8025  -6.7383  -6.3517  -6.2335  -6.1309  -6.0727
    -5.6979  -5.6918  -5.6219  -5.5623  -5.5248  -5.4591  -5.4152  -5.3602
     1.2762   1.3243   1.3795   1.4635   1.6058   1.7451   1.8127   1.8822
     1.9826   2.0183   2.0491   2.1655   2.4627   2.5591   2.5704   2.6948
     2.9757   3.0326   3.1114   3.1990   3.2721   3.3963   3.4550   3.5405
     3.6219   3.7573   3.8050   3.8260   3.9891   4.0179   4.0677   4.1892
     4.2192   4.2611   4.3595   4.4170   4.5678   4.6147   4.6652   4.7566
     5.0678   5.1469   5.3683   5.4769   5.5609   5.6068   5.6368   5.7610
     5.9644   6.0829   6.1333   6.1919   6.3226   6.4668   6.5583   6.7048
     6.8607   6.9625   7.0088   7.0912   7.5810   7.6338   7.7388   7.9937
     8.1110   8.3579   8.4749   8.5447   8.7668   8.8033

     the Fermi energy is     6.7391 ev

!    total energy              =    -563.19305381 Ry
     Harris-Foulkes estimate   =    -563.19305427 Ry
     estimated scf accuracy    <       0.00000049 Ry

     The total energy is the sum of the following terms:

     one-electron contribution =     -29.75091421 Ry
     hartree contribution      =      98.00045978 Ry
     xc contribution           =    -222.03990885 Ry
     ewald contribution        =    -409.40881377 Ry
     smearing contrib. (-TS)   =       0.00612325 Ry

     convergence has been achieved in  14 iterations

     Forces acting on atoms (cartesian axes, Ry/au):

     atom    1 type  1   force =    -0.01626547    0.00347088   -0.00811349
     atom    2 type  1   force =     0.01217817    0.00354353    0.00095761
     atom    3 type  1   force =     0.01930224   -0.00174854    0.02362053
     atom    4 type  1   force =     0.00336827    0.00187877   -0.02589927
     atom    5 type  1   force =     0.01402730    0.01518386   -0.01089666
     atom    6 type  1   force =     0.04292311   -0.00645997   -0.01295648
     atom    7 type  1   force =    -0.01128385   -0.01680499    0.01338781
     atom    8 type  1   force =     0.02824294    0.01097180    0.01139363
     atom    9 type  2   force =    -0.02341685    0.00220629   -0.02848756
     atom   10 type  2   force =    -0.00067210    0.00536651   -0.01624960
     atom   11 type  2   force =     0.01744590    0.00736812   -0.01974069
     atom   12 type  2   force =    -0.00136195    0.00802187   -0.01604762
     atom   13 type  2   force =     0.00778719    0.00365188    0.00728203
     atom   14 type  2   force =    -0.01084094    0.03960153    0.00617734
     atom   15 type  2   force =     0.00328205   -0.01032059    0.03316728
     atom   16 type  2   force =    -0.01173855    0.01892553    0.05377766
     atom   17 type  2   force =    -0.01448576   -0.00458607   -0.01294295
     atom   18 type  2   force =    -0.00525403   -0.03766847   -0.03192647
     atom   19 type  2   force =     0.00403613    0.01276896   -0.03131781
     atom   20 type  2   force =    -0.04411924   -0.02325065   -0.02094445
     atom   21 type  2   force =     0.01488532   -0.00460942    0.03204196
     atom   22 type  2   force =    -0.01187223   -0.01604853    0.01699425
     atom   23 type  2   force =    -0.01185532   -0.00857058    0.00209559
     atom   24 type  2   force =    -0.00431232   -0.00289170    0.03462734

     Total force =     0.160923     Total SCF correction =     0.002152

     General routines

     Parallel routines

   This run was terminated on:  12:24:33   8Sep2021

   JOB DONE.