     Program PWSCF v.6.4 starts on 14Oct2021 at 11: 4:17

     R & G space division:  proc/nbgrp/npool/nimage =      40
     Waiting for input...
     Reading input from standard input
Warning: card    &IONS ignored
Warning: card      ION_DYNAMICS = 'BFGS' ignored
Warning: card   / ignored
Warning: card    &CELL ignored
Warning: card      CELL_DYNAMICS = 'BFGS', ignored
Warning: card    / ignored

     Current dimensions of program PWSCF are:
     Max number of different atomic species (ntypx) = 10
     Max number of k-points (npk) =  40000
     Max angular momentum in pseudopotentials (lmaxx) =  3

     bravais-lattice index     =            0
     lattice parameter (alat)  =      12.0660  a.u.
     unit-cell volume          =    7887.6465 (a.u.)^3
     number of atoms/cell      =           36
     number of atomic types    =            2
     number of electrons       =       216.00
     number of Kohn-Sham states=          130
     kinetic-energy cutoff     =      45.0000  Ry
     charge density cutoff     =     360.0000  Ry
     convergence threshold     =      1.0E-06
     mixing beta               =       0.7000
     number of iterations used =            8  local-TF  mixing
     Exchange-correlation      = SLA PW GGX GGC ( 1  4  2  2 0 0)

     celldm(1)=  12.065968  celldm(2)=   0.000000  celldm(3)=   0.000000
     celldm(4)=   0.000000  celldm(5)=   0.000000  celldm(6)=   0.000000

     crystal axes: (cart. coord. in units of alat)
               a(1) = (   1.000000   0.000000   0.000000 )
               a(2) = (   0.490225   0.899396   0.000000 )
               a(3) = (   0.344485   0.541536   4.992406 )

     reciprocal axes: (cart. coord. in units 2 pi/alat)
               b(1) = (  1.000000 -0.545060 -0.009878 )
               b(2) = (  0.000000  1.111857 -0.120605 )
               b(3) = (  0.000000  0.000000  0.200304 )

     PseudoPot. # 1 for Mo read from file:
     ~/pseudo/Mo.pw91-n-van.UPF
     MD5 check sum: Not computed, couldn't open file
     Pseudo is Ultrasoft + core correction, Zval =  6.0
     Generated by new atomic code, or converted to UPF format
     Using radial grid of  965 points,  3 beta functions with:
                l(1) =   1
                l(2) =   2
                l(3) =   2
     Q(r) pseudized with  8 coefficients,  rinner =    1.000   1.000   1.000
                                                       1.200   1.200

     PseudoPot. # 2 for S  read from file:
     ~/pseudo/S.pw91-van_ak.UPF
     MD5 check sum: Not computed, couldn't open file
     Pseudo is Ultrasoft, Zval =  6.0
     Generated by new atomic code, or converted to UPF format
     Using radial grid of  811 points,  6 beta functions with:
                l(1) =   0
                l(2) =   0
                l(3) =   1
                l(4) =   1
                l(5) =   2
                l(6) =   2
     Q(r) pseudized with  8 coefficients,  rinner =    1.100   1.100   1.100
                                                       1.100   1.100

     atomic species   valence    mass     pseudopotential
        Mo             6.00    95.50000     Mo( 1.00)
        S              6.00    32.06500     S ( 1.00)

     No symmetry found

   Cartesian axes

     site n.     atom                  positions (alat units)
         1           Mo  tau(   1) = (   1.3330354   0.7862209   4.7606818  )
         2           Mo  tau(   2) = (   1.0638264   1.3254742   4.7569798  )
         3           Mo  tau(   3) = (   1.5793896   1.3383331   4.7593661  )
         4           Mo  tau(   4) = (   0.8229238   0.7774232   4.7562911  )
         5           Mo  tau(   5) = (   0.8064030   0.8017115   1.5065567  )
         6           Mo  tau(   6) = (   1.0614165   0.3523577   1.5059224  )
         7           Mo  tau(   7) = (   0.5587660   0.3486861   1.5040271  )
         8           Mo  tau(   8) = (   1.3050750   0.7994811   1.5054065  )
         9           Mo  tau(   9) = (   1.2311991   0.5363056   3.7172280  )
        10           Mo  tau(  10) = (   0.9718787   0.9860972   3.7220555  )
        11           Mo  tau(  11) = (   1.4771136   0.9824426   3.7203458  )
        12           Mo  tau(  12) = (   0.7280497   0.5347484   3.7184604  )
        13           S   tau(  13) = (   1.3246357   1.1159693   4.5402811  )
        14           S   tau(  14) = (   0.5740322   0.6923175   4.4962212  )
        15           S   tau(  15) = (   1.0745448   0.6965389   4.4867361  )
        16           S   tau(  16) = (   0.8150577   1.1162941   4.5401183  )
        17           S   tau(  17) = (   0.8132692   0.5093044   1.2647871  )
        18           S   tau(  18) = (   1.5604523   0.9612713   1.2654894  )
        19           S   tau(  19) = (   1.0580709   0.9582349   1.2598711  )
        20           S   tau(  20) = (   1.3131133   0.5117361   1.2588550  )
        21           S   tau(  21) = (   0.7260932   1.1374193   3.4757733  )
        22           S   tau(  22) = (   0.9794848   0.6911461   3.4767406  )
        23           S   tau(  23) = (   0.4818031   0.6899972   3.4740176  )
        24           S   tau(  24) = (   1.2246770   1.1364073   3.4800117  )
        25           S   tau(  25) = (   0.2350813   0.4620695  -0.0365783  )
        26           S   tau(  26) = (   0.4911402  -0.0142542   0.0318994  )
        27           S   tau(  27) = (   0.0062887  -0.0143237   0.0378086  )
        28           S   tau(  28) = (   0.7334102   0.4602716  -0.0243857  )
        29           S   tau(  29) = (   0.8062477   0.4965714   1.7485010  )
        30           S   tau(  30) = (   1.5523481   0.9480536   1.7481760  )
        31           S   tau(  31) = (   1.0530701   0.9474611   1.7518153  )
        32           S   tau(  32) = (   1.3070957   0.4967536   1.7515126  )
        33           S   tau(  33) = (   0.7210877   1.1407307   3.9679085  )
        34           S   tau(  34) = (   0.9787696   0.6867429   3.9603662  )
        35           S   tau(  35) = (   0.4785090   0.6863112   3.9635675  )
        36           S   tau(  36) = (   1.2241491   1.1374633   3.9674917  )

     number of k points=     5  Marzari-Vanderbilt smearing, width (Ry)=  0.0200
                       cart. coord. in units 2pi/alat
        k(    1) = (   0.0000000   0.0000000   0.0000000), wk =   0.2222222
        k(    2) = (   0.0000000   0.3706190  -0.0402018), wk =   0.4444444
        k(    3) = (   0.3333333  -0.1816866  -0.0032927), wk =   0.4444444
        k(    4) = (   0.3333333   0.1889325  -0.0434945), wk =   0.4444444
        k(    5) = (   0.3333333  -0.5523056   0.0369091), wk =   0.4444444

     Initial potential from superposition of free atoms

     starting charge  215.98107, renormalised to  216.00000

     negative rho (up, down):  3.766E-04 0.000E+00
     Starting wfcs are  204 randomized atomic wfcs

     Self-consistent Calculation

     iteration #  1     ecut=    45.00 Ry     beta= 0.70
     Davidson diagonalization with overlap
     ethr =  1.00E-02,  avg # of iterations =  2.0

     negative rho (up, down):  6.725E-06 0.000E+00

     total energy              =    -843.91557328 Ry
     Harris-Foulkes estimate   =    -846.63188498 Ry
     estimated scf accuracy    <       7.25053096 Ry

[...]

     iteration #  6     ecut=    45.00 Ry     beta= 0.70
     Davidson diagonalization with overlap
     c_bands:  3 eigenvalues not converged
     ethr =  9.79E-06,  avg # of iterations =  5.8

[...]

     total energy              =    -845.30182992 Ry
     Harris-Foulkes estimate   =    -845.30183022 Ry
     estimated scf accuracy    <       0.00000134 Ry

     iteration # 16     ecut=    45.00 Ry     beta= 0.70
     Davidson diagonalization with overlap
     ethr =  6.22E-10,  avg # of iterations =  2.8

[...]

     End of self-consistent calculation

          k = 0.0000 0.0000 0.0000 ( 40215 PWs)   bands (ev):

   -12.1784 -12.1098 -12.0849 -11.1631 -10.9179 -10.8398 -10.6778 -10.6047
   -10.5982 -10.5363 -10.5180 -10.4628 -10.4217 -10.3990 -10.3102 -10.3012
   -10.2172 -10.2156 -10.1639 -10.0987 -10.0874 -10.0317  -9.8949  -9.7845
    -4.0322  -4.0090  -3.9814  -3.8154  -3.7753  -3.7330  -3.7302  -3.7059
    -3.6894  -3.6569  -3.5496  -3.3442  -2.8608  -2.8368  -2.7642  -2.7559
    -2.7450  -2.7274  -2.7162  -2.6626  -2.5809  -2.4785  -2.2636  -2.1850
    -2.1612  -2.1338  -2.1092  -2.0878  -1.8388  -1.8020  -1.5750  -1.5021
    -1.4344  -1.3908  -1.3509  -1.2653  -1.2470  -1.1120  -1.0857  -1.0749
    -1.0391  -1.0306  -0.8714  -0.7251  -0.6661  -0.5434  -0.3572  -0.2459
    -0.1757  -0.0681  -0.0117  -0.0012   0.0343   0.0699   0.0815   0.1535
     0.1599   0.1773   0.1808   0.3531   0.3589   0.3827   0.4407   0.5361
     0.6243   0.6459   0.7214   0.7787   0.8643   0.9222   0.9990   1.0133
     1.0436   1.1161   1.1936   1.2510   1.2743   1.2753   1.3529   1.5664
     1.7593   1.9649   2.0331   2.0742   2.3858   2.5072   3.6074   3.6353
     3.6585   3.6706   3.6847   3.7238   3.7405   3.7414   3.9127   4.1162
     4.1955   4.2560   4.2696   4.2926   4.3349   4.3427   4.3464   4.3672
     4.4160   4.4506

[...]

          k = 0.3333-0.5523 0.0369 ( 40220 PWs)   bands (ev):

   -11.3241 -11.2505 -11.2277 -11.2000 -11.1939 -11.1919 -11.1733 -11.1057
   -11.0355 -10.8046 -10.6789 -10.5337 -10.4983 -10.4492 -10.4456 -10.4252
   -10.3699 -10.3031 -10.2301 -10.1776 -10.1202 -10.0379  -9.9670  -9.8223
    -3.4082  -3.3612  -3.3291  -3.3194  -3.2313  -3.0214  -3.0069  -2.9903
    -2.9590  -2.9236  -2.9140  -2.7508  -2.6334  -2.6211  -2.5394  -2.4278
    -2.3359  -2.1714  -2.1422  -2.0711  -2.0664  -2.0365  -2.0121  -1.9954
    -1.9790  -1.9338  -1.9278  -1.9050  -1.8423  -1.8172  -1.7834  -1.7552
    -1.7260  -1.6932  -1.6874  -1.6803  -1.6658  -1.6419  -1.5034  -1.3968
    -1.3151  -1.2834  -1.2614  -1.2276  -1.2063  -1.1798  -1.1640  -1.0086
    -0.9254  -0.7280  -0.6353  -0.4516  -0.3498  -0.2844  -0.2305  -0.1960
    -0.1914  -0.1857  -0.1856  -0.1748  -0.1058  -0.0383   0.0855   0.2113
     0.4824   0.6900   0.7255   0.7324   0.7738   0.8032   0.8516   0.9627
     0.9928   1.0081   1.0515   1.0879   1.1159   1.1185   1.1356   1.3045
     1.4079   1.4804   1.6998   1.7741   2.2725   2.6261   3.0904   3.1787
     3.2587   3.5770   3.6407   3.6602   3.6683   3.7047   3.7573   3.7644
     3.9399   4.0184   4.0242   4.0890   4.0961   4.1530   4.1669   4.2236
     4.2963   4.3229

     the Fermi energy is     1.9881 ev

!    total energy              =    -845.30183005 Ry
     Harris-Foulkes estimate   =    -845.30183009 Ry
     estimated scf accuracy    <       0.00000081 Ry

     The total energy is the sum of the following terms:

     one-electron contribution =   -3025.02047050 Ry
     hartree contribution      =    1600.07030226 Ry
     xc contribution           =    -334.07852298 Ry
     ewald contribution        =     913.70993322 Ry
     smearing contrib. (-TS)   =       0.01692795 Ry

     convergence has been achieved in  16 iterations

     negative rho (up, down):  5.662E-04 0.000E+00

     Forces acting on atoms (cartesian axes, Ry/au):

     atom    1 type  1   force =    -0.03355990    0.04186904   -0.05747239
     atom    2 type  1   force =     0.04626833   -0.02904841    0.02597524
     atom    3 type  1   force =    -0.01827795   -0.05281000    0.03980908
     atom    4 type  1   force =     0.02926494    0.06479358   -0.05650763
     atom    5 type  1   force =     0.00353589   -0.00116345    0.00092311
     atom    6 type  1   force =     0.00154726    0.00303535    0.00112227
     atom    7 type  1   force =     0.00619658    0.01387658    0.00713716
     atom    8 type  1   force =     0.00530876    0.01127319    0.00220306
     atom    9 type  1   force =    -0.00510198    0.00004875    0.00724126
     atom   10 type  1   force =     0.01511533    0.00566279    0.00857065
     atom   11 type  1   force =    -0.00925599    0.02074974    0.01063220
     atom   12 type  1   force =     0.01264469    0.00287850    0.00929276
     atom   13 type  2   force =     0.00169153    0.02160273    0.01028407
     atom   14 type  2   force =     0.00185366    0.00426126   -0.05427160
     atom   15 type  2   force =     0.00986799    0.00827830    0.00231920
     atom   16 type  2   force =     0.01203021    0.01710463    0.00091743
     atom   17 type  2   force =    -0.00977570   -0.01379690   -0.01386461
     atom   18 type  2   force =    -0.01311413   -0.01946237   -0.01650018
     atom   19 type  2   force =    -0.00725814   -0.01687407   -0.00216981
     atom   20 type  2   force =    -0.00777532   -0.02109994    0.00037362
     atom   21 type  2   force =    -0.00621407   -0.00105902   -0.00607903
     atom   22 type  2   force =    -0.00433983   -0.00575382   -0.00949963
     atom   23 type  2   force =    -0.00512225   -0.00657745   -0.00808958
     atom   24 type  2   force =    -0.00242653   -0.00437209   -0.01236112
     atom   25 type  2   force =     0.00262716   -0.01336741    0.03948688
     atom   26 type  2   force =    -0.00081782   -0.02201057    0.02815145
     atom   27 type  2   force =    -0.04027515   -0.01132011    0.03048989
     atom   28 type  2   force =    -0.00519046   -0.03013804    0.00698865
     atom   29 type  2   force =     0.00377353    0.01226216    0.00786134
     atom   30 type  2   force =     0.00420789    0.01047665    0.01171300
     atom   31 type  2   force =     0.00496655    0.00931119    0.00001966
     atom   32 type  2   force =     0.00789447    0.01235080    0.00004974
     atom   33 type  2   force =     0.00384220   -0.00483071   -0.00902633
     atom   34 type  2   force =    -0.00331075   -0.00090136    0.00465562
     atom   35 type  2   force =     0.00026006   -0.00130370   -0.00062382
     atom   36 type  2   force =    -0.00108107   -0.00394582   -0.00975159

     Total force =     0.197904     Total SCF correction =     0.002506

     General routines

     Parallel routines

   This run was terminated on:  11: 6:30  14Oct2021

   JOB DONE.