     Program PWSCF v.6.4 starts on 23Dec2021 at 23:47:31

     R & G space division:  proc/nbgrp/npool/nimage =      40
     Waiting for input...
     Reading input from standard input
Warning: card    &IONS ignored
Warning: card      ION_DYNAMICS = 'BFGS' ignored
Warning: card   / ignored
Warning: card    &CELL ignored
Warning: card      CELL_DYNAMICS = 'BFGS', ignored
Warning: card    / ignored

     Current dimensions of program PWSCF are:
     Max number of different atomic species (ntypx) = 10
     Max number of k-points (npk) =  40000
     Max angular momentum in pseudopotentials (lmaxx) =  3

     bravais-lattice index     =            0
     lattice parameter (alat)  =      11.9706  a.u.
     unit-cell volume          =   21438.8360 (a.u.)^3
     number of atoms/cell      =           21
     number of atomic types    =            2
     number of electrons       =       126.00
     number of Kohn-Sham states=           76
     kinetic-energy cutoff     =      45.0000  Ry
     charge density cutoff     =     360.0000  Ry
     convergence threshold     =      1.0E-06
     mixing beta               =       0.7000
     number of iterations used =            8  local-TF  mixing
     Exchange-correlation      = SLA PW GGX GGC ( 1  4  2  2 0 0)

     celldm(1)=  11.970561  celldm(2)=   0.000000  celldm(3)=   0.000000
     celldm(4)=   0.000000  celldm(5)=   0.000000  celldm(6)=   0.000000

     crystal axes: (cart. coord. in units of alat)
               a(1) = (   1.000000   0.000000   0.000000 )
               a(2) = (  -0.023794   1.765035   0.000000 )
               a(3) = (  -0.410340  -0.748004   7.081161 )

     reciprocal axes: (cart. coord. in units 2 pi/alat)
               b(1) = (  1.000000  0.013481  0.059372 )
               b(2) = (  0.000000  0.566561  0.059848 )
               b(3) = (  0.000000  0.000000  0.141220 )

     PseudoPot. # 1 for Mo read from file:
     ~/pseudo/Mo.pw91-n-van.UPF
     MD5 check sum: Not computed, couldn't open file
     Pseudo is Ultrasoft + core correction, Zval =  6.0
     Generated by new atomic code, or converted to UPF format
     Using radial grid of  965 points,  3 beta functions with:
                l(1) =   1
                l(2) =   2
                l(3) =   2
     Q(r) pseudized with  8 coefficients,  rinner =    1.000   1.000   1.000
                                                       1.200   1.200

     PseudoPot. # 2 for S  read from file:
     ~/pseudo/S.pw91-van_ak.UPF
     MD5 check sum: Not computed, couldn't open file
     Pseudo is Ultrasoft, Zval =  6.0
     Generated by new atomic code, or converted to UPF format
     Using radial grid of  811 points,  6 beta functions with:
                l(1) =   0
                l(2) =   0
                l(3) =   1
                l(4) =   1
                l(5) =   2
                l(6) =   2
     Q(r) pseudized with  8 coefficients,  rinner =    1.100   1.100   1.100
                                                       1.100   1.100

     atomic species   valence    mass     pseudopotential
        Mo             6.00    95.50000     Mo( 1.00)
        S              6.00    32.06500     S ( 1.00)

     No symmetry found

   Cartesian axes

     site n.     atom                  positions (alat units)
         1           Mo  tau(   1) = (   0.3410125   0.2347016   2.7197071  )
         2           Mo  tau(   2) = (   0.5875540  -0.2057458   2.6923556  )
         3           Mo  tau(   3) = (   0.5665208   0.6678834   2.7628393  )
         4           Mo  tau(   4) = (   0.1151178   0.6799271   2.7552495  )
         5           Mo  tau(   5) = (  -0.1576217   0.2368167   2.7229728  )
         6           Mo  tau(   6) = (   0.0936007  -0.2048437   2.6901141  )
         7           Mo  tau(   7) = (   0.3396362   1.1300207   2.6795194  )
         8           S   tau(   8) = (   0.3576949   0.9123822   2.9811365  )
         9           S   tau(   9) = (   0.3205327   1.4234174   2.4257285  )
        10           S   tau(  10) = (   0.3441655   0.5446715   2.4863187  )
        11           S   tau(  11) = (   0.8143712   1.4130874   2.4425885  )
        12           S   tau(  12) = (   0.5934189   0.1030575   2.4596487  )
        13           S   tau(  13) = (   0.0897975   0.1037830   2.4592970  )
        14           S   tau(  14) = (   0.3154009   1.3982459   2.9393639  )
        15           S   tau(  15) = (  -0.1553883   0.5235382   2.9868549  )
        16           S   tau(  16) = (   0.0575113   0.9738396   2.5169273  )
        17           S   tau(  17) = (  -0.1859123   1.3832539   2.9206576  )
        18           S   tau(  18) = (   0.3426000   0.4812109   3.0157631  )
        19           S   tau(  19) = (   0.5942083   0.0691247   2.9633526  )
        20           S   tau(  20) = (   0.8347332   0.5530957   2.4986426  )
        21           S   tau(  21) = (   0.0898605   0.0684419   2.9624273  )

     number of k points=     4  Marzari-Vanderbilt smearing, width (Ry)=  0.0200
                       cart. coord. in units 2pi/alat
        k(    1) = (   0.0000000   0.0000000   0.0000000), wk =   0.3333333
        k(    2) = (   0.0000000  -0.2832806  -0.0299238), wk =   0.3333333
        k(    3) = (   0.3333333   0.0044937   0.0197907), wk =   0.6666667
        k(    4) = (   0.3333333  -0.2787869  -0.0101330), wk =   0.6666667

     Initial potential from superposition of free atoms

     starting charge  125.98896, renormalised to  126.00000

     negative rho (up, down):  3.686E-03 0.000E+00
     Starting wfcs are  119 randomized atomic wfcs

     Self-consistent Calculation

     iteration #  1     ecut=    45.00 Ry     beta= 0.70
     Davidson diagonalization with overlap
     ethr =  1.00E-02,  avg # of iterations =  2.0

     negative rho (up, down):  2.395E-03 0.000E+00

     total energy              =    -491.81565116 Ry
     Harris-Foulkes estimate   =    -493.59639464 Ry
     estimated scf accuracy    <       4.79753956 Ry

[...]

     total energy              =    -492.72786122 Ry
     Harris-Foulkes estimate   =    -492.72786072 Ry
     estimated scf accuracy    <       0.00000154 Ry

     iteration # 22     ecut=    45.00 Ry     beta= 0.70
     Davidson diagonalization with overlap
     ethr =  1.23E-09,  avg # of iterations =  3.8

[...]

     End of self-consistent calculation

          k = 0.0000 0.0000 0.0000 (109297 PWs)   bands (ev):

   -18.1388 -17.4546 -17.2355 -17.0973 -16.8108 -16.6475 -16.5299 -16.4859
   -16.4452 -16.3306 -16.2230 -16.0262 -15.8670 -15.4275  -9.8669  -9.7040
    -9.6479  -9.5376  -9.0719  -9.0293  -9.0048  -8.9104  -8.8915  -8.7246
    -8.6124  -8.4953  -8.2985  -8.0911  -8.0567  -7.9612  -7.8425  -7.6669
    -7.5354  -7.4731  -7.3776  -7.2759  -7.0386  -6.9901  -6.8955  -6.8475
    -6.5776  -6.4973  -6.3912  -6.3278  -6.2283  -6.1566  -6.0486  -5.9466
    -5.7725  -5.7348  -5.6663  -5.6432  -5.5344  -5.3563  -5.1823  -5.1090
    -4.9472  -4.8411  -4.5742  -4.4684  -4.3866  -4.1058  -3.9887  -3.7553
    -3.5078  -3.2281  -2.9456  -2.5124  -2.2841  -2.2286  -2.0886  -2.0548
    -1.9867  -1.8523  -1.7753  -1.7372

[...]

          k = 0.3333-0.2788-0.0101 (109251 PWs)   bands (ev):

   -17.8297 -17.5421 -17.1580 -17.0374 -16.8392 -16.7183 -16.6127 -16.5778
   -16.4512 -16.3736 -16.2646 -16.1030 -15.9792 -15.4642  -9.5359  -9.3586
    -9.2496  -9.2046  -9.1651  -9.0258  -8.9021  -8.7806  -8.7424  -8.5640
    -8.4752  -8.2114  -8.0653  -8.0229  -7.9597  -7.8670  -7.7777  -7.6652
    -7.5672  -7.4445  -7.3716  -7.3273  -7.2586  -7.1556  -7.0933  -6.9738
    -6.8575  -6.7119  -6.6239  -6.5745  -6.4580  -6.3084  -6.2335  -6.0857
    -5.9661  -5.9524  -5.9038  -5.6266  -5.5635  -5.4404  -5.2737  -5.1685
    -4.9475  -4.8305  -4.7583  -4.4991  -4.3077  -4.2378  -3.9435  -3.7857
    -3.5786  -3.1981  -2.6941  -2.6092  -2.4785  -2.2850  -2.1977  -2.1544
    -2.0922  -1.9699  -1.9404  -1.8883

     the Fermi energy is    -3.8633 ev

!    total energy              =    -492.72785767 Ry
     Harris-Foulkes estimate   =    -492.72786146 Ry
     estimated scf accuracy    <       0.00000036 Ry

     The total energy is the sum of the following terms:

     one-electron contribution =   -8844.20409429 Ry
     hartree contribution      =    4445.19681341 Ry
     xc contribution           =    -194.34838417 Ry
     ewald contribution        =    4100.62576564 Ry
     smearing contrib. (-TS)   =       0.00204173 Ry

     convergence has been achieved in  22 iterations

     negative rho (up, down):  4.967E-03 0.000E+00

     Forces acting on atoms (cartesian axes, Ry/au):

     atom    1 type  1   force =     0.00377889   -0.00402016    0.01773622
     atom    2 type  1   force =     0.03151827    0.00252894    0.00616584
     atom    3 type  1   force =    -0.01362049   -0.01655570    0.00746535
     atom    4 type  1   force =     0.00553723   -0.02874195   -0.02335222
     atom    5 type  1   force =    -0.00062450   -0.00458156   -0.01099792
     atom    6 type  1   force =    -0.02450841   -0.02816921   -0.00397674
     atom    7 type  1   force =    -0.01466109   -0.02579113   -0.03687585
     atom    8 type  2   force =     0.02253843    0.00503824    0.01944885
     atom    9 type  2   force =    -0.00112447   -0.00220268    0.01703320
     atom   10 type  2   force =    -0.00501046    0.00173288    0.01393057
     atom   11 type  2   force =    -0.00247152    0.00474207    0.00054231
     atom   12 type  2   force =     0.00005728    0.00317280    0.00877878
     atom   13 type  2   force =    -0.00258907    0.00414927    0.00789555
     atom   14 type  2   force =    -0.00457304    0.00588393    0.00446879
     atom   15 type  2   force =     0.00020276    0.01831216    0.00902389
     atom   16 type  2   force =    -0.00005282    0.01892091    0.01297018
     atom   17 type  2   force =     0.00265387    0.01037851   -0.00900418
     atom   18 type  2   force =    -0.00324822    0.01064828   -0.03392073
     atom   19 type  2   force =    -0.00306008    0.00517080   -0.01381927
     atom   20 type  2   force =     0.00680078    0.01762328    0.01610072
     atom   21 type  2   force =     0.00245666    0.00176034   -0.00961337

     Total force =     0.110265     Total SCF correction =     0.000723

     General routines

     Parallel routines

   This run was terminated on:  23:54: 5  23Dec2021

   JOB DONE.