     Program PWSCF v.6.4 starts on 12Aug2021 at 13:53:19

     R & G space division:  proc/nbgrp/npool/nimage =      40
     Waiting for input...
     Reading input from standard input
Warning: card    &IONS ignored
Warning: card      ION_DYNAMICS = 'BFGS' ignored
Warning: card   / ignored
Warning: card    &CELL ignored
Warning: card      CELL_DYNAMICS = 'BFGS', ignored
Warning: card    / ignored

     Current dimensions of program PWSCF are:
     Max number of different atomic species (ntypx) = 10
     Max number of k-points (npk) =  40000
     Max angular momentum in pseudopotentials (lmaxx) =  3

     bravais-lattice index     =            0
     lattice parameter (alat)  =       6.5535  a.u.
     unit-cell volume          =    3544.9790 (a.u.)^3
     number of atoms/cell      =           15
     number of atomic types    =            2
     number of electrons       =        90.00
     number of Kohn-Sham states=           54
     kinetic-energy cutoff     =      45.0000  Ry
     charge density cutoff     =     360.0000  Ry
     convergence threshold     =      1.0E-06
     mixing beta               =       0.7000
     number of iterations used =            8  local-TF  mixing
     Exchange-correlation      = SLA PW GGX GGC ( 1  4  2  2 0 0)

     celldm(1)=   6.553549  celldm(2)=   0.000000  celldm(3)=   0.000000
     celldm(4)=   0.000000  celldm(5)=   0.000000  celldm(6)=   0.000000

     crystal axes: (cart. coord. in units of alat)
               a(1) = (   0.999999   0.001006  -0.000778 )
               a(2) = (  -0.001662   3.513462   0.042889 )
               a(3) = (  -0.226068  -0.254762   3.581737 )

     reciprocal axes: (cart. coord. in units 2 pi/alat)
               b(1) = (  1.000050 -0.000297  0.063099 )
               b(2) = ( -0.000270  0.284373  0.020210 )
               b(3) = (  0.000220 -0.003405  0.278966 )

     PseudoPot. # 1 for Mo read from file:
     ~/pseudo/Mo.pw91-n-van.UPF
     MD5 check sum: Not computed, couldn't open file
     Pseudo is Ultrasoft + core correction, Zval =  6.0
     Generated by new atomic code, or converted to UPF format
     Using radial grid of  965 points,  3 beta functions with:
                l(1) =   1
                l(2) =   2
                l(3) =   2
     Q(r) pseudized with  8 coefficients,  rinner =    1.000   1.000   1.000
                                                       1.200   1.200

     PseudoPot. # 2 for S  read from file:
     ~/pseudo/S.pw91-van_ak.UPF
     MD5 check sum: Not computed, couldn't open file
     Pseudo is Ultrasoft, Zval =  6.0
     Generated by new atomic code, or converted to UPF format
     Using radial grid of  811 points,  6 beta functions with:
                l(1) =   0
                l(2) =   0
                l(3) =   1
                l(4) =   1
                l(5) =   2
                l(6) =   2
     Q(r) pseudized with  8 coefficients,  rinner =    1.100   1.100   1.100
                                                       1.100   1.100

     atomic species   valence    mass     pseudopotential
        Mo             6.00    95.50000     Mo( 1.00)
        S              6.00    32.06500     S ( 1.00)

     No symmetry found

   Cartesian axes

     site n.     atom                  positions (alat units)
         1           Mo  tau(   1) = (   0.0611963   2.7385080   0.3201679  )
         2           Mo  tau(   2) = (   0.0608395   1.0738911   0.1426010  )
         3           Mo  tau(   3) = (   0.5615266   0.0721777   0.2950456  )
         4           Mo  tau(   4) = (   0.5816560   0.9982477   1.2694562  )
         5           Mo  tau(   5) = (   0.5580251   1.9734872   0.9092813  )
         6           S   tau(   6) = (   0.3355096   2.7720615   3.4841421  )
         7           S   tau(   7) = (   0.0608002   3.3274860   0.7647186  )
         8           S   tau(   8) = (   0.3362953   1.0642481   3.3293359  )
         9           S   tau(   9) = (   0.0808938   0.6666732   1.5764557  )
        10           S   tau(  10) = (   0.5666552   1.6286382   1.5116356  )
        11           S   tau(  11) = (  -0.1614518   0.1468092   3.4499461  )
        12           S   tau(  12) = (   0.0587370   2.4609214   1.0223189  )
        13           S   tau(  13) = (   0.5679357   0.7598349   0.6170842  )
        14           S   tau(  14) = (   0.5606520   2.2309959   0.1886417  )
        15           S   tau(  15) = (   0.0600224   1.5337650   0.6455161  )

     number of k points=    12  Marzari-Vanderbilt smearing, width (Ry)=  0.0200
                       cart. coord. in units 2pi/alat
        k(    1) = (   0.0000000   0.0000000   0.0000000), wk =   0.1000000
        k(    2) = (  -0.0001102   0.0017026  -0.1394829), wk =   0.1000000
        k(    3) = (   0.0001351  -0.1421864  -0.0101049), wk =   0.1000000
        k(    4) = (   0.0000249  -0.1404837  -0.1495878), wk =   0.1000000
        k(    5) = (   0.2000100  -0.0000594   0.0126198), wk =   0.2000000
        k(    6) = (   0.1998998   0.0016432  -0.1268631), wk =   0.2000000
        k(    7) = (   0.2001452  -0.1422458   0.0025149), wk =   0.2000000
        k(    8) = (   0.2000350  -0.1405432  -0.1369681), wk =   0.2000000
        k(    9) = (   0.4000201  -0.0001189   0.0252396), wk =   0.2000000
        k(   10) = (   0.3999099   0.0015837  -0.1142434), wk =   0.2000000
        k(   11) = (   0.4001552  -0.1423053   0.0151346), wk =   0.2000000
        k(   12) = (   0.4000450  -0.1406026  -0.1243483), wk =   0.2000000

     Initial potential from superposition of free atoms

     starting charge   89.99211, renormalised to   90.00000

     negative rho (up, down):  8.878E-06 0.000E+00
     Starting wfcs are   85 randomized atomic wfcs

     Self-consistent Calculation

     iteration #  1     ecut=    45.00 Ry     beta= 0.70
     Davidson diagonalization with overlap
     ethr =  1.00E-02,  avg # of iterations =  2.0

     negative rho (up, down):  3.071E-06 0.000E+00

     total energy              =    -350.96145900 Ry
     Harris-Foulkes estimate   =    -352.44570864 Ry
     estimated scf accuracy    <       3.94696305 Ry

[...]

     total energy              =    -351.76444400 Ry
     Harris-Foulkes estimate   =    -351.76444212 Ry
     estimated scf accuracy    <       0.00000345 Ry

     iteration # 14     ecut=    45.00 Ry     beta= 0.70
     Davidson diagonalization with overlap
     ethr =  3.83E-09,  avg # of iterations =  3.7

[...]

     End of self-consistent calculation

          k = 0.0000 0.0000 0.0000 ( 17997 PWs)   bands (ev):

   -12.2082 -11.7484 -11.5101 -11.2400 -10.9672 -10.7598 -10.6851 -10.6698
   -10.5940 -10.4566  -4.1041  -3.5317  -3.4071  -3.0199  -2.8894  -2.8088
    -2.4261  -2.3807  -2.2783  -2.1806  -2.1165  -1.9910  -1.9705  -1.7971
    -1.6527  -1.5631  -1.4904  -1.4178  -1.0288  -0.8253  -0.7927  -0.5221
    -0.3175  -0.1066  -0.0908   0.1460   0.2576   0.3910   0.6655   0.7612
     1.1189   1.3770   1.6041   1.6118   1.6593   1.8704   1.9817   2.1273
     2.2156   2.5987   2.7130   3.0493   3.1338   3.4779

          k =-0.0001 0.0017-0.1395 ( 17992 PWs)   bands (ev):

[...]

          k = 0.4000-0.1406-0.1243 ( 18116 PWs)   bands (ev):

   -11.2817 -11.2283 -10.9963 -10.9264 -10.6511 -10.5541 -10.4856 -10.4280
   -10.3353 -10.3076  -3.8300  -3.6029  -3.4656  -3.1891  -3.0843  -2.9781
    -2.7700  -2.6099  -2.5296  -2.4101  -2.3352  -2.2344  -2.1820  -1.9496
    -1.8241  -1.6142  -1.5814  -1.4984  -1.3947  -1.2696  -1.0546  -0.9992
    -0.9020  -0.7952  -0.6341  -0.4424  -0.2877  -0.1868   0.0444   0.3342
     0.9212   1.1892   1.4110   1.6866   1.8182   2.1032   2.1885   2.3114
     2.4959   2.5840   2.7304   2.7805   2.9528   3.0391

     the Fermi energy is     1.8619 ev

!    total energy              =    -351.76444476 Ry
     Harris-Foulkes estimate   =    -351.76444454 Ry
     estimated scf accuracy    <       0.00000051 Ry

     The total energy is the sum of the following terms:

     one-electron contribution =    -530.45287819 Ry
     hartree contribution      =     300.32594589 Ry
     xc contribution           =    -138.18767060 Ry
     ewald contribution        =      16.54847041 Ry
     smearing contrib. (-TS)   =       0.00168772 Ry

     convergence has been achieved in  14 iterations

     negative rho (up, down):  3.897E-05 0.000E+00

     Forces acting on atoms (cartesian axes, Ry/au):

     atom    1 type  1   force =    -0.00035961    0.01924625    0.00902727
     atom    2 type  1   force =     0.00143514   -0.01682490   -0.00747998
     atom    3 type  1   force =    -0.00043559   -0.03121833   -0.02149636
     atom    4 type  1   force =    -0.00574387    0.02373089   -0.00722324
     atom    5 type  1   force =     0.00192644   -0.00349601   -0.00152032
     atom    6 type  2   force =    -0.00055676    0.01700135    0.01515383
     atom    7 type  2   force =     0.00077545   -0.00144138   -0.00931532
     atom    8 type  2   force =     0.00026079   -0.00307664    0.01353469
     atom    9 type  2   force =     0.00140729    0.01788705   -0.01482446
     atom   10 type  2   force =     0.00106349   -0.00469742   -0.02285718
     atom   11 type  2   force =    -0.00062444   -0.00162256    0.03099130
     atom   12 type  2   force =     0.00009372   -0.01414238   -0.01215677
     atom   13 type  2   force =     0.00011718   -0.01586091   -0.01397340
     atom   14 type  2   force =     0.00028702    0.01638661    0.02985937
     atom   15 type  2   force =     0.00035375   -0.00187162    0.01228059

     Total force =     0.088644     Total SCF correction =     0.001263

     General routines

     Parallel routines

   This run was terminated on:  13:54: 4  12Aug2021

   JOB DONE.