     Program PWSCF v.6.4 starts on 10Nov2021 at 18: 6:50

     R & G space division:  proc/nbgrp/npool/nimage =      40
     Waiting for input...
     Reading input from standard input
Warning: card    &IONS ignored
Warning: card      ION_DYNAMICS = 'BFGS' ignored
Warning: card   / ignored
Warning: card    &CELL ignored
Warning: card      CELL_DYNAMICS = 'BFGS', ignored
Warning: card    / ignored

     Current dimensions of program PWSCF are:
     Max number of different atomic species (ntypx) = 10
     Max number of k-points (npk) =  40000
     Max angular momentum in pseudopotentials (lmaxx) =  3

     bravais-lattice index     =            0
     lattice parameter (alat)  =       6.0948  a.u.
     unit-cell volume          =    2526.8672 (a.u.)^3
     number of atoms/cell      =           12
     number of atomic types    =            2
     number of electrons       =        72.00
     number of Kohn-Sham states=           43
     kinetic-energy cutoff     =      45.0000  Ry
     charge density cutoff     =     360.0000  Ry
     convergence threshold     =      1.0E-06
     mixing beta               =       0.7000
     number of iterations used =            8  local-TF  mixing
     Exchange-correlation      = SLA PW GGX GGC ( 1  4  2  2 0 0)

     celldm(1)=   6.094798  celldm(2)=   0.000000  celldm(3)=   0.000000
     celldm(4)=   0.000000  celldm(5)=   0.000000  celldm(6)=   0.000000

     crystal axes: (cart. coord. in units of alat)
               a(1) = (   1.000000   0.000000   0.000000 )
               a(2) = (  -0.499481   0.862614   0.000000 )
               a(3) = (  -1.446051  -0.592333  12.938619 )

     reciprocal axes: (cart. coord. in units 2 pi/alat)
               b(1) = (  1.000000  0.579032  0.138271 )
               b(2) = (  0.000000  1.159267  0.053072 )
               b(3) = (  0.000000  0.000000  0.077288 )

     PseudoPot. # 1 for Mo read from file:
     ~/pseudo/Mo.pw91-n-van.UPF
     MD5 check sum: Not computed, couldn't open file
     Pseudo is Ultrasoft + core correction, Zval =  6.0
     Generated by new atomic code, or converted to UPF format
     Using radial grid of  965 points,  3 beta functions with:
                l(1) =   1
                l(2) =   2
                l(3) =   2
     Q(r) pseudized with  8 coefficients,  rinner =    1.000   1.000   1.000
                                                       1.200   1.200

     PseudoPot. # 2 for S  read from file:
     ~/pseudo/S.pw91-van_ak.UPF
     MD5 check sum: Not computed, couldn't open file
     Pseudo is Ultrasoft, Zval =  6.0
     Generated by new atomic code, or converted to UPF format
     Using radial grid of  811 points,  6 beta functions with:
                l(1) =   0
                l(2) =   0
                l(3) =   1
                l(4) =   1
                l(5) =   2
                l(6) =   2
     Q(r) pseudized with  8 coefficients,  rinner =    1.100   1.100   1.100
                                                       1.100   1.100

     atomic species   valence    mass     pseudopotential
        Mo             6.00    95.50000     Mo( 1.00)
        S              6.00    32.06500     S ( 1.00)

     No symmetry found

   Cartesian axes

     site n.     atom                  positions (alat units)
         1           Mo  tau(   1) = (   1.0607111   0.0704795   1.2607833  )
         2           Mo  tau(   2) = (  -0.9862674   0.4072666   8.8969233  )
         3           Mo  tau(   3) = (  -0.1686375   0.1931485   3.9097128  )
         4           Mo  tau(   4) = (  -0.7968316  -0.1304498  11.8098126  )
         5           S   tau(   5) = (   0.0602373   0.6458339   0.7706356  )
         6           S   tau(   6) = (  -1.4843009   0.1256194   8.4062954  )
         7           S   tau(   7) = (  -0.6703654   0.4822986   3.4196436  )
         8           S   tau(   8) = (  -1.3006349   0.1579940  11.3200116  )
         9           S   tau(   9) = (   0.5606711  -0.2165726   1.7503704  )
        10           S   tau(  10) = (  -1.4891113   0.1144207   9.3873085  )
        11           S   tau(  11) = (  -0.6661098   0.4784770   4.4005565  )
        12           S   tau(  12) = (  -1.2923933   0.1560987  12.2996398  )

     number of k points=    20  Marzari-Vanderbilt smearing, width (Ry)=  0.0200
                       cart. coord. in units 2pi/alat
        k(    1) = (   0.0000000   0.0000000   0.0000000), wk =   0.0555556
        k(    2) = (   0.0000000   0.1932112   0.0088453), wk =   0.1111111
        k(    3) = (   0.0000000   0.3864224   0.0176905), wk =   0.1111111
        k(    4) = (   0.0000000  -0.5796336  -0.0265358), wk =   0.0555556
        k(    5) = (   0.1666667   0.0965053   0.0230451), wk =   0.1111111
        k(    6) = (   0.1666667   0.2897165   0.0318904), wk =   0.1111111
        k(    7) = (   0.1666667   0.4829277   0.0407356), wk =   0.1111111
        k(    8) = (   0.1666667  -0.4831283  -0.0034907), wk =   0.1111111
        k(    9) = (   0.1666667  -0.2899171   0.0053546), wk =   0.1111111
        k(   10) = (   0.1666667  -0.0967059   0.0141998), wk =   0.1111111
        k(   11) = (   0.3333333   0.1930106   0.0460902), wk =   0.1111111
        k(   12) = (   0.3333333   0.3862219   0.0549354), wk =   0.1111111
        k(   13) = (   0.3333333   0.5794331   0.0637807), wk =   0.1111111
        k(   14) = (   0.3333333  -0.3866230   0.0195544), wk =   0.1111111
        k(   15) = (   0.3333333  -0.1934118   0.0283997), wk =   0.1111111
        k(   16) = (   0.3333333  -0.0002006   0.0372449), wk =   0.1111111
        k(   17) = (  -0.5000000  -0.2895160  -0.0691353), wk =   0.0555556
        k(   18) = (  -0.5000000  -0.0963048  -0.0602900), wk =   0.1111111
        k(   19) = (  -0.5000000   0.0969064  -0.0514448), wk =   0.1111111
        k(   20) = (  -0.5000000  -0.8691496  -0.0956711), wk =   0.0555556

     Initial potential from superposition of free atoms

     starting charge   71.99369, renormalised to   72.00000

     negative rho (up, down):  1.480E-04 0.000E+00
     Starting wfcs are   68 randomized atomic wfcs

     Self-consistent Calculation

     iteration #  1     ecut=    45.00 Ry     beta= 0.70
     Davidson diagonalization with overlap
     ethr =  1.00E-02,  avg # of iterations =  2.0

     negative rho (up, down):  6.194E-06 0.000E+00

     total energy              =    -281.40159703 Ry
     Harris-Foulkes estimate   =    -282.28738761 Ry
     estimated scf accuracy    <       2.26832179 Ry

[...]

     total energy              =    -281.84668849 Ry
     Harris-Foulkes estimate   =    -281.84668827 Ry
     estimated scf accuracy    <       0.00000152 Ry

     iteration # 17     ecut=    45.00 Ry     beta= 0.70
     Davidson diagonalization with overlap
     ethr =  2.12E-09,  avg # of iterations =  2.1

[...]

     End of self-consistent calculation

          k = 0.0000 0.0000 0.0000 ( 13031 PWs)   bands (ev):

   -11.8508 -11.8449 -11.8257 -11.8224 -10.6617 -10.6511 -10.6405 -10.6378
    -3.3569  -3.3089  -3.3029  -3.2955  -0.4720  -0.4699  -0.4450  -0.4420
    -0.4290  -0.4285  -0.4039  -0.4020   0.3370   0.4570   0.4690   0.5684
     0.6513   0.6563   0.6720   0.6760   0.6768   0.6794   0.6984   0.7010
     2.0323   2.1097   2.1206   2.1916   4.8093   4.8158   4.8230   4.8279
     4.8392   4.8472   4.8513

[...]

          k = 0.3333-0.0002 0.0372 ( 12912 PWs)   bands (ev):

[...]

          k =-0.5000-0.2895-0.0691 ( 12776 PWs)   bands (ev):

[...]

          k =-0.5000-0.8691-0.0957 ( 12784 PWs)   bands (ev):

   -10.1242 -10.1198 -10.0997 -10.0964  -9.8585  -9.8533  -9.8371  -9.8343
    -3.4823  -3.4766  -3.4588  -3.4559  -2.5358  -2.5312  -2.5158  -2.5125
    -1.8683  -1.8386  -1.8316  -1.8299  -0.9534  -0.9511  -0.9284  -0.9236
     0.2551   0.2969   0.2989   0.3154   1.1971   1.1995   1.2196   1.2241
     1.4644   1.4946   1.4956   1.4979   4.1363   4.1380   4.1522   4.1548
     4.6505   4.6651   4.6735

     the Fermi energy is     2.2017 ev

!    total energy              =    -281.84668875 Ry
     Harris-Foulkes estimate   =    -281.84668858 Ry
     estimated scf accuracy    <       0.00000065 Ry

     The total energy is the sum of the following terms:

     one-electron contribution =   -1329.66293439 Ry
     hartree contribution      =     694.88002204 Ry
     xc contribution           =    -111.34801087 Ry
     ewald contribution        =     464.27616176 Ry
     smearing contrib. (-TS)   =       0.00807271 Ry

     convergence has been achieved in  17 iterations

     negative rho (up, down):  2.155E-04 0.000E+00

     Forces acting on atoms (cartesian axes, Ry/au):

     atom    1 type  1   force =    -0.00117391   -0.00002557   -0.00024354
     atom    2 type  1   force =    -0.00096835   -0.00024274   -0.00089385
     atom    3 type  1   force =     0.00047684   -0.00005475    0.00123306
     atom    4 type  1   force =     0.00036625    0.00083603   -0.00032535
     atom    5 type  2   force =     0.00113447   -0.00018694    0.00175806
     atom    6 type  2   force =    -0.00202335   -0.00640807    0.00262115
     atom    7 type  2   force =     0.00223053   -0.00228291    0.00159340
     atom    8 type  2   force =     0.00460322   -0.00109606    0.00075192
     atom    9 type  2   force =     0.00035027   -0.00011305   -0.00029212
     atom   10 type  2   force =     0.00276650    0.00699335   -0.00201635
     atom   11 type  2   force =    -0.00268248    0.00174373   -0.00312945
     atom   12 type  2   force =    -0.00507998    0.00083698   -0.00105693

     Total force =     0.014372     Total SCF correction =     0.002426
     SCF correction compared to forces is large: reduce conv_thr to get better values

     General routines

     Parallel routines

   This run was terminated on:  18: 7:44  10Nov2021

   JOB DONE.