     Program PWSCF v.6.4 starts on  3Aug2021 at 21: 8: 9

     R & G space division:  proc/nbgrp/npool/nimage =      40
     Waiting for input...
     Reading input from standard input
Warning: card    &IONS ignored
Warning: card      ION_DYNAMICS = 'BFGS' ignored
Warning: card   / ignored
Warning: card    &CELL ignored
Warning: card      CELL_DYNAMICS = 'BFGS', ignored
Warning: card    / ignored

     Current dimensions of program PWSCF are:
     Max number of different atomic species (ntypx) = 10
     Max number of k-points (npk) =  40000
     Max angular momentum in pseudopotentials (lmaxx) =  3

     bravais-lattice index     =            0
     lattice parameter (alat)  =      11.4548  a.u.
     unit-cell volume          =    3035.2831 (a.u.)^3
     number of atoms/cell      =           24
     number of atomic types    =            2
     number of electrons       =       144.00
     number of Kohn-Sham states=           86
     kinetic-energy cutoff     =      45.0000  Ry
     charge density cutoff     =     360.0000  Ry
     convergence threshold     =      1.0E-06
     mixing beta               =       0.7000
     number of iterations used =            8  local-TF  mixing
     Exchange-correlation      = SLA PW GGX GGC ( 1  4  2  2 0 0)

     celldm(1)=  11.454765  celldm(2)=   0.000000  celldm(3)=   0.000000
     celldm(4)=   0.000000  celldm(5)=   0.000000  celldm(6)=   0.000000

     crystal axes: (cart. coord. in units of alat)
               a(1) = (   1.000000   0.000000   0.000000 )
               a(2) = (  -0.500000   0.866025   0.000000 )
               a(3) = (   0.000000   0.000000   2.331901 )

     reciprocal axes: (cart. coord. in units 2 pi/alat)
               b(1) = (  1.000000  0.577350  0.000000 )
               b(2) = (  0.000000  1.154701  0.000000 )
               b(3) = (  0.000000  0.000000  0.428835 )

     PseudoPot. # 1 for Mo read from file:
     ~/pseudo/Mo.pw91-n-van.UPF
     MD5 check sum: Not computed, couldn't open file
     Pseudo is Ultrasoft + core correction, Zval =  6.0
     Generated by new atomic code, or converted to UPF format
     Using radial grid of  965 points,  3 beta functions with:
                l(1) =   1
                l(2) =   2
                l(3) =   2
     Q(r) pseudized with  8 coefficients,  rinner =    1.000   1.000   1.000
                                                       1.200   1.200

     PseudoPot. # 2 for S  read from file:
     ~/pseudo/S.pw91-van_ak.UPF
     MD5 check sum: Not computed, couldn't open file
     Pseudo is Ultrasoft, Zval =  6.0
     Generated by new atomic code, or converted to UPF format
     Using radial grid of  811 points,  6 beta functions with:
                l(1) =   0
                l(2) =   0
                l(3) =   1
                l(4) =   1
                l(5) =   2
                l(6) =   2
     Q(r) pseudized with  8 coefficients,  rinner =    1.100   1.100   1.100
                                                       1.100   1.100

     atomic species   valence    mass     pseudopotential
        Mo             6.00    95.50000     Mo( 1.00)
        S              6.00    32.06500     S ( 1.00)

     No symmetry found

   Cartesian axes

     site n.     atom                  positions (alat units)
         1           Mo  tau(   1) = (  -0.0060216   0.2940945   0.5686040  )
         2           Mo  tau(   2) = (  -0.2462038   0.7373510   0.5794525  )
         3           Mo  tau(   3) = (   0.4960264   0.2781266   0.5950210  )
         4           Mo  tau(   4) = (   0.2542378   0.7216934   0.5670317  )
         5           Mo  tau(   5) = (   0.2603165   0.1503673   1.7603003  )
         6           Mo  tau(   6) = (   0.0014219   0.5760809   1.7325391  )
         7           Mo  tau(   7) = (   0.7504349   0.1406289   1.7649952  )
         8           Mo  tau(   8) = (   0.5013162   0.5769923   1.7653668  )
         9           S   tau(   9) = (   0.2536042   0.1482885   0.8438372  )
        10           S   tau(  10) = (  -0.0017152   0.5706609   0.8432132  )
        11           S   tau(  11) = (   0.7379920   0.1377331   0.8190467  )
        12           S   tau(  12) = (   0.5005989   0.5847417   0.8429672  )
        13           S   tau(  13) = (   0.0151409   0.2895030   2.0006791  )
        14           S   tau(  14) = (  -0.2656723   0.7171636   1.9917157  )
        15           S   tau(  15) = (   0.4911255   0.2889448   2.0080859  )
        16           S   tau(  16) = (   0.2483960   0.7258934   2.0100528  )
        17           S   tau(  17) = (   0.2409625   0.1471621   0.3242107  )
        18           S   tau(  18) = (   0.0010753   0.5812274   0.3537190  )
        19           S   tau(  19) = (   0.7506660   0.1451264   0.3541849  )
        20           S   tau(  20) = (   0.5075266   0.5877961   0.3480346  )
        21           S   tau(  21) = (  -0.0045667   0.2992511   1.5154799  )
        22           S   tau(  22) = (  -0.2480557   0.7216656   1.5200529  )
        23           S   tau(  23) = (   0.5030269   0.2928013   1.4879871  )
        24           S   tau(  24) = (   0.2450592   0.7199769   1.4880237  )

     number of k points=    10  Marzari-Vanderbilt smearing, width (Ry)=  0.0200
                       cart. coord. in units 2pi/alat
        k(    1) = (   0.0000000   0.0000000   0.0000000), wk =   0.1111111
        k(    2) = (   0.0000000   0.0000000  -0.2144173), wk =   0.1111111
        k(    3) = (   0.0000000   0.3849003   0.0000000), wk =   0.2222222
        k(    4) = (   0.0000000   0.3849003  -0.2144173), wk =   0.2222222
        k(    5) = (   0.3333333   0.5773504   0.0000000), wk =   0.2222222
        k(    6) = (   0.3333333   0.5773504  -0.2144173), wk =   0.2222222
        k(    7) = (  -0.3333333   0.1924501   0.0000000), wk =   0.2222222
        k(    8) = (   0.3333333   0.1924501   0.0000000), wk =   0.2222222
        k(    9) = (  -0.3333333   0.1924501  -0.2144173), wk =   0.2222222
        k(   10) = (   0.3333333   0.1924501  -0.2144173), wk =   0.2222222

     Initial potential from superposition of free atoms

     starting charge  143.98738, renormalised to  144.00000
     Starting wfcs are  136 randomized atomic wfcs

     Self-consistent Calculation

     iteration #  1     ecut=    45.00 Ry     beta= 0.70
     Davidson diagonalization with overlap
     ethr =  1.00E-02,  avg # of iterations =  2.1

     total energy              =    -562.48717857 Ry
     Harris-Foulkes estimate   =    -563.51154304 Ry
     estimated scf accuracy    <       2.48983715 Ry

[...]

     total energy              =    -562.92773460 Ry
     Harris-Foulkes estimate   =    -562.92773493 Ry
     estimated scf accuracy    <       0.00000239 Ry

     iteration # 12     ecut=    45.00 Ry     beta= 0.70
     Davidson diagonalization with overlap
     ethr =  1.66E-09,  avg # of iterations =  2.2

     End of self-consistent calculation

          k = 0.0000 0.0000 0.0000 ( 15501 PWs)   bands (ev):

    -7.7173  -7.5134  -6.0387  -5.9225  -5.7123  -5.4798  -5.4234  -5.2553
    -5.2008  -5.1844  -5.0777  -5.0001  -4.9940  -4.9580  -4.8312  -4.7252
     0.6690   0.7031   0.8449   0.8719   0.8854   0.9261   1.0331   1.1526
     1.8350   1.8936   1.9732   2.0193   2.0403   2.0914   2.4894   2.6976
     2.7681   2.8167   2.9130   2.9994   3.4840   3.5104   3.6907   3.7103
     3.8591   3.9790   4.1190   4.1774   4.4245   4.5130   4.9212   5.1643
     5.3406   5.3811   5.4214   5.4664   5.4987   5.6929   5.7555   5.7736
     5.8319   5.9328   6.3970   6.5146   6.5512   6.6048   6.6476   6.6846
     6.7769   6.8344   6.9375   7.0367   7.0904   7.1353   7.3356   7.8132
     9.6633   9.7624   9.7769   9.7895   9.9349  10.1460  10.3396  10.4127
    10.4981  10.5112  10.5684  10.6223  10.7000  10.7658

[...]

          k =-0.3333 0.1925 0.0000 ( 15495 PWs)   bands (ev):

[...]

          k =-0.3333 0.1925-0.2144 ( 15466 PWs)   bands (ev):

[...]

          k = 0.3333 0.1925-0.2144 ( 15466 PWs)   bands (ev):

    -7.2496  -7.0490  -6.1724  -5.8810  -5.8383  -5.7157  -5.5282  -5.4706
    -5.4137  -5.2991  -5.2898  -5.0482  -5.0068  -4.9845  -4.9266  -4.7254
     1.0598   1.1243   1.2735   1.2822   1.3831   1.4036   1.4326   1.6470
     1.6671   1.7598   1.7931   1.8897   2.5874   2.6414   2.8787   3.0832
     3.1330   3.2022   3.2088   3.3481   3.3864   3.6041   3.7274   3.7815
     3.8418   3.9697   3.9737   4.1111   4.2302   4.2468   4.4917   4.7300
     4.7915   4.9310   4.9329   5.1409   5.2035   5.3694   5.5571   5.5643
     5.6234   5.6625   5.7735   5.8681   6.0020   6.0818   6.1814   6.3422
     6.4000   6.6074   6.6498   6.8911   7.0943   7.1015   7.2734   7.3600
     9.5980   9.6930   9.8116   9.8407   9.9023   9.9341   9.9945  10.0425
    10.0820  10.2081  10.2531  10.3339  10.5722  10.6651

     the Fermi energy is     7.6654 ev

!    total energy              =    -562.92773466 Ry
     Harris-Foulkes estimate   =    -562.92773501 Ry
     estimated scf accuracy    <       0.00000056 Ry

     The total energy is the sum of the following terms:

     one-electron contribution =    -129.89818172 Ry
     hartree contribution      =     152.79519205 Ry
     xc contribution           =    -226.36389865 Ry
     ewald contribution        =    -359.47396280 Ry
     smearing contrib. (-TS)   =       0.01311645 Ry

     convergence has been achieved in  12 iterations

     Forces acting on atoms (cartesian axes, Ry/au):

     atom    1 type  1   force =     0.09206297   -0.04929905    0.25802034
     atom    2 type  1   force =    -0.02300049   -0.06268610    0.15685807
     atom    3 type  1   force =    -0.06247026    0.17462115   -0.09841456
     atom    4 type  1   force =    -0.01087367   -0.05369695    0.27631676
     atom    5 type  1   force =    -0.05126785   -0.03027802   -0.12452859
     atom    6 type  1   force =     0.05167011    0.07847111    0.28232288
     atom    7 type  1   force =    -0.01388467    0.04062788   -0.09295001
     atom    8 type  1   force =    -0.12953117   -0.04165288   -0.17656371
     atom    9 type  2   force =    -0.07289534    0.00242229    0.09424941
     atom   10 type  2   force =     0.00982537    0.02771853    0.04200377
     atom   11 type  2   force =     0.09780382   -0.01890757    0.19952400
     atom   12 type  2   force =     0.00646596   -0.00652925    0.04650640
     atom   13 type  2   force =    -0.05584262    0.03702972    0.13986730
     atom   14 type  2   force =     0.14061781    0.02857830    0.21810703
     atom   15 type  2   force =     0.07053155    0.00281392    0.16886793
     atom   16 type  2   force =    -0.03209511   -0.04172636    0.10698666
     atom   17 type  2   force =     0.04529697    0.02532108   -0.13242578
     atom   18 type  2   force =    -0.03616511    0.03201835   -0.30967156
     atom   19 type  2   force =    -0.07424647    0.02534878   -0.32081404
     atom   20 type  2   force =     0.02818099   -0.09605335   -0.21406512
     atom   21 type  2   force =     0.01713439   -0.14841836   -0.21035965
     atom   22 type  2   force =    -0.07309826    0.04895624   -0.22133825
     atom   23 type  2   force =     0.01444013   -0.00488689   -0.02683068
     atom   24 type  2   force =     0.06134096    0.03020744   -0.06166861

     Total force =     1.011232     Total SCF correction =     0.001762

     General routines

     Parallel routines

   This run was terminated on:  21: 9: 9   3Aug2021

   JOB DONE.