     Program PWSCF v.6.4 starts on  3Dec2021 at 21:48:23

     R & G space division:  proc/nbgrp/npool/nimage =      40
     Waiting for input...
     Reading input from standard input
Warning: card    &IONS ignored
Warning: card      ION_DYNAMICS = 'BFGS' ignored
Warning: card   / ignored
Warning: card    &CELL ignored
Warning: card      CELL_DYNAMICS = 'BFGS', ignored
Warning: card    / ignored

     Current dimensions of program PWSCF are:
     Max number of different atomic species (ntypx) = 10
     Max number of k-points (npk) =  40000
     Max angular momentum in pseudopotentials (lmaxx) =  3

     bravais-lattice index     =            0
     lattice parameter (alat)  =      11.8281  a.u.
     unit-cell volume          =   19597.3282 (a.u.)^3
     number of atoms/cell      =           36
     number of atomic types    =            2
     number of electrons       =       216.00
     number of Kohn-Sham states=          130
     kinetic-energy cutoff     =      45.0000  Ry
     charge density cutoff     =     360.0000  Ry
     convergence threshold     =      1.0E-06
     mixing beta               =       0.7000
     number of iterations used =            8  local-TF  mixing
     Exchange-correlation      = SLA PW GGX GGC ( 1  4  2  2 0 0)

     celldm(1)=  11.828135  celldm(2)=   0.000000  celldm(3)=   0.000000
     celldm(4)=   0.000000  celldm(5)=   0.000000  celldm(6)=   0.000000

     crystal axes: (cart. coord. in units of alat)
               a(1) = (   1.000000   0.000000   0.000000 )
               a(2) = (   0.500977   1.802706   0.000000 )
               a(3) = (   0.448677   0.195960   6.569361 )

     reciprocal axes: (cart. coord. in units 2 pi/alat)
               b(1) = (  1.000000 -0.277903 -0.060009 )
               b(2) = (  0.000000  0.554722 -0.016547 )
               b(3) = (  0.000000  0.000000  0.152222 )

     PseudoPot. # 1 for Mo read from file:
     ~/pseudo/Mo.pw91-n-van.UPF
     MD5 check sum: Not computed, couldn't open file
     Pseudo is Ultrasoft + core correction, Zval =  6.0
     Generated by new atomic code, or converted to UPF format
     Using radial grid of  965 points,  3 beta functions with:
                l(1) =   1
                l(2) =   2
                l(3) =   2
     Q(r) pseudized with  8 coefficients,  rinner =    1.000   1.000   1.000
                                                       1.200   1.200

     PseudoPot. # 2 for S  read from file:
     ~/pseudo/S.pw91-van_ak.UPF
     MD5 check sum: Not computed, couldn't open file
     Pseudo is Ultrasoft, Zval =  6.0
     Generated by new atomic code, or converted to UPF format
     Using radial grid of  811 points,  6 beta functions with:
                l(1) =   0
                l(2) =   0
                l(3) =   1
                l(4) =   1
                l(5) =   2
                l(6) =   2
     Q(r) pseudized with  8 coefficients,  rinner =    1.100   1.100   1.100
                                                       1.100   1.100

     atomic species   valence    mass     pseudopotential
        Mo             6.00    95.50000     Mo( 1.00)
        S              6.00    32.06500     S ( 1.00)

     No symmetry found

   Cartesian axes

     site n.     atom                  positions (alat units)
         1           Mo  tau(   1) = (   0.7756310   0.5860814   2.3021783  )
         2           Mo  tau(   2) = (   1.0254479   0.1366477   2.3051207  )
         3           Mo  tau(   3) = (   1.2760617   0.5867780   2.3028726  )
         4           Mo  tau(   4) = (   0.5255014   0.1370472   2.3055633  )
         5           Mo  tau(   5) = (   1.2759573   1.4881487   2.3054485  )
         6           Mo  tau(   6) = (   0.7762512   1.4886362   2.3053202  )
         7           Mo  tau(   7) = (   0.5253681   1.0381418   2.3020826  )
         8           Mo  tau(   8) = (   1.0262804   1.0384521   2.3018549  )
         9           Mo  tau(   9) = (   0.7417785   0.0639675   0.4095417  )
        10           Mo  tau(  10) = (   0.2399154   0.4212178   0.5056951  )
        11           Mo  tau(  11) = (   0.9500112   0.7928997   3.3127145  )
        12           Mo  tau(  12) = (   0.4507502   0.7933535   3.3135644  )
        13           S   tau(  13) = (   0.5255372   0.4326523   2.0492715  )
        14           S   tau(  14) = (   1.2759856   0.8838051   2.0482568  )
        15           S   tau(  15) = (   1.0262518   0.4328333   2.0492217  )
        16           S   tau(  16) = (   0.7758715   0.8841860   2.0485290  )
        17           S   tau(  17) = (   1.2010450   0.9488605   3.0991360  )
        18           S   tau(  18) = (   0.7005460   1.0138404   3.4626552  )
        19           S   tau(  19) = (   0.5261384   0.4352840   2.5580768  )
        20           S   tau(  20) = (   1.2753094   0.8846574   2.5549829  )
        21           S   tau(  21) = (   1.0256271   0.4347935   2.5568063  )
        22           S   tau(  22) = (   0.7759784   0.8840877   2.5534936  )
        23           S   tau(  23) = (   1.2013003   0.6457643   3.5353796  )
        24           S   tau(  24) = (   0.6994665   0.5714883   3.1643179  )
        25           S   tau(  25) = (   1.2762884   1.7857505   2.0517153  )
        26           S   tau(  26) = (   0.7767062   1.7861052   2.0515573  )
        27           S   tau(  27) = (   1.2763911   1.7853247   2.5593262  )
        28           S   tau(  28) = (   0.7761726   1.7860225   2.5597286  )
        29           S   tau(  29) = (   1.0255474   1.3333706   2.5585246  )
        30           S   tau(  30) = (   1.5263423   1.3334573   2.5584319  )
        31           S   tau(  31) = (   0.0716789   0.1013424   0.5924187  )
        32           S   tau(  32) = (   0.5659645   0.2895197   0.6466815  )
        33           S   tau(  33) = (   1.0261484   1.3365017   2.0501812  )
        34           S   tau(  34) = (   0.5262211   1.3363220   2.0504161  )
        35           S   tau(  35) = (   1.0418312   0.2265150   0.2528394  )
        36           S   tau(  36) = (   0.5433629   0.3609450   0.2919810  )

     number of k points=     4  Marzari-Vanderbilt smearing, width (Ry)=  0.0200
                       cart. coord. in units 2pi/alat
        k(    1) = (   0.0000000   0.0000000   0.0000000), wk =   0.3333333
        k(    2) = (   0.0000000  -0.2773608   0.0082735), wk =   0.3333333
        k(    3) = (   0.3333333  -0.0926342  -0.0200029), wk =   0.6666667
        k(    4) = (   0.3333333  -0.3699951  -0.0117294), wk =   0.6666667

     Initial potential from superposition of free atoms

     starting charge  215.98107, renormalised to  216.00000

     negative rho (up, down):  2.373E-03 0.000E+00
     Starting wfcs are  204 randomized atomic wfcs

     Self-consistent Calculation

     iteration #  1     ecut=    45.00 Ry     beta= 0.70
     Davidson diagonalization with overlap
     ethr =  1.00E-02,  avg # of iterations =  2.5

     negative rho (up, down):  7.713E-04 0.000E+00

     total energy              =    -843.06496368 Ry
     Harris-Foulkes estimate   =    -845.89857043 Ry
     estimated scf accuracy    <       8.23403706 Ry

[...]

     iteration # 18     ecut=    45.00 Ry     beta= 0.70
     Davidson diagonalization with overlap
     c_bands:  1 eigenvalues not converged
     ethr =  5.27E-07,  avg # of iterations =  9.8

[...]

     iteration # 23     ecut=    45.00 Ry     beta= 0.70
     Davidson diagonalization with overlap
     c_bands:  1 eigenvalues not converged
     ethr =  1.63E-08,  avg # of iterations =  6.5

[...]

     total energy              =    -844.52164364 Ry
     Harris-Foulkes estimate   =    -844.52164741 Ry
     estimated scf accuracy    <       0.00000188 Ry

     iteration # 27     ecut=    45.00 Ry     beta= 0.70
     Davidson diagonalization with overlap
     ethr =  8.68E-10,  avg # of iterations =  2.5

[...]

     End of self-consistent calculation

          k = 0.0000 0.0000 0.0000 (100009 PWs)   bands (ev):

   -16.9085 -16.6411 -16.3706 -15.8890 -15.8852 -15.4651 -15.1278 -15.1245
   -14.9217 -14.9020 -14.8103 -14.7933 -14.7923 -14.7878 -14.7208 -14.5386
   -14.5352 -14.5305 -14.5224 -14.2778 -14.2561 -14.1693 -13.7280 -13.3267
    -8.3180  -8.1206  -8.0147  -8.0079  -8.0063  -7.9977  -7.4875  -7.4817
    -7.4363  -7.4357  -7.4306  -7.4250  -7.2940  -7.2377  -7.2083  -7.0450
    -6.9349  -6.6295  -6.4767  -6.4671  -6.4609  -6.4580  -6.4532  -6.4482
    -6.4200  -6.2769  -6.1654  -6.1510  -6.0156  -5.9535  -5.8402  -5.8347
    -5.8267  -5.8204  -5.7722  -5.7603  -5.7362  -5.4968  -5.3682  -5.3418
    -5.3109  -5.3007  -5.2630  -5.0190  -4.9034  -4.7294  -4.7212  -4.6756
    -4.5875  -4.4714  -4.4658  -4.4640  -4.4600  -4.3647  -4.3583  -4.3538
    -4.3447  -4.3398  -4.1394  -4.0907  -4.0800  -4.0160  -4.0020  -3.9873
    -3.8225  -3.7835  -3.7366  -3.4561  -3.4520  -3.4039  -3.2220  -3.2055
    -3.1412  -3.1275  -3.0992  -3.0910  -3.0833  -2.7021  -2.5102  -2.4154
    -2.1604  -2.1531  -2.0707  -1.8899  -1.8514  -1.6130  -1.1844  -1.0949
    -0.8115  -0.6172  -0.5955  -0.5834  -0.5211  -0.4950  -0.4857  -0.4650
    -0.4564  -0.4468  -0.3904  -0.1650  -0.1418  -0.1355  -0.0360   0.0951
     0.1163   0.1892

          k = 0.0000-0.2774 0.0083 ( 99870 PWs)   bands (ev):

[...]

          k = 0.3333-0.3700-0.0117 ( 99872 PWs)   bands (ev):

   -16.7787 -16.5097 -16.2555 -16.0097 -15.5656 -15.2716 -15.2431 -15.2316
   -15.1562 -14.9749 -14.9140 -14.9086 -14.8114 -14.7601 -14.7151 -14.6624
   -14.6359 -14.5959 -14.4391 -14.3501 -14.2650 -14.2504 -13.6387 -13.4381
    -7.8522  -7.8193  -7.8129  -7.7835  -7.6994  -7.5835  -7.5008  -7.4466
    -7.3299  -7.3078  -7.2451  -7.1971  -7.1783  -6.8883  -6.8331  -6.8223
    -6.5740  -6.5043  -6.4522  -6.4161  -6.4075  -6.3764  -6.3632  -6.3215
    -6.2805  -6.1578  -6.0641  -6.0228  -5.8383  -5.8128  -5.8067  -5.8004
    -5.7933  -5.7666  -5.7370  -5.7081  -5.6855  -5.6792  -5.6425  -5.6018
    -5.5913  -5.5342  -5.4382  -5.3946  -5.2520  -5.1544  -5.1314  -5.0991
    -4.9496  -4.8166  -4.7769  -4.7503  -4.7265  -4.6417  -4.6013  -4.5234
    -4.4178  -4.3767  -4.3540  -4.3166  -4.2654  -4.2049  -4.1339  -4.0924
    -4.0442  -3.9833  -3.6923  -3.6277  -3.5956  -3.5614  -3.4474  -3.3808
    -3.2633  -3.1752  -3.0976  -3.0463  -2.9308  -2.6468  -2.5032  -2.1384
    -2.0181  -2.0171  -1.9033  -1.8573  -1.5690  -1.5574  -1.1429  -0.8569
    -0.7734  -0.6758  -0.6124  -0.6104  -0.6021  -0.5651  -0.5099  -0.4914
    -0.3815  -0.3239  -0.3117  -0.2643  -0.2449  -0.1928  -0.1408  -0.1367
    -0.1123  -0.1009

     the Fermi energy is    -1.7667 ev

!    total energy              =    -844.52162946 Ry
     Harris-Foulkes estimate   =    -844.52164371 Ry
     estimated scf accuracy    <       0.00000092 Ry

     The total energy is the sum of the following terms:

     one-electron contribution =  -11417.74824273 Ry
     hartree contribution      =    5762.51108041 Ry
     xc contribution           =    -333.78536874 Ry
     ewald contribution        =    5144.49816611 Ry
     smearing contrib. (-TS)   =       0.00273548 Ry

     convergence has been achieved in  27 iterations

     negative rho (up, down):  3.369E-03 0.000E+00

     Forces acting on atoms (cartesian axes, Ry/au):

     atom    1 type  1   force =     0.00064590   -0.00082587   -0.00116483
     atom    2 type  1   force =     0.00013671   -0.00754328   -0.00151783
     atom    3 type  1   force =    -0.00108619   -0.00268250   -0.00264771
     atom    4 type  1   force =    -0.00080150   -0.00803646   -0.00133034
     atom    5 type  1   force =     0.00042130   -0.00519862   -0.00210251
     atom    6 type  1   force =    -0.00078789   -0.00591655   -0.00227202
     atom    7 type  1   force =     0.00220111   -0.00604285   -0.00231958
     atom    8 type  1   force =    -0.00161498   -0.00715739   -0.00183783
     atom    9 type  1   force =     0.02016788    0.06535504    0.03156249
     atom   10 type  1   force =     0.02174388   -0.07258165   -0.01085489
     atom   11 type  1   force =    -0.00084471    0.00003464    0.00902615
     atom   12 type  1   force =     0.00174579    0.00076234    0.00595251
     atom   13 type  2   force =     0.00010038    0.00205341    0.00168145
     atom   14 type  2   force =    -0.00024297    0.00347254    0.00109370
     atom   15 type  2   force =    -0.00040916    0.00190832    0.00188190
     atom   16 type  2   force =    -0.00023970    0.00318360    0.00099355
     atom   17 type  2   force =    -0.00194507    0.02299965   -0.03633866
     atom   18 type  2   force =     0.00174472    0.02970481    0.02097082
     atom   19 type  2   force =    -0.00055357    0.00164044   -0.00179132
     atom   20 type  2   force =     0.00172334    0.00173308   -0.00091499
     atom   21 type  2   force =     0.00023035    0.00218830    0.00113878
     atom   22 type  2   force =    -0.00045674    0.00279990    0.00522469
     atom   23 type  2   force =    -0.00369679   -0.02201190    0.02835475
     atom   24 type  2   force =     0.00171955   -0.03120360   -0.02371415
     atom   25 type  2   force =    -0.00006321    0.00233134    0.00179144
     atom   26 type  2   force =    -0.00034203    0.00214812    0.00208741
     atom   27 type  2   force =     0.00016179    0.00374612   -0.00135353
     atom   28 type  2   force =     0.00057740    0.00272144   -0.00254076
     atom   29 type  2   force =     0.00146265    0.00389687   -0.00136060
     atom   30 type  2   force =    -0.00044761    0.00373910   -0.00140784
     atom   31 type  2   force =    -0.00473742   -0.02526063    0.08013354
     atom   32 type  2   force =    -0.00162814   -0.02273133    0.08394613
     atom   33 type  2   force =    -0.00018065    0.00319886    0.00170791
     atom   34 type  2   force =    -0.00051369    0.00332110    0.00178992
     atom   35 type  2   force =    -0.01741826    0.05277571   -0.08566037
     atom   36 type  2   force =    -0.01677245    0.00147790   -0.09820739

     Total force =     0.230654     Total SCF correction =     0.001331

     General routines

     Parallel routines

   This run was terminated on:  22: 1: 0   3Dec2021

   JOB DONE.