     Program PWSCF v.6.4 starts on  8Sep2021 at 11:35:53

     R & G space division:  proc/nbgrp/npool/nimage =      40
     Waiting for input...
     Reading input from standard input
Warning: card    &IONS ignored
Warning: card      ION_DYNAMICS = 'BFGS' ignored
Warning: card   / ignored
Warning: card    &CELL ignored
Warning: card      CELL_DYNAMICS = 'BFGS', ignored
Warning: card    / ignored

     Current dimensions of program PWSCF are:
     Max number of different atomic species (ntypx) = 10
     Max number of k-points (npk) =  40000
     Max angular momentum in pseudopotentials (lmaxx) =  3

     bravais-lattice index     =            0
     lattice parameter (alat)  =      12.6610  a.u.
     unit-cell volume          =    5161.0836 (a.u.)^3
     number of atoms/cell      =           36
     number of atomic types    =            2
     number of electrons       =       216.00
     number of Kohn-Sham states=          130
     kinetic-energy cutoff     =      45.0000  Ry
     charge density cutoff     =     360.0000  Ry
     convergence threshold     =      1.0E-06
     mixing beta               =       0.7000
     number of iterations used =            8  local-TF  mixing
     Exchange-correlation      = SLA PW GGX GGC ( 1  4  2  2 0 0)

     celldm(1)=  12.661034  celldm(2)=   0.000000  celldm(3)=   0.000000
     celldm(4)=   0.000000  celldm(5)=   0.000000  celldm(6)=   0.000000

     crystal axes: (cart. coord. in units of alat)
               a(1) = (   0.999757  -0.017630   0.013270 )
               a(2) = (  -0.502178   0.849091   0.023603 )
               a(3) = (  -0.523689  -0.714839   2.994146 )

     reciprocal axes: (cart. coord. in units 2 pi/alat)
               b(1) = (  1.006390  0.586425  0.316028 )
               b(2) = (  0.017028  1.179888  0.284671 )
               b(3) = ( -0.004595 -0.011900  0.330340 )

     PseudoPot. # 1 for Mo read from file:
     ~/pseudo/Mo.pw91-n-van.UPF
     MD5 check sum: Not computed, couldn't open file
     Pseudo is Ultrasoft + core correction, Zval =  6.0
     Generated by new atomic code, or converted to UPF format
     Using radial grid of  965 points,  3 beta functions with:
                l(1) =   1
                l(2) =   2
                l(3) =   2
     Q(r) pseudized with  8 coefficients,  rinner =    1.000   1.000   1.000
                                                       1.200   1.200

     PseudoPot. # 2 for S  read from file:
     ~/pseudo/S.pw91-van_ak.UPF
     MD5 check sum: Not computed, couldn't open file
     Pseudo is Ultrasoft, Zval =  6.0
     Generated by new atomic code, or converted to UPF format
     Using radial grid of  811 points,  6 beta functions with:
                l(1) =   0
                l(2) =   0
                l(3) =   1
                l(4) =   1
                l(5) =   2
                l(6) =   2
     Q(r) pseudized with  8 coefficients,  rinner =    1.100   1.100   1.100
                                                       1.100   1.100

     atomic species   valence    mass     pseudopotential
        Mo             6.00    95.50000     Mo( 1.00)
        S              6.00    32.06500     S ( 1.00)

     No symmetry found

   Cartesian axes

     site n.     atom                  positions (alat units)
         1           Mo  tau(   1) = (   0.2004098   0.0466841   1.0146979  )
         2           Mo  tau(   2) = (  -0.0663849   0.4457083   1.0031029  )
         3           Mo  tau(   3) = (   0.6456601   0.0691145   1.0421729  )
         4           Mo  tau(   4) = (   0.3969725   0.4065352   1.1587489  )
         5           Mo  tau(   5) = (  -0.3297047  -0.3133690   1.9726527  )
         6           Mo  tau(   6) = (  -0.5803175   0.0241683   1.9476188  )
         7           Mo  tau(   7) = (   0.1742452  -0.3289229   1.9793977  )
         8           Mo  tau(   8) = (  -0.0734878   0.0186202   1.9702216  )
         9           Mo  tau(   9) = (  -0.6263996  -0.7695174   2.8979858  )
        10           Mo  tau(  10) = (  -0.9598580  -0.2988112   3.1344862  )
        11           Mo  tau(  11) = (  -0.2185015  -0.7854489   3.1305003  )
        12           Mo  tau(  12) = (  -0.3650023  -0.3625223   2.9362430  )
        13           S   tau(  13) = (  -0.1309773   0.2326777   0.1202235  )
        14           S   tau(  14) = (  -0.3663283   0.6145054   0.4254059  )
        15           S   tau(  15) = (   0.3034510   0.2219115   0.3331208  )
        16           S   tau(  16) = (   0.1261816   0.6434732   0.1550715  )
        17           S   tau(  17) = (  -0.0868264   0.1052545   0.7897914  )
        18           S   tau(  18) = (  -0.3731587   0.4050542   0.8652595  )
        19           S   tau(  19) = (   0.4413960  -0.0961519   0.7779236  )
        20           S   tau(  20) = (   0.2365590   0.3542107   0.8348243  )
        21           S   tau(  21) = (  -0.0920014  -0.0943584   1.2081174  )
        22           S   tau(  22) = (  -0.3768781   0.2833467   1.3472776  )
        23           S   tau(  23) = (   0.4113249  -0.1329046   1.2448419  )
        24           S   tau(  24) = (   0.0898546   0.2888621   1.2775202  )
        25           S   tau(  25) = (  -0.0754668  -0.4988287   1.7570459  )
        26           S   tau(  26) = (  -0.3256399  -0.0692888   1.7068357  )
        27           S   tau(  27) = (   0.4251563  -0.5076963   1.7670431  )
        28           S   tau(  28) = (   0.1763282  -0.0788112   1.7186023  )
        29           S   tau(  29) = (  -0.0810590  -0.2409147   2.2257469  )
        30           S   tau(  30) = (  -0.3259786   0.1937145   2.1735956  )
        31           S   tau(  31) = (   0.4210882  -0.2340485   2.2328877  )
        32           S   tau(  32) = (   0.1668665   0.1838384   2.1859415  )
        33           S   tau(  33) = (  -0.5189474  -0.5379947   2.6495205  )
        34           S   tau(  34) = (  -0.8396385  -0.1034897   2.8624570  )
        35           S   tau(  35) = (  -0.0689409  -0.5519487   2.8787368  )
        36           S   tau(  36) = (  -0.3214777  -0.1101430   2.6843909  )

     number of k points=     5  Marzari-Vanderbilt smearing, width (Ry)=  0.0200
                       cart. coord. in units 2pi/alat
        k(    1) = (   0.0000000   0.0000000   0.0000000), wk =   0.2222222
        k(    2) = (   0.0056760   0.3932961   0.0948904), wk =   0.4444444
        k(    3) = (   0.3354633   0.1954749   0.1053427), wk =   0.4444444
        k(    4) = (   0.3411394   0.5887710   0.2002331), wk =   0.4444444
        k(    5) = (   0.3297873  -0.1978213   0.0104523), wk =   0.4444444

     Initial potential from superposition of free atoms

     starting charge  215.98107, renormalised to  216.00000
     Starting wfcs are  204 randomized atomic wfcs

     Self-consistent Calculation

     iteration #  1     ecut=    45.00 Ry     beta= 0.70
     Davidson diagonalization with overlap
     ethr =  1.00E-02,  avg # of iterations =  2.0

     total energy              =    -843.00392580 Ry
     Harris-Foulkes estimate   =    -846.02361180 Ry
     estimated scf accuracy    <       9.06187986 Ry

[...]

     total energy              =    -844.54157381 Ry
     Harris-Foulkes estimate   =    -844.54157446 Ry
     estimated scf accuracy    <       0.00000366 Ry

     iteration # 14     ecut=    45.00 Ry     beta= 0.70
     Davidson diagonalization with overlap
     ethr =  1.69E-09,  avg # of iterations =  2.0

     End of self-consistent calculation

          k = 0.0000 0.0000 0.0000 ( 26305 PWs)   bands (ev):

    -8.4817  -7.7684  -7.5001  -7.3445  -6.7282  -6.6909  -6.6519  -6.5966
    -6.5056  -6.4743  -6.4082  -6.3272  -6.2373  -6.1393  -6.1285  -6.0628
    -6.0129  -5.8464  -5.7395  -5.6670  -5.5712  -5.5416  -5.4534  -5.3831
    -0.2573   0.1661   0.3525   0.3569   0.4919   0.6043   0.6169   0.6613
     0.6735   0.8461   0.9357   1.0072   1.1938   1.2387   1.2695   1.3208
     1.4519   1.5748   1.7848   1.9898   2.0076   2.0509   2.0639   2.1124
     2.2541   2.2844   2.3643   2.4163   2.5361   2.5968   2.6379   2.6608
     2.7087   2.7347   2.7540   2.8600   2.9092   2.9771   2.9863   3.1264
     3.2270   3.2953   3.3459   3.3901   3.4058   3.5222   3.5741   3.5912
     3.6609   3.7167   3.7973   3.8640   3.8689   3.9986   4.0503   4.0967
     4.1637   4.2566   4.2830   4.4619   4.5194   4.6523   4.6828   4.7285
     4.7843   4.7870   4.8593   4.9597   4.9986   5.0372   5.0611   5.4247
     5.5168   5.6083   5.6422   5.7007   5.7877   5.8633   5.9349   6.0070
     6.1364   6.1545   6.3203   6.4130   6.5826   6.6129   6.7356   6.8334
     7.1275   7.1508   7.2077   7.2756   7.3451   7.5588   7.6448   7.6792
     7.6909   7.7096   7.7319   7.7485   8.0185   8.1265   8.1701   8.2194
     8.3097   8.4040

[...]

          k = 0.3298-0.1978 0.0105 ( 26271 PWs)   bands (ev):

    -8.1640  -7.5117  -7.4569  -7.1582  -7.0591  -6.9537  -6.8309  -6.5735
    -6.5349  -6.4866  -6.4140  -6.3820  -6.3117  -6.1847  -6.1053  -6.0781
    -5.8891  -5.8662  -5.8292  -5.7169  -5.6648  -5.6202  -5.4867  -5.3863
    -0.0133   0.3515   0.4997   0.5926   0.6641   0.7651   0.8641   0.9268
     0.9892   1.0315   1.0482   1.1101   1.3570   1.4226   1.4893   1.5442
     1.6198   1.6577   1.7177   1.7833   1.9037   2.0325   2.0522   2.1139
     2.1878   2.2180   2.2857   2.3242   2.3494   2.3956   2.4643   2.5833
     2.6565   2.6999   2.7932   2.8396   2.9171   2.9579   2.9879   3.0621
     3.1671   3.1984   3.3285   3.3875   3.4407   3.4588   3.4739   3.5262
     3.6078   3.7070   3.7463   3.8191   3.8906   3.9247   3.9784   4.0426
     4.1123   4.1534   4.1969   4.2311   4.2645   4.3134   4.5302   4.6319
     4.7413   4.8216   4.9625   5.0035   5.1218   5.1643   5.2028   5.3136
     5.3908   5.4685   5.5301   5.6051   5.6319   5.7488   5.7677   5.8764
     5.9553   6.1125   6.2295   6.3025   6.5263   6.6674   6.7508   6.7641
     6.9632   7.0251   7.1368   7.1942   7.3033   7.4069   7.4509   7.5322
     7.6103   7.7335   7.7758   7.7995   7.9963   8.0981   8.2153   8.3404
     8.4295   8.5182

     the Fermi energy is     6.4034 ev

!    total energy              =    -844.54157335 Ry
     Harris-Foulkes estimate   =    -844.54157413 Ry
     estimated scf accuracy    <       0.00000087 Ry

     The total energy is the sum of the following terms:

     one-electron contribution =     -98.16169311 Ry
     hartree contribution      =     170.00662325 Ry
     xc contribution           =    -333.59249567 Ry
     ewald contribution        =    -582.80206781 Ry
     smearing contrib. (-TS)   =       0.00805998 Ry

     convergence has been achieved in  14 iterations

     Forces acting on atoms (cartesian axes, Ry/au):

     atom    1 type  1   force =    -0.02881410   -0.01077409    0.02095728
     atom    2 type  1   force =     0.04369617   -0.00495684    0.01871726
     atom    3 type  1   force =    -0.02232540   -0.01253540    0.01695712
     atom    4 type  1   force =     0.01847313    0.01954240   -0.01426471
     atom    5 type  1   force =     0.00294777   -0.00624559    0.01345977
     atom    6 type  1   force =     0.01756452   -0.00879124    0.02412588
     atom    7 type  1   force =    -0.00893107    0.01631601    0.00897376
     atom    8 type  1   force =    -0.00805218   -0.02722772   -0.03540058
     atom    9 type  1   force =    -0.01609553   -0.00524894   -0.01360287
     atom   10 type  1   force =     0.01715871    0.02425107   -0.00998394
     atom   11 type  1   force =    -0.01699439   -0.01241724   -0.01079450
     atom   12 type  1   force =     0.02248084   -0.02963705   -0.00507351
     atom   13 type  2   force =    -0.00750606   -0.00616666    0.02248528
     atom   14 type  2   force =     0.00597654   -0.00618036    0.00132228
     atom   15 type  2   force =    -0.02505422    0.02842728   -0.01339247
     atom   16 type  2   force =     0.00721860    0.01155021    0.01378488
     atom   17 type  2   force =     0.00819192   -0.00838087   -0.02601071
     atom   18 type  2   force =    -0.05254464   -0.00345451   -0.03668158
     atom   19 type  2   force =     0.00318393    0.01334359   -0.00301605
     atom   20 type  2   force =     0.00292272    0.02041914   -0.01362914
     atom   21 type  2   force =     0.01283336    0.01247280    0.01540517
     atom   22 type  2   force =     0.00466899   -0.01322169   -0.00248385
     atom   23 type  2   force =     0.00256366   -0.00538446   -0.00968256
     atom   24 type  2   force =     0.01201281   -0.00980905    0.03098377
     atom   25 type  2   force =    -0.00411279    0.01340311    0.00220513
     atom   26 type  2   force =     0.00836988    0.00427479    0.01250334
     atom   27 type  2   force =     0.00339438    0.00536834    0.00007429
     atom   28 type  2   force =    -0.01970755    0.00367246   -0.01619836
     atom   29 type  2   force =     0.00557979   -0.00122198    0.00312478
     atom   30 type  2   force =    -0.01059572   -0.00058245    0.00601797
     atom   31 type  2   force =    -0.00131643   -0.00841902   -0.01168407
     atom   32 type  2   force =     0.01295472    0.00900568    0.00032114
     atom   33 type  2   force =    -0.00691588    0.00283579    0.02050801
     atom   34 type  2   force =     0.01630862   -0.00769398   -0.01782072
     atom   35 type  2   force =    -0.00891585    0.00905498   -0.00513264
     atom   36 type  2   force =     0.00938073   -0.00558849    0.01292515

     Total force =     0.162898     Total SCF correction =     0.002398

     General routines

     Parallel routines

   This run was terminated on:  11:37:15   8Sep2021

   JOB DONE.