     Program PWSCF v.6.4 starts on  2Sep2021 at 18:24: 1

     R & G space division:  proc/nbgrp/npool/nimage =      40
     Waiting for input...
     Reading input from standard input
Warning: card    &IONS ignored
Warning: card      ION_DYNAMICS = 'BFGS' ignored
Warning: card   / ignored
Warning: card    &CELL ignored
Warning: card      CELL_DYNAMICS = 'BFGS', ignored
Warning: card    / ignored

     Current dimensions of program PWSCF are:
     Max number of different atomic species (ntypx) = 10
     Max number of k-points (npk) =  40000
     Max angular momentum in pseudopotentials (lmaxx) =  3

     bravais-lattice index     =            0
     lattice parameter (alat)  =      12.1979  a.u.
     unit-cell volume          =    5141.6576 (a.u.)^3
     number of atoms/cell      =           36
     number of atomic types    =            2
     number of electrons       =       216.00
     number of Kohn-Sham states=          130
     kinetic-energy cutoff     =      45.0000  Ry
     charge density cutoff     =     360.0000  Ry
     convergence threshold     =      1.0E-06
     mixing beta               =       0.7000
     number of iterations used =            8  local-TF  mixing
     Exchange-correlation      = SLA PW GGX GGC ( 1  4  2  2 0 0)

     celldm(1)=  12.197931  celldm(2)=   0.000000  celldm(3)=   0.000000
     celldm(4)=   0.000000  celldm(5)=   0.000000  celldm(6)=   0.000000

     crystal axes: (cart. coord. in units of alat)
               a(1) = (   1.000000   0.000000   0.000000 )
               a(2) = (   0.499451   0.866706   0.000000 )
               a(3) = (   0.191638   0.479002   3.268683 )

     reciprocal axes: (cart. coord. in units 2 pi/alat)
               b(1) = (  1.000000 -0.576264  0.025819 )
               b(2) = (  0.000000  1.153794 -0.169080 )
               b(3) = (  0.000000  0.000000  0.305934 )

     PseudoPot. # 1 for Mo read from file:
     ~/pseudo/Mo.pw91-n-van.UPF
     MD5 check sum: Not computed, couldn't open file
     Pseudo is Ultrasoft + core correction, Zval =  6.0
     Generated by new atomic code, or converted to UPF format
     Using radial grid of  965 points,  3 beta functions with:
                l(1) =   1
                l(2) =   2
                l(3) =   2
     Q(r) pseudized with  8 coefficients,  rinner =    1.000   1.000   1.000
                                                       1.200   1.200

     PseudoPot. # 2 for S  read from file:
     ~/pseudo/S.pw91-van_ak.UPF
     MD5 check sum: Not computed, couldn't open file
     Pseudo is Ultrasoft, Zval =  6.0
     Generated by new atomic code, or converted to UPF format
     Using radial grid of  811 points,  6 beta functions with:
                l(1) =   0
                l(2) =   0
                l(3) =   1
                l(4) =   1
                l(5) =   2
                l(6) =   2
     Q(r) pseudized with  8 coefficients,  rinner =    1.100   1.100   1.100
                                                       1.100   1.100

     atomic species   valence    mass     pseudopotential
        Mo             6.00    95.50000     Mo( 1.00)
        S              6.00    32.06500     S ( 1.00)

     No symmetry found

   Cartesian axes

     site n.     atom                  positions (alat units)
         1           Mo  tau(   1) = (   0.5657548   0.8936081   1.0498140  )
         2           Mo  tau(   2) = (   0.3193841   0.4515177   1.0445982  )
         3           Mo  tau(   3) = (   0.8234865   0.4498723   1.0468440  )
         4           Mo  tau(   4) = (   1.0761193   0.8793062   1.0427108  )
         5           Mo  tau(   5) = (   0.6823100   0.4851513   2.2541474  )
         6           Mo  tau(   6) = (   0.9304458   0.9082453   2.2500673  )
         7           Mo  tau(   7) = (   1.4363518   0.9105535   2.2576127  )
         8           Mo  tau(   8) = (   1.1763841   0.4845668   2.2558141  )
         9           Mo  tau(   9) = (   0.9408225  -0.0098753  -0.0402866  )
        10           Mo  tau(  10) = (   1.1878613   0.4091314  -0.0316288  )
        11           Mo  tau(  11) = (   0.6928952   0.4099770  -0.0327800  )
        12           Mo  tau(  12) = (   0.4394581  -0.0180670  -0.0291851  )
        13           S   tau(  13) = (   0.1868545   0.1250014   0.2152273  )
        14           S   tau(  14) = (   0.4395087   0.5665133   0.2043371  )
        15           S   tau(  15) = (   0.9394903   0.5594831   0.2151680  )
        16           S   tau(  16) = (   0.6920372   0.1245240   0.2136708  )
        17           S   tau(  17) = (   0.8221437   0.1652526   0.7981328  )
        18           S   tau(  18) = (   1.0702124   0.5942307   0.7971423  )
        19           S   tau(  19) = (   0.5718566   0.6031706   0.8064428  )
        20           S   tau(  20) = (   0.3212795   0.1617883   0.8010000  )
        21           S   tau(  21) = (   1.3162069   1.0307564   1.2939137  )
        22           S   tau(  22) = (   1.0728357   0.5952304   1.2907139  )
        23           S   tau(  23) = (   0.5702035   0.5970571   1.2880929  )
        24           S   tau(  24) = (   0.8277407   1.0304153   1.2889684  )
        25           S   tau(  25) = (   1.1863875   1.0587565   2.0133913  )
        26           S   tau(  26) = (   0.9313229   0.6221700   2.0038979  )
        27           S   tau(  27) = (   0.4290795   0.6260072   2.0102232  )
        28           S   tau(  28) = (   0.6788430   1.0615352   2.0104478  )
        29           S   tau(  29) = (   1.1786134   1.0574613   2.4933825  )
        30           S   tau(  30) = (   0.9294500   0.6277944   2.5011086  )
        31           S   tau(  31) = (   0.4288406   0.6234543   2.5021584  )
        32           S   tau(  32) = (   0.6864790   1.0595680   2.4982184  )
        33           S   tau(  33) = (   0.3900396   0.6063562   2.9859980  )
        34           S   tau(  34) = (   0.6323553   1.0346327   2.9955298  )
        35           S   tau(  35) = (   1.1345751   1.0384975   2.9947968  )
        36           S   tau(  36) = (   0.8770632   0.6041360   2.9892494  )

     number of k points=     5  Marzari-Vanderbilt smearing, width (Ry)=  0.0200
                       cart. coord. in units 2pi/alat
        k(    1) = (   0.0000000   0.0000000   0.0000000), wk =   0.2222222
        k(    2) = (   0.0000000   0.3845979  -0.0563600), wk =   0.4444444
        k(    3) = (   0.3333333  -0.1920879   0.0086062), wk =   0.4444444
        k(    4) = (   0.3333333   0.1925100  -0.0477538), wk =   0.4444444
        k(    5) = (   0.3333333  -0.5766857   0.0649663), wk =   0.4444444

     Initial potential from superposition of free atoms

     starting charge  215.98107, renormalised to  216.00000
     Starting wfcs are  204 randomized atomic wfcs

     Self-consistent Calculation

     iteration #  1     ecut=    45.00 Ry     beta= 0.70
     Davidson diagonalization with overlap
     ethr =  1.00E-02,  avg # of iterations =  2.0

     total energy              =    -844.16516169 Ry
     Harris-Foulkes estimate   =    -846.82916611 Ry
     estimated scf accuracy    <       6.81054273 Ry

[...]

     iteration #  6     ecut=    45.00 Ry     beta= 0.70
     Davidson diagonalization with overlap
     c_bands:  1 eigenvalues not converged
     c_bands:  1 eigenvalues not converged
     ethr =  1.65E-06,  avg # of iterations = 17.6

[...]

     iteration # 12     ecut=    45.00 Ry     beta= 0.70
     Davidson diagonalization with overlap
     c_bands:  1 eigenvalues not converged
     ethr =  1.68E-07,  avg # of iterations =  5.6

[...]

     total energy              =    -845.48949215 Ry
     Harris-Foulkes estimate   =    -845.48949484 Ry
     estimated scf accuracy    <       0.00000953 Ry

     iteration # 15     ecut=    45.00 Ry     beta= 0.70
     Davidson diagonalization with overlap
     ethr =  4.39E-09,  avg # of iterations =  2.6

     End of self-consistent calculation

          k = 0.0000 0.0000 0.0000 ( 26149 PWs)   bands (ev):

    -8.0677  -7.9441  -7.8473  -6.9096  -6.7341  -6.6631  -6.3910  -6.3778
    -6.3675  -6.2615  -6.2511  -6.2288  -6.1622  -6.1479  -6.1326  -6.1038
    -6.0641  -6.0147  -5.9986  -5.9413  -5.9332  -5.8973  -5.8660  -5.8024
     0.2212   0.2993   0.3122   0.3161   0.4216   0.4329   0.4367   0.5156
     0.5257   0.5290   0.6517   0.7645   1.1713   1.1859   1.2158   1.3531
     1.3889   1.4128   1.4296   1.4629   1.4965   1.7737   1.7835   1.8116
     2.0926   2.1121   2.1242   2.1641   2.1915   2.2138   2.8342   2.8559
     2.8672   2.8788   2.8839   2.9110   2.9915   3.0123   3.0520   3.3794
     3.3854   3.3929   3.3980   3.5196   3.5356   3.6264   3.6373   3.8328
     3.8985   4.1190   4.1859   4.2917   4.3415   4.3936   4.4080   4.4666
     4.4981   4.5183   4.5353   4.5708   4.6152   4.6754   4.8646   4.9199
     4.9479   4.9701   4.9828   5.0463   5.0625   5.1029   5.1285   5.1908
     5.2045   5.2106   5.2406   5.4461   5.4655   5.4746   5.5412   5.5457
     5.5504   5.7047   6.1866   6.4430   7.8805   7.8972   7.9367   7.9608
     8.0039   8.0110   8.0347   8.0821   8.1401   8.3722   8.3940   8.4154
     8.4667   8.4886   8.5127   8.5546   8.5675   8.5845   8.5963   8.6084
     8.6373   8.6692

[...]

          k = 0.3333-0.5767 0.0650 ( 26263 PWs)   bands (ev):

    -7.1330  -7.1075  -7.0988  -7.0005  -6.9827  -6.9737  -6.9043  -6.8906
    -6.8685  -6.4719  -6.4219  -6.3712  -6.3188  -6.2730  -6.2518  -6.2405
    -6.2052  -6.1510  -6.1403  -6.0121  -5.9123  -5.8782  -5.7935  -5.7020
     0.7269   0.7921   0.9090   0.9706   0.9983   1.0267   1.2600   1.2766
     1.2982   1.3336   1.3620   1.3814   1.4745   1.5775   1.6801   1.9374
     1.9531   1.9851   2.0558   2.0949   2.1399   2.1647   2.2228   2.2522
     2.2943   2.3119   2.3279   2.3660   2.3825   2.3980   2.4223   2.4828
     2.5041   2.5208   2.5445   2.5588   2.5821   2.5971   2.6734   2.7404
     2.7764   2.8327   2.9612   3.0007   3.0232   3.0407   3.0565   3.1107
     3.1384   3.2168   3.2874   3.5658   3.9072   3.9447   3.9740   4.0045
     4.0392   4.0773   4.1173   4.1563   4.1717   4.1846   4.2714   4.5605
     4.6267   4.6869   4.9291   4.9774   5.0299   5.0794   5.1000   5.1140
     5.1526   5.1688   5.1976   5.2725   5.2996   5.3251   5.3470   5.3525
     5.3960   5.9246   5.9810   6.0787   7.4012   7.4453   7.5509   7.5832
     7.6230   7.6590   7.8190   7.8462   7.8942   7.9485   7.9804   8.0700
     8.1546   8.1842   8.2356   8.2745   8.3119   8.3302   8.3434   8.3829
     8.4000   8.4323

     the Fermi energy is     6.2640 ev

!    total energy              =    -845.48949276 Ry
     Harris-Foulkes estimate   =    -845.48949334 Ry
     estimated scf accuracy    <       0.00000062 Ry

     The total energy is the sum of the following terms:

     one-electron contribution =    -219.34470057 Ry
     hartree contribution      =     230.53177504 Ry
     xc contribution           =    -334.02590551 Ry
     ewald contribution        =    -522.66585925 Ry
     smearing contrib. (-TS)   =       0.01519752 Ry

     convergence has been achieved in  15 iterations

     Forces acting on atoms (cartesian axes, Ry/au):

     atom    1 type  1   force =     0.03179644   -0.02955376   -0.00893761
     atom    2 type  1   force =     0.01623119    0.00147127   -0.00230077
     atom    3 type  1   force =    -0.01587173    0.01601313   -0.00455461
     atom    4 type  1   force =    -0.02470096    0.02773592    0.00384732
     atom    5 type  1   force =    -0.01071543   -0.02193041   -0.00000814
     atom    6 type  1   force =     0.00567819    0.03203837    0.00056650
     atom    7 type  1   force =    -0.02111854    0.01868240   -0.00535424
     atom    8 type  1   force =     0.02223150   -0.01693411   -0.00503672
     atom    9 type  1   force =     0.00256897   -0.03819832    0.01679918
     atom   10 type  1   force =     0.01577454    0.02911264    0.00504830
     atom   11 type  1   force =    -0.01237123    0.02582744    0.00761752
     atom   12 type  1   force =     0.00294222   -0.00567656   -0.00232582
     atom   13 type  2   force =     0.00305259   -0.00028302   -0.01123848
     atom   14 type  2   force =     0.00205940   -0.00995081    0.00020428
     atom   15 type  2   force =    -0.00001821   -0.00772994   -0.00966330
     atom   16 type  2   force =    -0.00060403    0.00216477   -0.00890151
     atom   17 type  2   force =    -0.00224773   -0.00140100    0.00823889
     atom   18 type  2   force =     0.00383112   -0.00528912    0.00745112
     atom   19 type  2   force =    -0.00186085   -0.00546859    0.00081958
     atom   20 type  2   force =     0.00145982   -0.00037428    0.01010292
     atom   21 type  2   force =     0.00311637   -0.00002951   -0.00326755
     atom   22 type  2   force =    -0.00074910   -0.00431067   -0.00219300
     atom   23 type  2   force =    -0.00021848    0.00510697    0.00049279
     atom   24 type  2   force =    -0.00903314   -0.00405861   -0.00486714
     atom   25 type  2   force =    -0.00435252   -0.00308164   -0.00099128
     atom   26 type  2   force =    -0.00496889    0.00500938    0.00703007
     atom   27 type  2   force =     0.00269521   -0.00148455    0.00547439
     atom   28 type  2   force =     0.00586043   -0.00582591    0.00328447
     atom   29 type  2   force =     0.00907778    0.00064941   -0.00831500
     atom   30 type  2   force =     0.00010602   -0.00216247   -0.01676906
     atom   31 type  2   force =     0.00690295    0.00224978   -0.02191033
     atom   32 type  2   force =    -0.00377126   -0.00215954   -0.01450719
     atom   33 type  2   force =    -0.01496206   -0.00364258    0.02498209
     atom   34 type  2   force =    -0.00281344    0.00666084    0.00617059
     atom   35 type  2   force =    -0.00781287   -0.00471016    0.01046217
     atom   36 type  2   force =     0.00280572    0.00153327    0.01254957

     Total force =     0.122381     Total SCF correction =     0.002019

     General routines

     Parallel routines

   This run was terminated on:  18:25:42   2Sep2021

   JOB DONE.