     Program PWSCF v.6.4 starts on  2Sep2021 at 22:36:30

     R & G space division:  proc/nbgrp/npool/nimage =      40
     Waiting for input...
     Reading input from standard input
Warning: card    &IONS ignored
Warning: card      ION_DYNAMICS = 'BFGS' ignored
Warning: card   / ignored
Warning: card    &CELL ignored
Warning: card      CELL_DYNAMICS = 'BFGS', ignored
Warning: card    / ignored

     Current dimensions of program PWSCF are:
     Max number of different atomic species (ntypx) = 10
     Max number of k-points (npk) =  40000
     Max angular momentum in pseudopotentials (lmaxx) =  3

     Found symmetry operation: I + (  0.5000 -0.5000 -0.0000)
     This is a supercell, fractional translations are disabled

     bravais-lattice index     =            0
     lattice parameter (alat)  =      12.2015  a.u.
     unit-cell volume          =    5363.6838 (a.u.)^3
     number of atoms/cell      =           36
     number of atomic types    =            2
     number of electrons       =       216.00
     number of Kohn-Sham states=          130
     kinetic-energy cutoff     =      45.0000  Ry
     charge density cutoff     =     360.0000  Ry
     convergence threshold     =      1.0E-06
     mixing beta               =       0.7000
     number of iterations used =            8  local-TF  mixing
     Exchange-correlation      = SLA PW GGX GGC ( 1  4  2  2 0 0)

     celldm(1)=  12.201522  celldm(2)=   0.000000  celldm(3)=   0.000000
     celldm(4)=   0.000000  celldm(5)=   0.000000  celldm(6)=   0.000000

     crystal axes: (cart. coord. in units of alat)
               a(1) = (   1.000000   0.000000   0.000000 )
               a(2) = (   0.501163   0.865505   0.000000 )
               a(3) = (  -0.434153   0.130214   3.411549 )

     reciprocal axes: (cart. coord. in units 2 pi/alat)
               b(1) = (  1.000000 -0.579041  0.149361 )
               b(2) = (  0.000000  1.155395 -0.044100 )
               b(3) = (  0.000000  0.000000  0.293122 )

     PseudoPot. # 1 for Mo read from file:
     ~/pseudo/Mo.pw91-n-van.UPF
     MD5 check sum: Not computed, couldn't open file
     Pseudo is Ultrasoft + core correction, Zval =  6.0
     Generated by new atomic code, or converted to UPF format
     Using radial grid of  965 points,  3 beta functions with:
                l(1) =   1
                l(2) =   2
                l(3) =   2
     Q(r) pseudized with  8 coefficients,  rinner =    1.000   1.000   1.000
                                                       1.200   1.200

     PseudoPot. # 2 for S  read from file:
     ~/pseudo/S.pw91-van_ak.UPF
     MD5 check sum: Not computed, couldn't open file
     Pseudo is Ultrasoft, Zval =  6.0
     Generated by new atomic code, or converted to UPF format
     Using radial grid of  811 points,  6 beta functions with:
                l(1) =   0
                l(2) =   0
                l(3) =   1
                l(4) =   1
                l(5) =   2
                l(6) =   2
     Q(r) pseudized with  8 coefficients,  rinner =    1.100   1.100   1.100
                                                       1.100   1.100

     atomic species   valence    mass     pseudopotential
        Mo             6.00    95.50000     Mo( 1.00)
        S              6.00    32.06500     S ( 1.00)

     No symmetry found

   Cartesian axes

     site n.     atom                  positions (alat units)
         1           Mo  tau(   1) = (   0.6344730   0.7178581   1.2182208  )
         2           Mo  tau(   2) = (   0.8838909   0.2851066   1.2182198  )
         3           Mo  tau(   3) = (   1.1344725   0.7178579   1.2182178  )
         4           Mo  tau(   4) = (   0.3838903   0.2851060   1.2182192  )
         5           Mo  tau(   5) = (   0.7658163   0.6311744   2.2732988  )
         6           Mo  tau(   6) = (   0.0152347   0.1984229   2.2732966  )
         7           Mo  tau(   7) = (   0.2658140   0.6311744   2.2733033  )
         8           Mo  tau(   8) = (   0.5152329   0.1984211   2.2733032  )
         9           Mo  tau(   9) = (   0.4824631   0.2149569   3.3299219  )
        10           Mo  tau(  10) = (   0.2330454   0.6477110   3.3299250  )
        11           Mo  tau(  11) = (  -0.0175342   0.2149581   3.3299241  )
        12           Mo  tau(  12) = (   0.7330458   0.6477108   3.3299223  )
        13           S   tau(  13) = (   0.9167767   0.3735016   0.1618179  )
        14           S   tau(  14) = (   0.6673561   0.8062583   0.1618192  )
        15           S   tau(  15) = (   0.4167753   0.3735034   0.1618197  )
        16           S   tau(  16) = (   1.1673570   0.8062541   0.1618202  )
        17           S   tau(  17) = (   0.3842296   0.5736135   0.9752795  )
        18           S   tau(  18) = (   0.6336463   0.1408616   0.9752794  )
        19           S   tau(  19) = (   0.8842272   0.5736130   0.9752791  )
        20           S   tau(  20) = (   0.1336457   0.1408601   0.9752804  )
        21           S   tau(  21) = (   0.3848314   0.5734059   1.4635162  )
        22           S   tau(  22) = (   0.6342506   0.1406532   1.4635147  )
        23           S   tau(  23) = (   0.8848336   0.5734068   1.4635171  )
        24           S   tau(  24) = (   0.1342505   0.1406541   1.4635172  )
        25           S   tau(  25) = (   0.0155189   0.4869850   2.0284277  )
        26           S   tau(  26) = (   0.7661001   0.9197351   2.0284282  )
        27           S   tau(  27) = (   0.5155154   0.4869811   2.0284332  )
        28           S   tau(  28) = (   0.2660962   0.9197336   2.0284316  )
        29           S   tau(  29) = (   0.0155364   0.4870758   2.5178083  )
        30           S   tau(  30) = (   0.7661165   0.9198296   2.5178075  )
        31           S   tau(  31) = (   0.5155397   0.4870795   2.5178085  )
        32           S   tau(  32) = (   0.2661220   0.9198329   2.5178081  )
        33           S   tau(  33) = (   0.4834430   0.5030675   3.0845801  )
        34           S   tau(  34) = (   0.2340271   0.9358184   3.0845807  )
        35           S   tau(  35) = (  -0.0165544   0.5030670   3.0845802  )
        36           S   tau(  36) = (   0.7340253   0.9358191   3.0845786  )

     number of k points=     5  Marzari-Vanderbilt smearing, width (Ry)=  0.0200
                       cart. coord. in units 2pi/alat
        k(    1) = (   0.0000000   0.0000000   0.0000000), wk =   0.2222222
        k(    2) = (   0.0000000   0.3851316  -0.0146999), wk =   0.4444444
        k(    3) = (   0.3333333  -0.1930136   0.0497870), wk =   0.4444444
        k(    4) = (   0.3333333   0.1921181   0.0350871), wk =   0.4444444
        k(    5) = (   0.3333333  -0.5781452   0.0644869), wk =   0.4444444

     Initial potential from superposition of free atoms

     starting charge  215.98107, renormalised to  216.00000
     Starting wfcs are  204 randomized atomic wfcs

     Self-consistent Calculation

     iteration #  1     ecut=    45.00 Ry     beta= 0.70
     Davidson diagonalization with overlap
     ethr =  1.00E-02,  avg # of iterations =  2.0

     total energy              =    -844.20588609 Ry
     Harris-Foulkes estimate   =    -846.86618085 Ry
     estimated scf accuracy    <       6.81046371 Ry

[...]

     total energy              =    -845.53338100 Ry
     Harris-Foulkes estimate   =    -845.53338277 Ry
     estimated scf accuracy    <       0.00000698 Ry

     iteration # 12     ecut=    45.00 Ry     beta= 0.70
     Davidson diagonalization with overlap
     ethr =  3.23E-09,  avg # of iterations =  3.4

     End of self-consistent calculation

          k = 0.0000 0.0000 0.0000 ( 27289 PWs)   bands (ev):

    -8.4919  -8.4447  -8.4279  -7.3222  -7.2514  -7.2177  -6.7866  -6.7816
    -6.7780  -6.7459  -6.7412  -6.7408  -6.7321  -6.7304  -6.7283  -6.5122
    -6.5065  -6.5044  -6.4624  -6.4578  -6.4550  -6.4497  -6.4464  -6.4450
    -0.1250  -0.1227  -0.1196  -0.1154  -0.0751  -0.0721  -0.0715  -0.0566
    -0.0539  -0.0537   0.0728   0.2090   0.7928   0.7935   0.8043   0.8636
     0.8720   0.8753   0.8952   0.9043   0.9068   1.4113   1.4135   1.4380
     1.5307   1.5389   1.5456   1.6160   1.6237   1.6277   2.3846   2.3847
     2.3981   2.4082   2.4114   2.4134   2.4151   2.4267   2.4284   2.8967
     2.9130   2.9148   2.9195   2.9280   2.9334   3.4165   3.4408   3.4537
     3.4804   3.6824   3.6872   3.6928   3.7835   3.8394   3.8619   3.8681
     3.9980   4.0060   4.0204   4.0237   4.0381   4.0393   4.3205   4.5043
     4.5097   4.5216   4.5429   4.5458   4.5499   4.5524   4.5576   4.5621
     4.7710   4.7747   4.7795   4.8794   4.8869   4.8897   4.9547   4.9590
     4.9607   5.2797   5.6273   5.7796   7.4684   7.4698   7.4702   7.4995
     7.4997   7.5011   7.5027   7.5030   7.5054   7.9518   7.9546   7.9645
     8.0134   8.0163   8.0205   8.0355   8.0403   8.0407   8.1342   8.1490
     8.1801   8.1843

[...]

          k = 0.3333-0.5781 0.0645 ( 27416 PWs)   bands (ev):

    -7.5291  -7.5280  -7.5257  -7.4839  -7.4832  -7.4814  -7.4676  -7.4675
    -7.4656  -6.8512  -6.8508  -6.8484  -6.7926  -6.7906  -6.7889  -6.7703
    -6.7697  -6.7682  -6.5460  -6.5081  -6.4970  -6.3479  -6.3009  -6.2912
     0.2732   0.3067   0.3129   0.6250   0.6257   0.6268   0.7316   0.7331
     0.7373   0.8076   0.8092   0.8113   1.0334   1.0834   1.0948   1.5336
     1.5760   1.5885   1.6446   1.6478   1.6484   1.7276   1.7293   1.7317
     1.8139   1.8165   1.8176   1.8362   1.9365   1.9370   1.9371   1.9741
     1.9965   1.9990   1.9994   2.0106   2.0129   2.0159   2.0927   2.3318
     2.3324   2.3358   2.4366   2.4409   2.4461   2.5089   2.5106   2.5160
     2.6157   2.6870   2.7105   3.2031   3.4057   3.5439   3.5449   3.5456
     3.5459   3.5758   3.5772   3.5794   3.5799   3.5813   3.5833   4.2598
     4.2617   4.2662   4.4271   4.4447   4.4470   4.5971   4.6005   4.6241
     4.6874   4.6916   4.6964   4.7385   4.7389   4.7429   4.7575   4.7577
     4.7609   5.4246   5.4634   5.4697   7.0268   7.0570   7.0583   7.1746
     7.1805   7.1850   7.3428   7.3498   7.3694   7.4615   7.4686   7.4747
     7.7277   7.7298   7.7323   7.7855   7.7872   7.7902   7.8635   7.8802
     7.8859   7.9742

     the Fermi energy is     5.6636 ev

!    total energy              =    -845.53338145 Ry
     Harris-Foulkes estimate   =    -845.53338223 Ry
     estimated scf accuracy    <       0.00000087 Ry

     The total energy is the sum of the following terms:

     one-electron contribution =    -351.35139884 Ry
     hartree contribution      =     292.51385735 Ry
     xc contribution           =    -334.00693069 Ry
     ewald contribution        =    -452.70637903 Ry
     smearing contrib. (-TS)   =       0.01746976 Ry

     convergence has been achieved in  12 iterations

     Forces acting on atoms (cartesian axes, Ry/au):

     atom    1 type  1   force =     0.00117351    0.00001163    0.00882439
     atom    2 type  1   force =     0.00106176   -0.00073585    0.00880351
     atom    3 type  1   force =     0.00035867   -0.00032736    0.00865394
     atom    4 type  1   force =     0.00047339   -0.00120447    0.00879702
     atom    5 type  1   force =    -0.00096009    0.00049704   -0.00120128
     atom    6 type  1   force =    -0.00098552   -0.00031307   -0.00125321
     atom    7 type  1   force =    -0.00034478    0.00088203   -0.00115783
     atom    8 type  1   force =    -0.00031538    0.00004402   -0.00111073
     atom    9 type  1   force =     0.00040416   -0.00098051   -0.00674272
     atom   10 type  1   force =    -0.00009723   -0.00025777   -0.00668519
     atom   11 type  1   force =     0.00052174   -0.00032559   -0.00669369
     atom   12 type  1   force =     0.00100807   -0.00019767   -0.00660966
     atom   13 type  2   force =     0.00048692   -0.00042955    0.00166901
     atom   14 type  2   force =     0.00057701   -0.00071764    0.00169612
     atom   15 type  2   force =     0.00083553   -0.00039571    0.00160604
     atom   16 type  2   force =     0.00081890   -0.00046429    0.00192294
     atom   17 type  2   force =     0.00019397   -0.00005703   -0.00430381
     atom   18 type  2   force =     0.00026712    0.00034241   -0.00411436
     atom   19 type  2   force =     0.00015150   -0.00024245   -0.00425358
     atom   20 type  2   force =     0.00022702    0.00031927   -0.00405418
     atom   21 type  2   force =    -0.00168687    0.00085417   -0.00705842
     atom   22 type  2   force =    -0.00158402    0.00089050   -0.00671029
     atom   23 type  2   force =    -0.00158988    0.00082124   -0.00669672
     atom   24 type  2   force =    -0.00172031    0.00087337   -0.00679943
     atom   25 type  2   force =     0.00094757   -0.00061722    0.00544278
     atom   26 type  2   force =     0.00094609   -0.00028395    0.00542224
     atom   27 type  2   force =     0.00112703   -0.00072346    0.00531821
     atom   28 type  2   force =     0.00091357   -0.00013117    0.00568931
     atom   29 type  2   force =     0.00053152   -0.00037549   -0.00593184
     atom   30 type  2   force =     0.00056655   -0.00038076   -0.00574881
     atom   31 type  2   force =     0.00064224   -0.00038632   -0.00589705
     atom   32 type  2   force =     0.00069148   -0.00037734   -0.00567554
     atom   33 type  2   force =    -0.00140801    0.00110470    0.00871759
     atom   34 type  2   force =    -0.00126968    0.00119487    0.00878499
     atom   35 type  2   force =    -0.00146418    0.00088971    0.00849791
     atom   36 type  2   force =    -0.00149938    0.00119970    0.00885233

     Total force =     0.036964     Total SCF correction =     0.002531

     General routines

     Parallel routines

   This run was terminated on:  22:37:54   2Sep2021

   JOB DONE.