     Program PWSCF v.6.4 starts on 24Dec2021 at 20: 8:19

     R & G space division:  proc/nbgrp/npool/nimage =      40
     Waiting for input...
     Reading input from standard input
Warning: card    &IONS ignored
Warning: card      ION_DYNAMICS = 'BFGS' ignored
Warning: card   / ignored
Warning: card    &CELL ignored
Warning: card      CELL_DYNAMICS = 'BFGS', ignored
Warning: card    / ignored

     Current dimensions of program PWSCF are:
     Max number of different atomic species (ntypx) = 10
     Max number of k-points (npk) =  40000
     Max angular momentum in pseudopotentials (lmaxx) =  3

     bravais-lattice index     =            0
     lattice parameter (alat)  =      18.5765  a.u.
     unit-cell volume          =    6292.7802 (a.u.)^3
     number of atoms/cell      =           42
     number of atomic types    =            2
     number of electrons       =       252.00
     number of Kohn-Sham states=          151
     kinetic-energy cutoff     =      45.0000  Ry
     charge density cutoff     =     360.0000  Ry
     convergence threshold     =      1.0E-06
     mixing beta               =       0.7000
     number of iterations used =            8  local-TF  mixing
     Exchange-correlation      = SLA PW GGX GGC ( 1  4  2  2 0 0)

     celldm(1)=  18.576529  celldm(2)=   0.000000  celldm(3)=   0.000000
     celldm(4)=   0.000000  celldm(5)=   0.000000  celldm(6)=   0.000000

     crystal axes: (cart. coord. in units of alat)
               a(1) = (   1.000000   0.000000   0.000000 )
               a(2) = (  -0.045611   0.984876   0.000000 )
               a(3) = (  -0.018526  -0.053654   0.996706 )

     reciprocal axes: (cart. coord. in units 2 pi/alat)
               b(1) = (  1.000000  0.046312  0.021080 )
               b(2) = (  0.000000  1.015356  0.054658 )
               b(3) = (  0.000000  0.000000  1.003305 )

     PseudoPot. # 1 for Mo read from file:
     ~/pseudo/Mo.pw91-n-van.UPF
     MD5 check sum: Not computed, couldn't open file
     Pseudo is Ultrasoft + core correction, Zval =  6.0
     Generated by new atomic code, or converted to UPF format
     Using radial grid of  965 points,  3 beta functions with:
                l(1) =   1
                l(2) =   2
                l(3) =   2
     Q(r) pseudized with  8 coefficients,  rinner =    1.000   1.000   1.000
                                                       1.200   1.200

     PseudoPot. # 2 for S  read from file:
     ~/pseudo/S.pw91-van_ak.UPF
     MD5 check sum: Not computed, couldn't open file
     Pseudo is Ultrasoft, Zval =  6.0
     Generated by new atomic code, or converted to UPF format
     Using radial grid of  811 points,  6 beta functions with:
                l(1) =   0
                l(2) =   0
                l(3) =   1
                l(4) =   1
                l(5) =   2
                l(6) =   2
     Q(r) pseudized with  8 coefficients,  rinner =    1.100   1.100   1.100
                                                       1.100   1.100

     atomic species   valence    mass     pseudopotential
        Mo             6.00    95.50000     Mo( 1.00)
        S              6.00    32.06500     S ( 1.00)

     No symmetry found

   Cartesian axes

     site n.     atom                  positions (alat units)
         1           Mo  tau(   1) = (   0.6034164   0.3097548   0.8473560  )
         2           Mo  tau(   2) = (   0.6189984   0.1275765   0.6320904  )
         3           Mo  tau(   3) = (   0.8292829   0.1254128   0.8495509  )
         4           Mo  tau(   4) = (   0.8292014   0.3267280   0.6416775  )
         5           Mo  tau(   5) = (   0.1334313   0.3307996   0.3638269  )
         6           Mo  tau(   6) = (   0.1262368   0.1377436   0.1314207  )
         7           Mo  tau(   7) = (   0.3394626   0.1371416   0.3480768  )
         8           Mo  tau(   8) = (   0.3377670   0.3438384   0.1482097  )
         9           Mo  tau(   9) = (   0.0884564   0.5558959   0.6043988  )
        10           Mo  tau(  10) = (   0.3591357   0.5152173   0.8862987  )
        11           Mo  tau(  11) = (   0.3262591   0.8453832   0.5714315  )
        12           Mo  tau(  12) = (   0.5314922   0.8530017   0.3691338  )
        13           Mo  tau(  13) = (   0.5503336   0.5942933   0.1295515  )
        14           Mo  tau(  14) = (   0.8579489   0.5409876   0.4371734  )
        15           S   tau(  15) = (   0.5961150   0.0636580   0.8694253  )
        16           S   tau(  16) = (   0.5882092   0.3687276   0.6123517  )
        17           S   tau(  17) = (   0.0904329   0.3143139   0.6168354  )
        18           S   tau(  18) = (   0.0813438   0.1020501   0.8695741  )
        19           S   tau(  19) = (   0.3639483   0.1007490   0.6039434  )
        20           S   tau(  20) = (   0.3508362   0.2848295   0.8836672  )
        21           S   tau(  21) = (   0.3288500   0.6096015   0.6573816  )
        22           S   tau(  22) = (   0.0983357   0.0881051   0.3661987  )
        23           S   tau(  23) = (   0.0940117   0.3753461   0.1259034  )
        24           S   tau(  24) = (   0.5998238   0.3572741   0.1172591  )
        25           S   tau(  25) = (   0.5976014   0.1111009   0.3748492  )
        26           S   tau(  26) = (   0.8684104   0.1179531   0.0971666  )
        27           S   tau(  27) = (   0.8629340   0.3150162   0.3810221  )
        28           S   tau(  28) = (   0.1097621   0.5416862   0.8644142  )
        29           S   tau(  29) = (   0.8412554   0.3548821   0.8887421  )
        30           S   tau(  30) = (   0.0900918   0.8139528   0.6310454  )
        31           S   tau(  31) = (   0.5664607   0.8440437   0.6110685  )
        32           S   tau(  32) = (   0.5928881   0.5661982   0.8919433  )
        33           S   tau(  33) = (   0.8521655   0.5845919   0.6657416  )
        34           S   tau(  34) = (   0.8589950   0.0783095   0.6145340  )
        35           S   tau(  35) = (   0.6439251   0.6280111   0.3566719  )
        36           S   tau(  36) = (   0.3696866   0.3791210   0.3871882  )
        37           S   tau(  37) = (   0.5973087   0.8401857   0.1314314  )
        38           S   tau(  38) = (   0.0473607   0.8661993   0.0765458  )
        39           S   tau(  39) = (   0.0795827   0.5846766   0.3655108  )
        40           S   tau(  40) = (   0.3190532   0.6016120   0.1197863  )
        41           S   tau(  41) = (   0.2994552   0.8554033   0.3414712  )
        42           S   tau(  42) = (   0.3643355   0.1022526   0.1060172  )

     number of k points=     8  Marzari-Vanderbilt smearing, width (Ry)=  0.0200
                       cart. coord. in units 2pi/alat
        k(    1) = (   0.0000000   0.0000000   0.0000000), wk =   0.2500000
        k(    2) = (   0.0000000   0.0000000  -0.5016523), wk =   0.2500000
        k(    3) = (   0.0000000  -0.5076780  -0.0273292), wk =   0.2500000
        k(    4) = (   0.0000000  -0.5076780  -0.5289815), wk =   0.2500000
        k(    5) = (  -0.5000000  -0.0231559  -0.0105400), wk =   0.2500000
        k(    6) = (  -0.5000000  -0.0231559  -0.5121923), wk =   0.2500000
        k(    7) = (  -0.5000000  -0.5308338  -0.0378692), wk =   0.2500000
        k(    8) = (  -0.5000000  -0.5308338  -0.5395215), wk =   0.2500000

     Initial potential from superposition of free atoms

     starting charge  251.97792, renormalised to  252.00000
     Starting wfcs are  238 randomized atomic wfcs

     Self-consistent Calculation

     iteration #  1     ecut=    45.00 Ry     beta= 0.70
     Davidson diagonalization with overlap
     ethr =  1.00E-02,  avg # of iterations =  2.0

     total energy              =    -983.19889900 Ry
     Harris-Foulkes estimate   =    -987.00866081 Ry
     estimated scf accuracy    <      10.78294676 Ry

[...]

     total energy              =    -985.17971770 Ry
     Harris-Foulkes estimate   =    -985.17971780 Ry
     estimated scf accuracy    <       0.00000120 Ry

     iteration # 15     ecut=    45.00 Ry     beta= 0.70
     Davidson diagonalization with overlap
     ethr =  4.78E-10,  avg # of iterations =  4.0

     End of self-consistent calculation

          k = 0.0000 0.0000 0.0000 ( 32077 PWs)   bands (ev):

    -8.2955  -7.7578  -7.6746  -7.6192  -7.4785  -7.3999  -7.2742  -7.2474
    -7.1986  -7.1096  -7.0498  -7.0091  -6.9855  -6.9568  -6.8960  -6.8849
    -6.8543  -6.7862  -6.7377  -6.5621  -6.5469  -6.4588  -5.9583  -5.8251
    -5.7060  -5.6525  -5.4397  -4.9880  -0.1671  -0.0716  -0.0107   0.0107
     0.3755   0.4123   0.4523   0.5063   0.6004   0.7617   0.7777   0.7901
     0.8595   0.9678   0.9935   1.1229   1.1534   1.2893   1.3154   1.3410
     1.3792   1.4264   1.4750   1.4828   1.5226   1.5548   1.6123   1.6584
     1.7811   1.8019   1.8529   1.8738   1.9695   2.0080   2.0309   2.0495
     2.0976   2.1240   2.1715   2.2239   2.2553   2.2941   2.3466   2.3879
     2.4432   2.4917   2.5218   2.5759   2.6296   2.6813   2.7161   2.7604
     2.8072   2.8507   2.8731   2.9059   2.9986   3.0054   3.1060   3.2153
     3.2763   3.3836   3.4576   3.5081   3.5422   3.5780   3.6208   3.7036
     3.8405   3.8919   3.9537   3.9903   4.0733   4.1108   4.1781   4.2605
     4.3083   4.3655   4.4837   4.5662   4.5795   4.7300   4.7968   4.8460
     4.9152   5.0521   5.1028   5.1245   5.1415   5.1641   5.2361   5.3447
     5.3924   5.5543   5.5926   5.7628   5.8084   5.8293   5.9096   6.0079
     6.0482   6.0970   6.3194   6.4257   6.5322   6.6123   6.7054   6.7891
     6.8735   6.9534   7.0265   7.1817   7.2809   7.3262   7.4107   7.4328
     7.4736   7.5420   7.6015   7.7380   7.7819   7.8259   7.8894

[...]

          k = 0.0000-0.5077-0.5290 ( 32054 PWs)   bands (ev):

[...]

          k =-0.5000-0.0232-0.0105 ( 32070 PWs)   bands (ev):

[...]

          k =-0.5000-0.5308-0.5395 ( 32088 PWs)   bands (ev):

    -8.0055  -7.8938  -7.8246  -7.7243  -7.4850  -7.4204  -7.3650  -7.2078
    -7.1876  -7.1066  -7.0562  -7.0271  -6.9855  -6.9576  -6.9074  -6.8960
    -6.8129  -6.7851  -6.6210  -6.5948  -6.5121  -6.4598  -5.9327  -5.8160
    -5.6938  -5.6245  -5.4374  -4.9844   0.1544   0.1989   0.2432   0.3009
     0.4795   0.4975   0.5323   0.5607   0.6431   0.6641   0.6998   0.7957
     0.8407   0.9070   0.9568   0.9912   0.9966   1.0635   1.1007   1.1492
     1.1720   1.2055   1.2388   1.3224   1.3346   1.3655   1.4718   1.5530
     1.6659   1.6935   1.7760   1.8596   1.9290   1.9556   2.0621   2.0691
     2.1396   2.1428   2.1794   2.2570   2.3017   2.3181   2.3543   2.4084
     2.4248   2.4713   2.5388   2.5754   2.5852   2.6413   2.6682   2.7429
     2.7602   2.8703   2.9084   2.9550   3.1122   3.1187   3.1975   3.2384
     3.2583   3.4058   3.4873   3.5254   3.6136   3.7053   3.7347   3.7621
     3.8569   3.9372   3.9785   4.0792   4.1320   4.2196   4.2874   4.3031
     4.3721   4.4217   4.4880   4.5455   4.6685   4.7606   4.8276   4.8931
     4.9005   5.0674   5.1107   5.1697   5.2777   5.2886   5.3240   5.4264
     5.5039   5.6332   5.6663   5.7521   5.8209   5.8972   5.9002   6.0390
     6.0727   6.2345   6.2542   6.3542   6.3946   6.5458   6.6230   6.7089
     6.7580   6.9093   6.9578   7.0410   7.1083   7.2680   7.3192   7.3787
     7.5057   7.5603   7.6076   7.6951   7.7779   7.8171   7.9087

     the Fermi energy is     5.9050 ev

!    total energy              =    -985.17971712 Ry
     Harris-Foulkes estimate   =    -985.17971799 Ry
     estimated scf accuracy    <       0.00000099 Ry

     The total energy is the sum of the following terms:

     one-electron contribution =    -132.41689619 Ry
     hartree contribution      =     203.05596740 Ry
     xc contribution           =    -388.76739315 Ry
     ewald contribution        =    -667.04380298 Ry
     smearing contrib. (-TS)   =      -0.00759221 Ry

     convergence has been achieved in  15 iterations

     Forces acting on atoms (cartesian axes, Ry/au):

     atom    1 type  1   force =    -0.01129119    0.01937955    0.03130978
     atom    2 type  1   force =     0.00872011   -0.04038472    0.00261856
     atom    3 type  1   force =     0.05194655   -0.02721757    0.06715953
     atom    4 type  1   force =     0.02606696    0.03918282   -0.02738124
     atom    5 type  1   force =    -0.04984711    0.02626442    0.02464445
     atom    6 type  1   force =     0.00144704   -0.04563065   -0.02594620
     atom    7 type  1   force =    -0.00014221   -0.03888750   -0.00606005
     atom    8 type  1   force =     0.02658238    0.02999652   -0.02738665
     atom    9 type  1   force =    -0.02381841   -0.01554128    0.06957011
     atom   10 type  1   force =    -0.06243477   -0.02284918    0.01273959
     atom   11 type  1   force =    -0.04541274    0.01734182    0.04129785
     atom   12 type  1   force =     0.02923872    0.00852495   -0.02195358
     atom   13 type  1   force =     0.01305539    0.03265622   -0.01777226
     atom   14 type  1   force =    -0.01457141   -0.01597686   -0.05046170
     atom   15 type  2   force =    -0.00379197    0.00599115   -0.00615039
     atom   16 type  2   force =    -0.00034699   -0.01064944   -0.00677805
     atom   17 type  2   force =     0.01122037    0.00031845    0.00489281
     atom   18 type  2   force =    -0.03124412   -0.01615249    0.00708055
     atom   19 type  2   force =    -0.00530191   -0.00523868    0.00969838
     atom   20 type  2   force =    -0.00047104   -0.00563854   -0.01580221
     atom   21 type  2   force =     0.02002720   -0.00144171   -0.01118754
     atom   22 type  2   force =     0.00275349    0.00220548    0.01077170
     atom   23 type  2   force =    -0.00157276   -0.01129405   -0.00824111
     atom   24 type  2   force =     0.00039986    0.00356638    0.00347817
     atom   25 type  2   force =     0.00674326   -0.00586273   -0.01025616
     atom   26 type  2   force =     0.01048728   -0.01246768   -0.03325946
     atom   27 type  2   force =    -0.00926496    0.01291324    0.01600984
     atom   28 type  2   force =     0.03289814    0.01916305   -0.01389966
     atom   29 type  2   force =     0.00484789   -0.00268020   -0.00500307
     atom   30 type  2   force =     0.02285787    0.00364948   -0.00538626
     atom   31 type  2   force =     0.00683897   -0.00607181   -0.00049502
     atom   32 type  2   force =     0.01760230    0.00993153   -0.00838587
     atom   33 type  2   force =    -0.00429461   -0.01341956    0.01054870
     atom   34 type  2   force =    -0.00988527    0.01485910    0.00063173
     atom   35 type  2   force =     0.02722133    0.00236048    0.02909842
     atom   36 type  2   force =    -0.00029604   -0.01404020    0.00145326
     atom   37 type  2   force =    -0.00190051   -0.01449797    0.00459774
     atom   38 type  2   force =    -0.00714934    0.06277654    0.00735896
     atom   39 type  2   force =     0.01290641    0.01997974   -0.03522414
     atom   40 type  2   force =    -0.02938996    0.00296926    0.01166627
     atom   41 type  2   force =    -0.02502198   -0.01481127   -0.03361658
     atom   42 type  2   force =     0.00358780    0.00672393    0.00402079

     Total force =     0.253549     Total SCF correction =     0.001731

     General routines

     Parallel routines

   This run was terminated on:  20:11:26  24Dec2021

   JOB DONE.