     Program PWSCF v.6.4 starts on  8Sep2021 at 11:23: 5

     R & G space division:  proc/nbgrp/npool/nimage =      40
     Waiting for input...
     Reading input from standard input
Warning: card    &IONS ignored
Warning: card      ION_DYNAMICS = 'BFGS' ignored
Warning: card   / ignored
Warning: card    &CELL ignored
Warning: card      CELL_DYNAMICS = 'BFGS', ignored
Warning: card    / ignored

     Current dimensions of program PWSCF are:
     Max number of different atomic species (ntypx) = 10
     Max number of k-points (npk) =  40000
     Max angular momentum in pseudopotentials (lmaxx) =  3

     bravais-lattice index     =            0
     lattice parameter (alat)  =      12.4898  a.u.
     unit-cell volume          =    3486.0243 (a.u.)^3
     number of atoms/cell      =           24
     number of atomic types    =            2
     number of electrons       =       144.00
     number of Kohn-Sham states=           86
     kinetic-energy cutoff     =      45.0000  Ry
     charge density cutoff     =     360.0000  Ry
     convergence threshold     =      1.0E-06
     mixing beta               =       0.7000
     number of iterations used =            8  local-TF  mixing
     Exchange-correlation      = SLA PW GGX GGC ( 1  4  2  2 0 0)

     celldm(1)=  12.489795  celldm(2)=   0.000000  celldm(3)=   0.000000
     celldm(4)=   0.000000  celldm(5)=   0.000000  celldm(6)=   0.000000

     crystal axes: (cart. coord. in units of alat)
               a(1) = (   0.999789   0.020426  -0.002120 )
               a(2) = (  -0.243674   0.418997  -0.001486 )
               a(3) = (  -0.235025   0.092739   4.221035 )

     reciprocal axes: (cart. coord. in units 2 pi/alat)
               b(1) = (  0.988552  0.575059  0.042408 )
               b(2) = ( -0.048298  2.358369 -0.054504 )
               b(3) = (  0.000479  0.001119  0.236911 )

     PseudoPot. # 1 for Mo read from file:
     ~/pseudo/Mo.pw91-n-van.UPF
     MD5 check sum: Not computed, couldn't open file
     Pseudo is Ultrasoft + core correction, Zval =  6.0
     Generated by new atomic code, or converted to UPF format
     Using radial grid of  965 points,  3 beta functions with:
                l(1) =   1
                l(2) =   2
                l(3) =   2
     Q(r) pseudized with  8 coefficients,  rinner =    1.000   1.000   1.000
                                                       1.200   1.200

     PseudoPot. # 2 for S  read from file:
     ~/pseudo/S.pw91-van_ak.UPF
     MD5 check sum: Not computed, couldn't open file
     Pseudo is Ultrasoft, Zval =  6.0
     Generated by new atomic code, or converted to UPF format
     Using radial grid of  811 points,  6 beta functions with:
                l(1) =   0
                l(2) =   0
                l(3) =   1
                l(4) =   1
                l(5) =   2
                l(6) =   2
     Q(r) pseudized with  8 coefficients,  rinner =    1.100   1.100   1.100
                                                       1.100   1.100

     atomic species   valence    mass     pseudopotential
        Mo             6.00    95.50000     Mo( 1.00)
        S              6.00    32.06500     S ( 1.00)

     No symmetry found

   Cartesian axes

     site n.     atom                  positions (alat units)
         1           Mo  tau(   1) = (   0.0809019   0.2154931   1.5319740  )
         2           Mo  tau(   2) = (  -0.2884870   0.1956683   3.7509594  )
         3           Mo  tau(   3) = (   0.5039928   0.1812590   1.5580495  )
         4           Mo  tau(   4) = (   0.2898257   0.2512544   3.7235359  )
         5           Mo  tau(   5) = (  -0.0108185  -0.1143759   0.5171631  )
         6           Mo  tau(   6) = (  -0.1766282  -0.0651014   2.6147483  )
         7           Mo  tau(   7) = (   0.4153528  -0.1480851   0.5422738  )
         8           Mo  tau(   8) = (   0.2471383  -0.0989503   2.6396682  )
         9           S   tau(   9) = (   0.2927556   0.3389034   1.8120101  )
        10           S   tau(  10) = (  -0.0019997   0.3617724   3.9379619  )
        11           S   tau(  11) = (   0.7908805   0.3484176   1.7428378  )
        12           S   tau(  12) = (   0.4981037   0.3744714   4.0020873  )
        13           S   tau(  13) = (  -0.0412904   0.1469056   0.2634413  )
        14           S   tau(  14) = (  -0.2093805   0.1959260   2.3594878  )
        15           S   tau(  15) = (   0.4585916   0.1584255   0.3252046  )
        16           S   tau(  16) = (   0.2921174   0.2069738   2.4223645  )
        17           S   tau(  17) = (  -0.0417125   0.4279194   0.7920634  )
        18           S   tau(  18) = (  -0.2077221   0.4784410   2.8919989  )
        19           S   tau(  19) = (   0.4584496   0.4379846   0.7302343  )
        20           S   tau(  20) = (   0.2910067   0.4873780   2.8274823  )
        21           S   tau(  21) = (   0.2935883   0.0576094   1.2799518  )
        22           S   tau(  22) = (   0.0029169   0.0850069   3.5367924  )
        23           S   tau(  23) = (   0.7937402   0.0687578   1.3441467  )
        24           S   tau(  24) = (   0.5012286   0.0926933   3.4698039  )

     number of k points=     8  Marzari-Vanderbilt smearing, width (Ry)=  0.0200
                       cart. coord. in units 2pi/alat
        k(    1) = (   0.0000000   0.0000000   0.0000000), wk =   0.1333333
        k(    2) = (  -0.0096597   0.4716737  -0.0109008), wk =   0.2666667
        k(    3) = (  -0.0193194   0.9433474  -0.0218017), wk =   0.2666667
        k(    4) = (   0.3295174   0.1916862   0.0141359), wk =   0.2666667
        k(    5) = (   0.3198577   0.6633599   0.0032350), wk =   0.2666667
        k(    6) = (   0.3101980   1.1350336  -0.0076658), wk =   0.2666667
        k(    7) = (   0.3488367  -0.7516612   0.0359375), wk =   0.2666667
        k(    8) = (   0.3391770  -0.2799875   0.0250367), wk =   0.2666667

     Initial potential from superposition of free atoms

     starting charge  143.98738, renormalised to  144.00000
     Starting wfcs are  136 randomized atomic wfcs

     Self-consistent Calculation

     iteration #  1     ecut=    45.00 Ry     beta= 0.70
     Davidson diagonalization with overlap
     ethr =  1.00E-02,  avg # of iterations =  2.0

     total energy              =    -562.37318870 Ry
     Harris-Foulkes estimate   =    -564.27684269 Ry
     estimated scf accuracy    <       4.98586473 Ry

[...]

     total energy              =    -563.37877113 Ry
     Harris-Foulkes estimate   =    -563.37877139 Ry
     estimated scf accuracy    <       0.00000165 Ry

     iteration # 15     ecut=    45.00 Ry     beta= 0.70
     Davidson diagonalization with overlap
     ethr =  1.15E-09,  avg # of iterations =  1.5

     End of self-consistent calculation

          k = 0.0000 0.0000 0.0000 ( 17881 PWs)   bands (ev):

    -8.0787  -8.0221  -7.9774  -7.9298  -7.1376  -7.0341  -6.9828  -6.9580
    -6.3682  -6.3326  -6.3125  -6.2784  -6.2724  -6.2571  -6.2363  -6.1803
     0.0511   0.1050   0.1434   0.1877   0.4569   0.6690   0.7313   0.8917
     1.3233   1.4000   1.4681   1.5256   1.5516   1.6549   1.6736   1.8057
     2.6463   2.6732   2.7274   2.7379   2.7426   2.7718   2.7929   2.8542
     3.0616   3.1322   3.1904   3.2157   3.3023   3.4661   3.5402   3.6363
     3.8180   4.0959   4.1225   4.3273   4.6818   4.7497   4.8013   4.8977
     4.9650   4.9993   5.0337   5.0778   5.2668   5.4606   5.4696   5.5622
     5.6546   5.6741   5.7150   5.7641   5.7833   5.8074   5.8542   5.8766
     6.3729   6.4019   6.4501   6.4682   6.5204   6.5971   6.6321   6.6461
     7.8372   7.9000   7.9184   7.9430   7.9510   7.9691

          k =-0.0097 0.4717-0.0109 ( 17807 PWs)   bands (ev):

[...]

          k =-0.0193 0.9433-0.0218 ( 17708 PWs)   bands (ev):

[...]

          k = 0.3392-0.2800 0.0250 ( 17798 PWs)   bands (ev):

    -7.6101  -7.5507  -7.5080  -7.4600  -6.9503  -6.8535  -6.8086  -6.7815
    -6.3392  -6.2930  -6.2636  -6.2095  -6.1478  -6.1163  -6.0666  -6.0483
     0.6044   0.6576   0.6897   0.7524   0.8772   0.9727   1.0321   1.0912
     1.2105   1.3416   1.4347   1.5313   1.5916   1.7311   1.7822   1.8077
     2.2402   2.3049   2.3738   2.4132   2.5452   2.6562   2.7033   2.7399
     2.7677   2.8230   2.8278   2.8486   3.1810   3.2494   3.2769   3.3252
     3.4356   3.4863   3.5446   3.5873   3.6251   3.6548   3.7178   3.7323
     4.4177   4.4635   4.5300   4.5616   4.9433   5.0448   5.1267   5.1586
     5.2035   5.2381   5.2754   5.3335   5.4358   5.5471   5.6461   5.6961
     6.3400   6.3686   6.3926   6.4623   7.0540   7.1123   7.1385   7.1825
     8.0342   8.1251   8.1640   8.1957   8.2909   8.3244

     the Fermi energy is     5.8795 ev

!    total energy              =    -563.37877088 Ry
     Harris-Foulkes estimate   =    -563.37877120 Ry
     estimated scf accuracy    <       0.00000039 Ry

     The total energy is the sum of the following terms:

     one-electron contribution =    -104.31754589 Ry
     hartree contribution      =     131.69531580 Ry
     xc contribution           =    -222.49419548 Ry
     ewald contribution        =    -368.27716446 Ry
     smearing contrib. (-TS)   =       0.01481917 Ry

     convergence has been achieved in  15 iterations

     Forces acting on atoms (cartesian axes, Ry/au):

     atom    1 type  1   force =     0.00296490    0.00124430    0.00143108
     atom    2 type  1   force =     0.00290396    0.00298830    0.00159473
     atom    3 type  1   force =    -0.00160347   -0.00125696    0.00273369
     atom    4 type  1   force =    -0.00466957   -0.00267916   -0.00254176
     atom    5 type  1   force =     0.00555110    0.00154622   -0.00061371
     atom    6 type  1   force =     0.00472616    0.00311066    0.00135684
     atom    7 type  1   force =    -0.00512465   -0.00252695   -0.00222315
     atom    8 type  1   force =    -0.00444552   -0.00264734   -0.00128888
     atom    9 type  2   force =    -0.00095525    0.00121504   -0.00345753
     atom   10 type  2   force =     0.00035528    0.00178295    0.00147844
     atom   11 type  2   force =    -0.00124482   -0.00072407    0.00770964
     atom   12 type  2   force =     0.00382862    0.00018652   -0.00078780
     atom   13 type  2   force =     0.00088338    0.00044753    0.00090156
     atom   14 type  2   force =     0.00034562   -0.00115618    0.00257296
     atom   15 type  2   force =     0.00312263    0.00046069   -0.00114807
     atom   16 type  2   force =     0.00331489    0.00151990    0.00103063
     atom   17 type  2   force =    -0.00250463   -0.00046716   -0.00267118
     atom   18 type  2   force =    -0.00005340    0.00026654   -0.00214117
     atom   19 type  2   force =    -0.00365347   -0.00157097   -0.00122629
     atom   20 type  2   force =    -0.00392230   -0.00120921   -0.00090855
     atom   21 type  2   force =     0.00161632    0.00139116    0.00436487
     atom   22 type  2   force =    -0.00107485   -0.00150388   -0.00264546
     atom   23 type  2   force =     0.00191004    0.00025759   -0.00416452
     atom   24 type  2   force =    -0.00227101   -0.00067550    0.00064363

     Total force =     0.021433     Total SCF correction =     0.001386

     General routines

     Parallel routines

   This run was terminated on:  11:24: 2   8Sep2021

   JOB DONE.