     Program PWSCF v.6.4 starts on  3Aug2021 at 15:38:22

     R & G space division:  proc/nbgrp/npool/nimage =      20
     Waiting for input...
     Reading input from standard input
Warning: card    &IONS ignored
Warning: card      ION_DYNAMICS = 'BFGS' ignored
Warning: card   / ignored
Warning: card    &CELL ignored
Warning: card      CELL_DYNAMICS = 'BFGS', ignored
Warning: card    / ignored

     Current dimensions of program PWSCF are:
     Max number of different atomic species (ntypx) = 10
     Max number of k-points (npk) =  40000
     Max angular momentum in pseudopotentials (lmaxx) =  3

     bravais-lattice index     =            0
     lattice parameter (alat)  =      12.6618  a.u.
     unit-cell volume          =    5873.0324 (a.u.)^3
     number of atoms/cell      =           36
     number of atomic types    =            2
     number of electrons       =       216.00
     number of Kohn-Sham states=          130
     kinetic-energy cutoff     =      45.0000  Ry
     charge density cutoff     =     360.0000  Ry
     convergence threshold     =      1.0E-06
     mixing beta               =       0.7000
     number of iterations used =            8  local-TF  mixing
     Exchange-correlation      = SLA PW GGX GGC ( 1  4  2  2 0 0)

     celldm(1)=  12.661831  celldm(2)=   0.000000  celldm(3)=   0.000000
     celldm(4)=   0.000000  celldm(5)=   0.000000  celldm(6)=   0.000000

     crystal axes: (cart. coord. in units of alat)
               a(1) = (   1.000000   0.000000   0.000000 )
               a(2) = (  -0.250000   0.433013   0.000000 )
               a(3) = (   0.000000   0.000000   6.681472 )

     reciprocal axes: (cart. coord. in units 2 pi/alat)
               b(1) = (  1.000000  0.577350  0.000000 )
               b(2) = (  0.000000  2.309401  0.000000 )
               b(3) = (  0.000000  0.000000  0.149668 )

     PseudoPot. # 1 for Mo read from file:
     ~/pseudo/Mo.pw91-n-van.UPF
     MD5 check sum: Not computed, couldn't open file
     Pseudo is Ultrasoft + core correction, Zval =  6.0
     Generated by new atomic code, or converted to UPF format
     Using radial grid of  965 points,  3 beta functions with:
                l(1) =   1
                l(2) =   2
                l(3) =   2
     Q(r) pseudized with  8 coefficients,  rinner =    1.000   1.000   1.000
                                                       1.200   1.200

     PseudoPot. # 2 for S  read from file:
     ~/pseudo/S.pw91-van_ak.UPF
     MD5 check sum: Not computed, couldn't open file
     Pseudo is Ultrasoft, Zval =  6.0
     Generated by new atomic code, or converted to UPF format
     Using radial grid of  811 points,  6 beta functions with:
                l(1) =   0
                l(2) =   0
                l(3) =   1
                l(4) =   1
                l(5) =   2
                l(6) =   2
     Q(r) pseudized with  8 coefficients,  rinner =    1.100   1.100   1.100
                                                       1.100   1.100

     atomic species   valence    mass     pseudopotential
        Mo             6.00    95.50000     Mo( 1.00)
        S              6.00    32.06500     S ( 1.00)

     No symmetry found

   Cartesian axes

     site n.     atom                  positions (alat units)
         1           Mo  tau(   1) = (   0.2453134   0.1429033   1.1269295  )
         2           Mo  tau(   2) = (   0.2580955   0.1345187   4.4457713  )
         3           Mo  tau(   3) = (   0.7413977   0.1479226   1.1011756  )
         4           Mo  tau(   4) = (   0.7363249   0.1449985   4.4476282  )
         5           Mo  tau(   5) = (   0.0075263   0.2759569   2.2284956  )
         6           Mo  tau(   6) = (   0.0069054   0.2919411   5.5543284  )
         7           Mo  tau(   7) = (   0.5133384   0.2895080   2.2330567  )
         8           Mo  tau(   8) = (   0.4940536   0.2789015   5.5767342  )
         9           Mo  tau(   9) = (  -0.0051822  -0.0051949   3.3529875  )
        10           Mo  tau(  10) = (  -0.0108217  -0.0024806   6.6707535  )
        11           Mo  tau(  11) = (   0.4981311  -0.0138529   3.3347618  )
        12           Mo  tau(  12) = (   0.5084996  -0.0121305   6.6788970  )
        13           S   tau(  13) = (  -0.0006845   0.2811049   0.2317047  )
        14           S   tau(  14) = (  -0.0116788   0.2973668   3.5819965  )
        15           S   tau(  15) = (   0.4958505   0.2965591   0.2565224  )
        16           S   tau(  16) = (   0.4946300   0.2906595   3.5990678  )
        17           S   tau(  17) = (   0.0021371   0.0129820   0.8745950  )
        18           S   tau(  18) = (   0.0014751   0.0046603   4.2223867  )
        19           S   tau(  19) = (   0.4859311  -0.0010920   0.8626893  )
        20           S   tau(  20) = (   0.4968359   0.0143786   4.2107324  )
        21           S   tau(  21) = (  -0.0023870  -0.0094859   1.3693984  )
        22           S   tau(  22) = (   0.0128020  -0.0011016   4.7064544  )
        23           S   tau(  23) = (   0.5009096  -0.0085786   1.3703050  )
        24           S   tau(  24) = (   0.4997454   0.0024641   4.7135800  )
        25           S   tau(  25) = (   0.2545707   0.1352359   1.9702173  )
        26           S   tau(  26) = (   0.2501676   0.1561558   5.3127503  )
        27           S   tau(  27) = (   0.7506366   0.1592383   1.9805762  )
        28           S   tau(  28) = (   0.7375421   0.1505612   5.3164963  )
        29           S   tau(  29) = (   0.2458872   0.1585136   2.4739090  )
        30           S   tau(  30) = (   0.2448091   0.1567518   5.8059841  )
        31           S   tau(  31) = (   0.7610480   0.1434712   2.4617068  )
        32           S   tau(  32) = (   0.7614439   0.1454390   5.8029231  )
        33           S   tau(  33) = (   0.0075480   0.2952797   3.0836556  )
        34           S   tau(  34) = (   0.0090235   0.2972418   6.4272019  )
        35           S   tau(  35) = (   0.5013610   0.2835476   3.0807579  )
        36           S   tau(  36) = (   0.4959962   0.2746367   6.4323401  )

     number of k points=    14  Marzari-Vanderbilt smearing, width (Ry)=  0.0200
                       cart. coord. in units 2pi/alat
        k(    1) = (   0.0000000   0.0000000   0.0000000), wk =   0.1333333
        k(    2) = (   0.0000000   0.4618802   0.0000000), wk =   0.1333333
        k(    3) = (   0.0000000   0.9237603   0.0000000), wk =   0.1333333
        k(    4) = (   0.3333333   0.1924501   0.0000000), wk =   0.2666667
        k(    5) = (   0.3333333   0.6543302   0.0000000), wk =   0.1333333
        k(    6) = (   0.3333333   1.1162104   0.0000000), wk =   0.1333333
        k(    7) = (   0.3333333  -0.7313103   0.0000000), wk =   0.1333333
        k(    8) = (   0.3333333  -0.2694301   0.0000000), wk =   0.1333333
        k(    9) = (   0.4000000  -0.2309401   0.0000000), wk =   0.1333333
        k(   10) = (   0.8000000  -0.4618802   0.0000000), wk =   0.1333333
        k(   11) = (   0.7333333  -0.0384900   0.0000000), wk =   0.1333333
        k(   12) = (   1.1333333  -0.2694301   0.0000000), wk =   0.1333333
        k(   13) = (  -0.4666667   0.6543302   0.0000000), wk =   0.1333333
        k(   14) = (  -0.0666667   0.4233902   0.0000000), wk =   0.1333333

     Initial potential from superposition of free atoms

     starting charge  215.98107, renormalised to  216.00000
     Starting wfcs are  204 randomized atomic wfcs

     Self-consistent Calculation

     iteration #  1     ecut=    45.00 Ry     beta= 0.70
     Davidson diagonalization with overlap
     ethr =  1.00E-02,  avg # of iterations =  2.0

     total energy              =    -843.06677115 Ry
     Harris-Foulkes estimate   =    -846.70378157 Ry
     estimated scf accuracy    <       9.87999150 Ry

[...]

     total energy              =    -845.03868751 Ry
     Harris-Foulkes estimate   =    -845.03868805 Ry
     estimated scf accuracy    <       0.00000237 Ry

     iteration # 16     ecut=    45.00 Ry     beta= 0.70
     Davidson diagonalization with overlap
     ethr =  1.10E-09,  avg # of iterations =  3.1

     End of self-consistent calculation

          k = 0.0000 0.0000 0.0000 ( 29979 PWs)   bands (ev):

    -8.9098  -8.8700  -8.8184  -8.7844  -8.6788  -8.6146  -7.9616  -7.9291
    -7.9032  -7.8796  -7.8298  -7.8111  -7.6214  -7.4813  -7.4218  -7.3642
    -7.2849  -7.2320  -7.1903  -7.1552  -7.1429  -7.0850  -7.0582  -7.0195
    -0.6069  -0.5487  -0.4995  -0.4804  -0.4396  -0.3978  -0.3683  -0.3396
    -0.3103  -0.3072  -0.1970  -0.1527   0.3561   0.3938   0.3978   0.4033
     0.4811   0.5396   0.9342   0.9597   0.9919   1.0178   1.1045   1.1744
     1.7226   1.7531   1.7586   1.8339   1.9143   1.9915   2.0289   2.0578
     2.1528   2.2269   2.2393   2.2893   2.3202   2.3860   2.4331   2.4341
     2.4577   2.5074   2.5711   2.6292   2.6574   2.6936   2.7379   2.7707
     2.7977   2.8293   2.8433   2.9274   2.9693   3.0223   3.1064   3.1491
     3.1808   3.1830   3.2272   3.2707   3.3032   3.3238   3.3835   3.4811
     3.4875   3.5206   3.6028   3.6057   3.6356   3.6799   3.7992   3.9178
     3.9600   4.0345   4.0731   4.0858   4.2060   4.2598   4.4045   4.4543
     4.5452   4.6452   4.6645   4.7193   5.9832   6.0477   6.0777   6.1029
     6.1433   6.1785   6.2305   6.3695   6.4095   6.4847   6.4874   6.5394
     6.5483   6.5662   6.5952   6.6035   6.6127   6.6254   6.6677   6.6910
     6.6982   6.7663

[...]

          k = 1.1333-0.2694 0.0000 ( 29973 PWs)   bands (ev):

[...]

          k =-0.4667 0.6543 0.0000 ( 29902 PWs)   bands (ev):

[...]

          k =-0.0667 0.4234 0.0000 ( 29943 PWs)   bands (ev):

    -8.5665  -8.5184  -8.4736  -8.4292  -8.3231  -8.2724  -7.7594  -7.7298
    -7.7143  -7.6864  -7.6345  -7.5998  -7.5738  -7.4278  -7.3562  -7.3048
    -7.2328  -7.1781  -7.1414  -7.1045  -7.0864  -7.0415  -7.0079  -6.9689
    -0.1569  -0.0825  -0.0455  -0.0399   0.0123   0.0456   0.0782   0.1229
     0.1368   0.1788   0.2474   0.2695   0.2757   0.3183   0.3281   0.3423
     0.4002   0.5411   1.0278   1.0697   1.0841   1.1301   1.2272   1.2505
     1.2668   1.3594   1.4327   1.4510   1.5939   1.6030   1.6081   1.6466
     1.7038   1.7401   1.8650   1.8966   1.9425   1.9839   2.0046   2.0414
     2.0708   2.0958   2.1460   2.1657   2.2017   2.2155   2.2598   2.3012
     2.3557   2.3983   2.4350   2.5786   2.5904   2.6540   2.6910   2.7285
     2.7697   2.7798   2.8199   2.8256   2.8456   2.8500   2.9294   2.9566
     3.0024   3.1410   3.3039   3.3808   3.4244   3.4746   3.5225   3.5861
     3.9836   4.0577   4.1269   4.1869   4.2131   4.2500   4.2807   4.3354
     4.3486   4.3521   4.3610   4.4131   5.9289   5.9721   6.0494   6.0733
     6.0957   6.1318   6.1827   6.1993   6.2210   6.2553   6.2814   6.3236
     6.3443   6.3794   6.3957   6.4500   6.4521   6.4639   6.4799   6.4992
     6.5772   6.5955

     the Fermi energy is     4.6269 ev

!    total energy              =    -845.03868714 Ry
     Harris-Foulkes estimate   =    -845.03868792 Ry
     estimated scf accuracy    <       0.00000085 Ry

     The total energy is the sum of the following terms:

     one-electron contribution =    -173.46211208 Ry
     hartree contribution      =     196.45996929 Ry
     xc contribution           =    -330.83552801 Ry
     ewald contribution        =    -537.23240369 Ry
     smearing contrib. (-TS)   =       0.03138735 Ry

     convergence has been achieved in  16 iterations

     Forces acting on atoms (cartesian axes, Ry/au):

     atom    1 type  1   force =     0.00829912   -0.00250394   -0.01699314
     atom    2 type  1   force =    -0.03223046    0.06532628    0.09238466
     atom    3 type  1   force =     0.00752113   -0.01367183    0.06315740
     atom    4 type  1   force =     0.06271677    0.00458193    0.08328406
     atom    5 type  1   force =    -0.00367397    0.06932801   -0.04566223
     atom    6 type  1   force =    -0.03734091    0.02008414    0.00502204
     atom    7 type  1   force =    -0.04466722    0.00548375   -0.05561472
     atom    8 type  1   force =     0.02766967    0.05534677   -0.06716813
     atom    9 type  1   force =    -0.01206670    0.02931428   -0.07614416
     atom   10 type  1   force =     0.03960254   -0.00307708    0.00891658
     atom   11 type  1   force =     0.00954036    0.05015632    0.00259597
     atom   12 type  1   force =    -0.03057875    0.03878804    0.01484733
     atom   13 type  2   force =    -0.01113336    0.00742108   -0.06126260
     atom   14 type  2   force =     0.02461576   -0.02717207   -0.03974455
     atom   15 type  2   force =     0.01407474   -0.02547736   -0.09266381
     atom   16 type  2   force =     0.00045978   -0.02042799   -0.09355912
     atom   17 type  2   force =    -0.01323224   -0.01471185    0.04532712
     atom   18 type  2   force =    -0.01972796   -0.00838980    0.01383278
     atom   19 type  2   force =     0.01168581    0.00272679    0.08974031
     atom   20 type  2   force =     0.01220047   -0.04496026    0.01727389
     atom   21 type  2   force =    -0.01042399    0.01162095   -0.09756680
     atom   22 type  2   force =    -0.02667676   -0.00271987   -0.09664843
     atom   23 type  2   force =    -0.00415113    0.01695611   -0.08518907
     atom   24 type  2   force =     0.00386667   -0.01366790   -0.10934557
     atom   25 type  2   force =     0.00974084    0.00071340    0.10343373
     atom   26 type  2   force =     0.00613205   -0.01907842    0.06605029
     atom   27 type  2   force =     0.01094767   -0.03312695    0.06944718
     atom   28 type  2   force =     0.01746307   -0.01806076    0.08472897
     atom   29 type  2   force =     0.03163883   -0.03858840   -0.05700671
     atom   30 type  2   force =    -0.00256908   -0.03063618   -0.04473629
     atom   31 type  2   force =    -0.00402096   -0.00401047   -0.01462728
     atom   32 type  2   force =    -0.01157407   -0.00795376   -0.04351716
     atom   33 type  2   force =    -0.02396122   -0.02467521    0.09860544
     atom   34 type  2   force =    -0.02520171   -0.02235432    0.06878324
     atom   35 type  2   force =     0.00179085   -0.00732827    0.10885492
     atom   36 type  2   force =     0.01326435    0.00474485    0.06116386

     Total force =     0.465902     Total SCF correction =     0.002236

     General routines

     Parallel routines

   This run was terminated on:  15:42: 9   3Aug2021

   JOB DONE.