     Program PWSCF v.6.4 starts on 18Nov2021 at 20: 7: 3

     R & G space division:  proc/nbgrp/npool/nimage =      40
     Waiting for input...
     Reading input from standard input
Warning: card    &IONS ignored
Warning: card      ION_DYNAMICS = 'BFGS' ignored
Warning: card   / ignored
Warning: card    &CELL ignored
Warning: card      CELL_DYNAMICS = 'BFGS', ignored
Warning: card    / ignored

     Current dimensions of program PWSCF are:
     Max number of different atomic species (ntypx) = 10
     Max number of k-points (npk) =  40000
     Max angular momentum in pseudopotentials (lmaxx) =  3

     bravais-lattice index     =            0
     lattice parameter (alat)  =      11.6696  a.u.
     unit-cell volume          =    4913.6352 (a.u.)^3
     number of atoms/cell      =           18
     number of atomic types    =            2
     number of electrons       =       108.00
     number of Kohn-Sham states=           65
     kinetic-energy cutoff     =      45.0000  Ry
     charge density cutoff     =     360.0000  Ry
     convergence threshold     =      1.0E-06
     mixing beta               =       0.7000
     number of iterations used =            8  local-TF  mixing
     Exchange-correlation      = SLA PW GGX GGC ( 1  4  2  2 0 0)

     celldm(1)=  11.669642  celldm(2)=   0.000000  celldm(3)=   0.000000
     celldm(4)=   0.000000  celldm(5)=   0.000000  celldm(6)=   0.000000

     crystal axes: (cart. coord. in units of alat)
               a(1) = (   1.000000   0.000000   0.000000 )
               a(2) = (   0.495849   0.913785   0.000000 )
               a(3) = (   0.361054  -0.162968   3.383655 )

     reciprocal axes: (cart. coord. in units 2 pi/alat)
               b(1) = (  1.000000 -0.542632 -0.132840 )
               b(2) = (  0.000000  1.094349  0.052708 )
               b(3) = (  0.000000  0.000000  0.295538 )

     PseudoPot. # 1 for Mo read from file:
     ~/pseudo/Mo.pw91-n-van.UPF
     MD5 check sum: Not computed, couldn't open file
     Pseudo is Ultrasoft + core correction, Zval =  6.0
     Generated by new atomic code, or converted to UPF format
     Using radial grid of  965 points,  3 beta functions with:
                l(1) =   1
                l(2) =   2
                l(3) =   2
     Q(r) pseudized with  8 coefficients,  rinner =    1.000   1.000   1.000
                                                       1.200   1.200

     PseudoPot. # 2 for S  read from file:
     ~/pseudo/S.pw91-van_ak.UPF
     MD5 check sum: Not computed, couldn't open file
     Pseudo is Ultrasoft, Zval =  6.0
     Generated by new atomic code, or converted to UPF format
     Using radial grid of  811 points,  6 beta functions with:
                l(1) =   0
                l(2) =   0
                l(3) =   1
                l(4) =   1
                l(5) =   2
                l(6) =   2
     Q(r) pseudized with  8 coefficients,  rinner =    1.100   1.100   1.100
                                                       1.100   1.100

     atomic species   valence    mass     pseudopotential
        Mo             6.00    95.50000     Mo( 1.00)
        S              6.00    32.06500     S ( 1.00)

     No symmetry found

   Cartesian axes

     site n.     atom                  positions (alat units)
         1           Mo  tau(   1) = (   1.0783535   0.8387643   1.2919207  )
         2           Mo  tau(   2) = (   0.8303484   0.3827843   1.2919803  )
         3           Mo  tau(   3) = (   1.5792727   0.8390136   1.2922360  )
         4           Mo  tau(   4) = (   1.3312928   0.3819679   1.2920419  )
         5           Mo  tau(   5) = (   0.9909387   0.7543103   2.4487870  )
         6           Mo  tau(   6) = (   1.4865083   0.7488932   2.4464852  )
         7           S   tau(   7) = (   0.8322293   0.0832875   1.0327318  )
         8           S   tau(   8) = (   1.0801416   0.5396200   1.0323207  )
         9           S   tau(   9) = (   0.3325247   0.0830217   1.0322870  )
        10           S   tau(  10) = (   0.5799086   0.5407766   1.0324234  )
        11           S   tau(  11) = (   1.2403649  -0.1036478   2.7189686  )
        12           S   tau(  12) = (   1.2348535   0.4721194   2.4822393  )
        13           S   tau(  13) = (   0.8329296   0.0815579   1.5535856  )
        14           S   tau(  14) = (   1.0816205   0.5377031   1.5541486  )
        15           S   tau(  15) = (   0.3337771   0.0814231   1.5549220  )
        16           S   tau(  16) = (   0.5812431   0.5388375   1.5550453  )
        17           S   tau(  17) = (   0.7412429   0.7182832   2.1761721  )
        18           S   tau(  18) = (   0.7462198   0.1133481   2.4070913  )

     number of k points=     5  Marzari-Vanderbilt smearing, width (Ry)=  0.0200
                       cart. coord. in units 2pi/alat
        k(    1) = (   0.0000000   0.0000000   0.0000000), wk =   0.2222222
        k(    2) = (   0.0000000   0.3647830   0.0175692), wk =   0.4444444
        k(    3) = (   0.3333333  -0.1808772  -0.0442801), wk =   0.4444444
        k(    4) = (   0.3333333   0.1839057  -0.0267110), wk =   0.4444444
        k(    5) = (   0.3333333  -0.5456602  -0.0618493), wk =   0.4444444

     Initial potential from superposition of free atoms

     starting charge  107.99054, renormalised to  108.00000

     negative rho (up, down):  3.254E-04 0.000E+00
     Starting wfcs are  102 randomized atomic wfcs

     Self-consistent Calculation

     iteration #  1     ecut=    45.00 Ry     beta= 0.70
     Davidson diagonalization with overlap
     ethr =  1.00E-02,  avg # of iterations =  2.4

     negative rho (up, down):  5.270E-06 0.000E+00

     total energy              =    -421.88996581 Ry
     Harris-Foulkes estimate   =    -423.17514973 Ry
     estimated scf accuracy    <       3.27958621 Ry

[...]

     iteration # 21     ecut=    45.00 Ry     beta= 0.70
     Davidson diagonalization with overlap
     c_bands:  1 eigenvalues not converged
     ethr =  3.39E-07,  avg # of iterations = 10.2

[...]

     iteration # 41     ecut=    45.00 Ry     beta= 0.70
     Davidson diagonalization with overlap
     c_bands:  1 eigenvalues not converged
     ethr =  3.39E-07,  avg # of iterations =  6.2

[...]

     total energy              =    -422.53161738 Ry
     Harris-Foulkes estimate   =    -422.53162085 Ry
     estimated scf accuracy    <       0.00002224 Ry

     iteration # 53     ecut=    45.00 Ry     beta= 0.70
     Davidson diagonalization with overlap
     ethr =  2.06E-08,  avg # of iterations =  1.0

[...]

     End of self-consistent calculation

          k = 0.0000 0.0000 0.0000 ( 24983 PWs)   bands (ev):

   -13.5644 -12.4655 -12.4461 -11.8329 -11.8125 -11.7752 -11.6899 -11.6767
   -11.6250 -11.6112 -11.4318 -11.4069  -5.2710  -5.1976  -5.1844  -5.0528
    -4.4721  -4.3677  -4.3571  -4.2505  -3.5399  -3.5124  -3.5094  -3.3454
    -3.1957  -2.9579  -2.9428  -2.8773  -2.7984  -2.7544  -2.7220  -2.6625
    -2.2869  -2.1786  -2.0757  -1.7738  -1.6716  -1.6137  -1.4812  -1.4263
    -1.4091  -1.3460  -1.0181  -0.8884  -0.5377  -0.4808  -0.4326  -0.4114
    -0.0956  -0.0683   0.0896   0.2107   0.2220   0.2532   0.6254   1.4517
     2.0142   2.5266   2.5806   2.6085   2.6676   2.6691   3.0734   3.0798
     3.1184

[...]

          k = 0.3333-0.5457-0.0618 ( 25055 PWs)   bands (ev):

   -12.5525 -12.5446 -12.4539 -12.1539 -11.9508 -11.9405 -11.9145 -11.8578
   -11.8376 -11.7962 -11.4210 -11.3203  -4.7904  -4.2980  -4.2787  -4.2716
    -4.0387  -4.0075  -3.5028  -3.4351  -3.4035  -3.2653  -3.2578  -3.2419
    -3.2128  -3.1669  -3.1158  -3.0513  -3.0332  -3.0116  -2.8332  -2.7491
    -2.6899  -2.6438  -2.5566  -2.5400  -2.4856  -2.4456  -1.8735  -1.7787
    -1.5715  -1.4499  -1.3659  -1.3492  -1.2284  -0.6367  -0.6295  -0.5915
    -0.3753  -0.2636  -0.2472   0.1218   0.3817   0.4986   1.2588   2.0780
     2.1185   2.1875   2.2479   2.2635   2.2971   2.3871   2.7905   2.8131
     2.8814

     the Fermi energy is     0.5174 ev

!    total energy              =    -422.53161840 Ry
     Harris-Foulkes estimate   =    -422.53161873 Ry
     estimated scf accuracy    <       0.00000046 Ry

     The total energy is the sum of the following terms:

     one-electron contribution =   -1496.20818604 Ry
     hartree contribution      =     786.41873791 Ry
     xc contribution           =    -166.71629806 Ry
     ewald contribution        =     453.96225589 Ry
     smearing contrib. (-TS)   =       0.01187189 Ry

     convergence has been achieved in  53 iterations

     negative rho (up, down):  5.123E-04 0.000E+00

     Forces acting on atoms (cartesian axes, Ry/au):

     atom    1 type  1   force =     0.00378018    0.00973058    0.01092339
     atom    2 type  1   force =     0.00313395    0.00777995    0.01104355
     atom    3 type  1   force =    -0.00077017    0.01163279    0.01099702
     atom    4 type  1   force =     0.00015365    0.01048444    0.01083452
     atom    5 type  1   force =    -0.00412491    0.00233839    0.00573444
     atom    6 type  1   force =     0.00413731    0.00523871    0.00535889
     atom    7 type  2   force =     0.00045685   -0.00697752    0.00647440
     atom    8 type  2   force =     0.00086438   -0.00613074    0.00667604
     atom    9 type  2   force =    -0.00008789   -0.00646492    0.00633403
     atom   10 type  2   force =     0.00098261   -0.00735345    0.00571145
     atom   11 type  2   force =     0.00125388   -0.01103752    0.00662580
     atom   12 type  2   force =     0.00286047    0.00298642    0.00275774
     atom   13 type  2   force =    -0.00139946   -0.00320783   -0.01547984
     atom   14 type  2   force =    -0.00290443   -0.00229585   -0.01680652
     atom   15 type  2   force =    -0.00264353   -0.00323665   -0.01807712
     atom   16 type  2   force =    -0.00208963   -0.00410557   -0.01839617
     atom   17 type  2   force =    -0.00182606   -0.00454602   -0.01904682
     atom   18 type  2   force =    -0.00177721    0.00516478   -0.00166478

     Total force =     0.056921     Total SCF correction =     0.001500

     General routines

     Parallel routines

   This run was terminated on:  20: 9:41  18Nov2021

   JOB DONE.