     Program PWSCF v.6.4 starts on  2Sep2021 at 21: 9:11

     R & G space division:  proc/nbgrp/npool/nimage =      40
     Waiting for input...
     Reading input from standard input
Warning: card    &IONS ignored
Warning: card      ION_DYNAMICS = 'BFGS' ignored
Warning: card   / ignored
Warning: card    &CELL ignored
Warning: card      CELL_DYNAMICS = 'BFGS', ignored
Warning: card    / ignored

     Current dimensions of program PWSCF are:
     Max number of different atomic species (ntypx) = 10
     Max number of k-points (npk) =  40000
     Max angular momentum in pseudopotentials (lmaxx) =  3

     bravais-lattice index     =            0
     lattice parameter (alat)  =      12.1833  a.u.
     unit-cell volume          =    5412.3665 (a.u.)^3
     number of atoms/cell      =           36
     number of atomic types    =            2
     number of electrons       =       216.00
     number of Kohn-Sham states=          130
     kinetic-energy cutoff     =      45.0000  Ry
     charge density cutoff     =     360.0000  Ry
     convergence threshold     =      1.0E-06
     mixing beta               =       0.7000
     number of iterations used =            8  local-TF  mixing
     Exchange-correlation      = SLA PW GGX GGC ( 1  4  2  2 0 0)

     celldm(1)=  12.183320  celldm(2)=   0.000000  celldm(3)=   0.000000
     celldm(4)=   0.000000  celldm(5)=   0.000000  celldm(6)=   0.000000

     crystal axes: (cart. coord. in units of alat)
               a(1) = (   1.000000   0.000000   0.000000 )
               a(2) = (   0.495694   0.868010   0.000000 )
               a(3) = (  -0.529846   0.222648   3.447987 )

     reciprocal axes: (cart. coord. in units 2 pi/alat)
               b(1) = (  1.000000 -0.571070  0.190544 )
               b(2) = (  0.000000  1.152061 -0.074392 )
               b(3) = (  0.000000  0.000000  0.290024 )

     PseudoPot. # 1 for Mo read from file:
     ~/pseudo/Mo.pw91-n-van.UPF
     MD5 check sum: Not computed, couldn't open file
     Pseudo is Ultrasoft + core correction, Zval =  6.0
     Generated by new atomic code, or converted to UPF format
     Using radial grid of  965 points,  3 beta functions with:
                l(1) =   1
                l(2) =   2
                l(3) =   2
     Q(r) pseudized with  8 coefficients,  rinner =    1.000   1.000   1.000
                                                       1.200   1.200

     PseudoPot. # 2 for S  read from file:
     ~/pseudo/S.pw91-van_ak.UPF
     MD5 check sum: Not computed, couldn't open file
     Pseudo is Ultrasoft, Zval =  6.0
     Generated by new atomic code, or converted to UPF format
     Using radial grid of  811 points,  6 beta functions with:
                l(1) =   0
                l(2) =   0
                l(3) =   1
                l(4) =   1
                l(5) =   2
                l(6) =   2
     Q(r) pseudized with  8 coefficients,  rinner =    1.100   1.100   1.100
                                                       1.100   1.100

     atomic species   valence    mass     pseudopotential
        Mo             6.00    95.50000     Mo( 1.00)
        S              6.00    32.06500     S ( 1.00)

     No symmetry found

   Cartesian axes

     site n.     atom                  positions (alat units)
         1           Mo  tau(   1) = (   0.5876570   0.7924366   1.2399062  )
         2           Mo  tau(   2) = (   0.8415025   0.3544195   1.2534574  )
         3           Mo  tau(   3) = (   1.0907775   0.7821669   1.2327511  )
         4           Mo  tau(   4) = (   0.3410150   0.3534364   1.2402449  )
         5           Mo  tau(   5) = (   0.6780886   0.7418889   2.2720547  )
         6           Mo  tau(   6) = (  -0.0673409   0.3112740   2.2823525  )
         7           Mo  tau(   7) = (   0.1734854   0.7428283   2.2855463  )
         8           Mo  tau(   8) = (   0.4234625   0.3056088   2.2599526  )
         9           Mo  tau(   9) = (   0.4225614   0.2186148   3.3739389  )
        10           Mo  tau(  10) = (   0.1671993   0.6549438   3.3738320  )
        11           Mo  tau(  11) = (  -0.0810703   0.2243081   3.3777057  )
        12           Mo  tau(  12) = (   0.6646096   0.6619247   3.3853411  )
        13           S   tau(  13) = (   0.9438349   0.2884534   0.1715479  )
        14           S   tau(  14) = (   0.6945732   0.7202659   0.1726988  )
        15           S   tau(  15) = (   0.4466747   0.2937724   0.1744076  )
        16           S   tau(  16) = (   1.1947328   0.7368415   0.1760693  )
        17           S   tau(  17) = (   0.3451189   0.6398586   0.9920970  )
        18           S   tau(  18) = (   0.5973338   0.2126548   1.0024290  )
        19           S   tau(  19) = (   0.8347790   0.6374814   0.9991294  )
        20           S   tau(  20) = (   0.0842732   0.2168736   0.9987005  )
        21           S   tau(  21) = (   0.3375573   0.6432335   1.4843752  )
        22           S   tau(  22) = (   0.5860192   0.2003138   1.4846725  )
        23           S   tau(  23) = (   0.8403413   0.6489391   1.4875243  )
        24           S   tau(  24) = (   0.0981034   0.2052164   1.4926452  )
        25           S   tau(  25) = (  -0.0686101   0.5987608   2.0315076  )
        26           S   tau(  26) = (   0.6596642   1.0303190   2.0233404  )
        27           S   tau(  27) = (   0.4190250   0.6053423   2.0308092  )
        28           S   tau(  28) = (   0.1818829   1.0282377   2.0342886  )
        29           S   tau(  29) = (  -0.0783331   0.5960926   2.5278432  )
        30           S   tau(  30) = (   0.6849542   1.0296541   2.5182951  )
        31           S   tau(  31) = (   0.4310174   0.5875721   2.5139189  )
        32           S   tau(  32) = (   0.1673220   1.0387550   2.5172523  )
        33           S   tau(  33) = (   0.4209327   0.5101021   3.1348051  )
        34           S   tau(  34) = (   0.1697596   0.9445584   3.1280625  )
        35           S   tau(  35) = (  -0.0871895   0.5116714   3.1342468  )
        36           S   tau(  36) = (   0.6652571   0.9376608   3.1324445  )

     number of k points=     5  Marzari-Vanderbilt smearing, width (Ry)=  0.0200
                       cart. coord. in units 2pi/alat
        k(    1) = (   0.0000000   0.0000000   0.0000000), wk =   0.2222222
        k(    2) = (   0.0000000   0.3840203  -0.0247974), wk =   0.4444444
        k(    3) = (   0.3333333  -0.1903566   0.0635146), wk =   0.4444444
        k(    4) = (   0.3333333   0.1936637   0.0387172), wk =   0.4444444
        k(    5) = (   0.3333333  -0.5743769   0.0883120), wk =   0.4444444

     Initial potential from superposition of free atoms

     starting charge  215.98107, renormalised to  216.00000
     Starting wfcs are  204 randomized atomic wfcs

     Self-consistent Calculation

     iteration #  1     ecut=    45.00 Ry     beta= 0.70
     Davidson diagonalization with overlap
     ethr =  1.00E-02,  avg # of iterations =  2.0

     total energy              =    -844.17849126 Ry
     Harris-Foulkes estimate   =    -846.83787176 Ry
     estimated scf accuracy    <       6.80536353 Ry

[...]

     total energy              =    -845.50532012 Ry
     Harris-Foulkes estimate   =    -845.50532047 Ry
     estimated scf accuracy    <       0.00000135 Ry

     iteration # 16     ecut=    45.00 Ry     beta= 0.70
     Davidson diagonalization with overlap
     ethr =  6.24E-10,  avg # of iterations =  3.0

     End of self-consistent calculation

          k = 0.0000 0.0000 0.0000 ( 27505 PWs)   bands (ev):

    -8.6240  -8.5608  -8.5211  -7.4606  -7.3627  -7.3265  -6.9289  -6.8979
    -6.8856  -6.8757  -6.8428  -6.8350  -6.8307  -6.8124  -6.7937  -6.6586
    -6.6111  -6.5984  -6.5759  -6.5612  -6.5490  -6.5385  -6.5333  -6.5126
    -0.2551  -0.2515  -0.2333  -0.2246  -0.1894  -0.1744  -0.1679  -0.1501
    -0.1473  -0.1333  -0.0138   0.0863   0.6411   0.6639   0.6865   0.7507
     0.7624   0.7792   0.7904   0.7969   0.8134   1.2950   1.3059   1.3481
     1.4460   1.4589   1.4637   1.5122   1.5340   1.5507   2.2248   2.2602
     2.2979   2.3040   2.3085   2.3153   2.3240   2.3513   2.3741   2.7696
     2.7876   2.8252   2.8276   2.8325   2.8708   3.2149   3.2780   3.3621
     3.4247   3.5579   3.6015   3.6302   3.7036   3.7074   3.7649   3.8081
     3.8610   3.8851   3.9255   3.9319   3.9398   3.9850   4.1722   4.3445
     4.3662   4.3824   4.4305   4.4331   4.4602   4.4817   4.4908   4.5117
     4.6442   4.6872   4.7072   4.7896   4.7976   4.8266   4.8442   4.8694
     4.8973   5.1862   5.5119   5.6697   7.2922   7.3399   7.3597   7.3754
     7.3938   7.3952   7.4059   7.4212   7.4383   7.8139   7.8185   7.8357
     7.8740   7.8875   7.9077   7.9256   7.9291   7.9490   8.0440   8.0598
     8.0807   8.1030

[...]

          k = 0.3333-0.5744 0.0883 ( 27641 PWs)   bands (ev):

    -7.6890  -7.6747  -7.6459  -7.6326  -7.5888  -7.5829  -7.5797  -7.5543
    -7.5424  -6.9845  -6.9665  -6.9334  -6.8967  -6.8892  -6.8767  -6.8698
    -6.8560  -6.8519  -6.6584  -6.6125  -6.5758  -6.4535  -6.4018  -6.3718
     0.1563   0.1908   0.2326   0.4934   0.5027   0.5151   0.6384   0.6457
     0.6494   0.6893   0.7025   0.7060   0.8980   0.9571   1.0033   1.3791
     1.4242   1.4504   1.4852   1.4947   1.5425   1.6048   1.6324   1.6429
     1.6708   1.6818   1.7092   1.7215   1.8035   1.8183   1.8443   1.8735
     1.8943   1.9073   1.9166   1.9266   1.9345   1.9615   2.0114   2.2273
     2.2489   2.2843   2.3364   2.3637   2.3806   2.3930   2.4276   2.4577
     2.5117   2.5831   2.6228   3.0942   3.3138   3.3899   3.4171   3.4348
     3.4544   3.4593   3.4809   3.5053   3.5068   3.5241   3.5355   4.1115
     4.1379   4.1992   4.3325   4.3553   4.3684   4.4561   4.4688   4.5202
     4.5749   4.5993   4.6203   4.6430   4.6625   4.6716   4.6797   4.6909
     4.7025   5.3464   5.3731   5.3968   6.8811   6.9208   6.9736   7.0375
     7.0810   7.1047   7.2230   7.2520   7.2697   7.3092   7.3681   7.3901
     7.5983   7.6093   7.6425   7.6764   7.6862   7.7125   7.7511   7.7626
     7.7878   7.8504

     the Fermi energy is     5.5661 ev

!    total energy              =    -845.50532030 Ry
     Harris-Foulkes estimate   =    -845.50532038 Ry
     estimated scf accuracy    <       0.00000010 Ry

     The total energy is the sum of the following terms:

     one-electron contribution =    -376.97689888 Ry
     hartree contribution      =     304.52182556 Ry
     xc contribution           =    -334.01700183 Ry
     ewald contribution        =    -439.05134429 Ry
     smearing contrib. (-TS)   =       0.01809913 Ry

     convergence has been achieved in  16 iterations

     Forces acting on atoms (cartesian axes, Ry/au):

     atom    1 type  1   force =     0.00381412   -0.01776044    0.00941053
     atom    2 type  1   force =    -0.00276758   -0.00345331   -0.01540164
     atom    3 type  1   force =    -0.00719738    0.01659503    0.02974837
     atom    4 type  1   force =    -0.00040667   -0.00050935    0.00956661
     atom    5 type  1   force =    -0.01165755   -0.00188502    0.00479427
     atom    6 type  1   force =    -0.02048918   -0.01130601   -0.01838046
     atom    7 type  1   force =     0.00797160   -0.00127562   -0.02428978
     atom    8 type  1   force =     0.01462002    0.00876311    0.02817453
     atom    9 type  1   force =    -0.01152360    0.01473492    0.00328504
     atom   10 type  1   force =    -0.00479910    0.00682144    0.00328243
     atom   11 type  1   force =    -0.00175467   -0.00310622   -0.00666105
     atom   12 type  1   force =     0.00719382   -0.01684948   -0.02143185
     atom   13 type  2   force =     0.00385405   -0.00555783    0.00680741
     atom   14 type  2   force =     0.00533486    0.00132864   -0.00375889
     atom   15 type  2   force =     0.00217818   -0.00580355    0.00219208
     atom   16 type  2   force =     0.00352892   -0.01974443    0.00020886
     atom   17 type  2   force =    -0.00550982    0.00350798    0.00069853
     atom   18 type  2   force =    -0.00523144   -0.00777647   -0.01100360
     atom   19 type  2   force =     0.00370501    0.00427453   -0.00321185
     atom   20 type  2   force =     0.01019152   -0.00812438    0.00354063
     atom   21 type  2   force =     0.00444837   -0.00025486   -0.01345724
     atom   22 type  2   force =     0.00833092    0.00498744   -0.00243375
     atom   23 type  2   force =    -0.00240937   -0.00250620   -0.00953122
     atom   24 type  2   force =    -0.01143293    0.01243982   -0.01502090
     atom   25 type  2   force =    -0.00234645   -0.00249223    0.01636955
     atom   26 type  2   force =     0.02402264   -0.00205079    0.01376667
     atom   27 type  2   force =     0.00819610   -0.00987733    0.00086021
     atom   28 type  2   force =    -0.00678229    0.00342292    0.00122034
     atom   29 type  2   force =     0.00713887    0.00899875   -0.00659501
     atom   30 type  2   force =    -0.01508923    0.00085923   -0.00745531
     atom   31 type  2   force =    -0.00700079    0.01040993    0.00189926
     atom   32 type  2   force =     0.00587775   -0.00438166    0.00321184
     atom   33 type  2   force =    -0.00023494    0.00239838   -0.00084626
     atom   34 type  2   force =    -0.00225401   -0.00245695    0.00861762
     atom   35 type  2   force =    -0.00006415    0.00639125    0.00521700
     atom   36 type  2   force =    -0.00145559    0.02123878    0.00660701

     Total force =     0.103201     Total SCF correction =     0.000790

     General routines

     Parallel routines

   This run was terminated on:  21:10:57   2Sep2021

   JOB DONE.