     Program PWSCF v.6.4 starts on  6Oct2021 at 12:58:52

     R & G space division:  proc/nbgrp/npool/nimage =      40
     Waiting for input...
     Reading input from standard input
Warning: card    &IONS ignored
Warning: card      ION_DYNAMICS = 'BFGS' ignored
Warning: card   / ignored
Warning: card    &CELL ignored
Warning: card      CELL_DYNAMICS = 'BFGS', ignored
Warning: card    / ignored

     Current dimensions of program PWSCF are:
     Max number of different atomic species (ntypx) = 10
     Max number of k-points (npk) =  40000
     Max angular momentum in pseudopotentials (lmaxx) =  3

     bravais-lattice index     =            0
     lattice parameter (alat)  =      12.2053  a.u.
     unit-cell volume          =    4772.3468 (a.u.)^3
     number of atoms/cell      =           36
     number of atomic types    =            2
     number of electrons       =       216.00
     number of Kohn-Sham states=          130
     kinetic-energy cutoff     =      45.0000  Ry
     charge density cutoff     =     360.0000  Ry
     convergence threshold     =      1.0E-06
     mixing beta               =       0.7000
     number of iterations used =            8  local-TF  mixing
     Exchange-correlation      = SLA PW GGX GGC ( 1  4  2  2 0 0)

     celldm(1)=  12.205298  celldm(2)=   0.000000  celldm(3)=   0.000000
     celldm(4)=   0.000000  celldm(5)=   0.000000  celldm(6)=   0.000000

     crystal axes: (cart. coord. in units of alat)
               a(1) = (   1.000000   0.000000   0.000000 )
               a(2) = (  -0.500212   0.873115   0.000000 )
               a(3) = (  -0.112011  -0.390526   3.006182 )

     reciprocal axes: (cart. coord. in units 2 pi/alat)
               b(1) = (  1.000000  0.572905  0.111685 )
               b(2) = (  0.000000  1.145324  0.148786 )
               b(3) = (  0.000000  0.000000  0.332648 )

     PseudoPot. # 1 for Mo read from file:
     ~/pseudo/Mo.pw91-n-van.UPF
     MD5 check sum: Not computed, couldn't open file
     Pseudo is Ultrasoft + core correction, Zval =  6.0
     Generated by new atomic code, or converted to UPF format
     Using radial grid of  965 points,  3 beta functions with:
                l(1) =   1
                l(2) =   2
                l(3) =   2
     Q(r) pseudized with  8 coefficients,  rinner =    1.000   1.000   1.000
                                                       1.200   1.200

     PseudoPot. # 2 for S  read from file:
     ~/pseudo/S.pw91-van_ak.UPF
     MD5 check sum: Not computed, couldn't open file
     Pseudo is Ultrasoft, Zval =  6.0
     Generated by new atomic code, or converted to UPF format
     Using radial grid of  811 points,  6 beta functions with:
                l(1) =   0
                l(2) =   0
                l(3) =   1
                l(4) =   1
                l(5) =   2
                l(6) =   2
     Q(r) pseudized with  8 coefficients,  rinner =    1.100   1.100   1.100
                                                       1.100   1.100

     atomic species   valence    mass     pseudopotential
        Mo             6.00    95.50000     Mo( 1.00)
        S              6.00    32.06500     S ( 1.00)

     No symmetry found

   Cartesian axes

     site n.     atom                  positions (alat units)
         1           Mo  tau(   1) = (  -0.0009437   0.2911625   0.0132003  )
         2           Mo  tau(   2) = (  -0.3615915   0.2678703   3.0021811  )
         3           Mo  tau(   3) = (   0.4993878   0.2878919   0.0104305  )
         4           Mo  tau(   4) = (   0.1344971   0.2708426   3.0061678  )
         5           Mo  tau(   5) = (   0.3941972   0.4380286   2.0306642  )
         6           Mo  tau(   6) = (   0.6406483   0.0034669   2.0315786  )
         7           Mo  tau(   7) = (  -0.1121504   0.4384219   2.0303600  )
         8           Mo  tau(   8) = (   0.1407561   0.0068732   2.0291452  )
         9           Mo  tau(   9) = (  -0.2486439   0.7268748   0.9744856  )
        10           Mo  tau(  10) = (   0.0024445   0.2911971   0.9732301  )
        11           Mo  tau(  11) = (   0.2547357   0.7254160   0.9739474  )
        12           Mo  tau(  12) = (   0.5019169   0.2943645   0.9728916  )
        13           S   tau(  13) = (   0.2487948   0.1015275   0.2308730  )
        14           S   tau(  14) = (  -0.0056885   0.5720121   0.2655094  )
        15           S   tau(  15) = (   0.7499778   0.1073867   0.2338606  )
        16           S   tau(  16) = (   0.5011457   0.5709775   0.2622235  )
        17           S   tau(  17) = (   0.1414758   0.5818335   2.2714842  )
        18           S   tau(  18) = (   0.3946954   0.1485897   2.2749812  )
        19           S   tau(  19) = (  -0.3589371   0.5860804   2.2730502  )
        20           S   tau(  20) = (  -0.1120100   0.1482987   2.2738970  )
        21           S   tau(  21) = (   0.0025921   0.0007077   1.2180758  )
        22           S   tau(  22) = (  -0.2467834   0.4304408   1.2164711  )
        23           S   tau(  23) = (   0.5050958  -0.0007640   1.2189474  )
        24           S   tau(  24) = (   0.2504828   0.4315856   1.2155171  )
        25           S   tau(  25) = (   0.1360664  -0.0090749   2.7528288  )
        26           S   tau(  26) = (  -0.1138331   0.4512690   2.7796845  )
        27           S   tau(  27) = (   0.6394232  -0.0141851   2.7502528  )
        28           S   tau(  28) = (   0.3869766   0.4568700   2.7861827  )
        29           S   tau(  29) = (   0.1406927   0.5863383   1.7911784  )
        30           S   tau(  30) = (   0.3977169   0.1526652   1.7846848  )
        31           S   tau(  31) = (  -0.3596768   0.5781098   1.7841626  )
        32           S   tau(  32) = (  -0.1163240   0.1526360   1.7851241  )
        33           S   tau(  33) = (   0.0019761   0.0078148   0.7314525  )
        34           S   tau(  34) = (  -0.2435396   0.4371641   0.7285266  )
        35           S   tau(  35) = (   0.5043563   0.0030792   0.7413214  )
        36           S   tau(  36) = (   0.2479816   0.4374917   0.7252952  )

     number of k points=     5  Marzari-Vanderbilt smearing, width (Ry)=  0.0200
                       cart. coord. in units 2pi/alat
        k(    1) = (   0.0000000   0.0000000   0.0000000), wk =   0.2222222
        k(    2) = (   0.0000000   0.3817748   0.0495955), wk =   0.4444444
        k(    3) = (   0.3333333   0.1909683   0.0372284), wk =   0.4444444
        k(    4) = (   0.3333333   0.5727431   0.0868238), wk =   0.4444444
        k(    5) = (   0.3333333  -0.1908064  -0.0123671), wk =   0.4444444

     Initial potential from superposition of free atoms

     starting charge  215.98107, renormalised to  216.00000
     Starting wfcs are  204 randomized atomic wfcs

     Self-consistent Calculation

     iteration #  1     ecut=    45.00 Ry     beta= 0.70
     Davidson diagonalization with overlap
     ethr =  1.00E-02,  avg # of iterations =  2.0

     total energy              =    -843.91031479 Ry
     Harris-Foulkes estimate   =    -846.68103704 Ry
     estimated scf accuracy    <       7.17047850 Ry

[...]

     total energy              =    -845.31348227 Ry
     Harris-Foulkes estimate   =    -845.31348247 Ry
     estimated scf accuracy    <       0.00000120 Ry

     iteration # 16     ecut=    45.00 Ry     beta= 0.70
     Davidson diagonalization with overlap
     ethr =  5.55E-10,  avg # of iterations =  1.2

     End of self-consistent calculation

          k = 0.0000 0.0000 0.0000 ( 24277 PWs)   bands (ev):

    -7.0992  -7.0335  -6.8711  -5.9754  -5.8679  -5.7347  -5.4605  -5.4123
    -5.4026  -5.3899  -5.3712  -5.3630  -5.3530  -5.3375  -5.2483  -5.1124
    -5.1000  -5.0806  -5.0724  -5.0466  -5.0302  -4.7924  -4.7611  -4.7537
     1.1595   1.1695   1.1908   1.1980   1.2809   1.2997   1.3136   1.3388
     1.3639   1.3751   1.5435   1.8203   2.2082   2.2224   2.2436   2.2538
     2.2741   2.2950   2.4839   2.5180   2.5967   2.8136   2.8590   2.9020
     2.9303   2.9658   3.0007   3.0574   3.3921   3.4095   3.7022   3.7365
     3.7448   3.7662   3.7887   3.8176   3.8528   3.9378   4.0892   4.0986
     4.2074   4.2449   4.2999   4.3344   4.3692   4.6744   4.7035   4.7479
     4.7960   4.9169   4.9713   5.0355   5.0933   5.2816   5.3288   5.3525
     5.3655   5.3771   5.3902   5.4079   5.6294   5.6367   5.7945   5.8306
     5.8493   5.8525   5.8892   5.9150   5.9421   6.0329   6.1045   6.1311
     6.1567   6.2576   6.2662   6.2843   6.2995   6.3236   6.3543   6.5712
     7.0842   7.2500   7.3403   7.3488   7.3779   7.4593   8.7856   8.8111
     8.8287   8.8362   8.8378   8.8482   8.8501   8.8572   9.1713   9.2542
     9.3118   9.3201   9.3342   9.3362   9.3514   9.3660   9.4822   9.4932
     9.5235   9.5403

[...]

          k = 0.3333-0.1908-0.0124 ( 24321 PWs)   bands (ev):

    -6.7422  -6.6829  -6.4984  -5.9097  -5.8676  -5.8211  -5.6969  -5.6749
    -5.5932  -5.4626  -5.4441  -5.4073  -5.3958  -5.3783  -5.2917  -5.2548
    -5.1818  -5.1345  -5.0847  -5.0656  -5.0516  -5.0285  -4.9260  -4.8091
     1.5834   1.6778   1.7209   1.7318   1.7410   1.7706   1.7897   1.8026
     1.8289   1.8906   2.0797   2.1555   2.1649   2.1927   2.2275   2.2694
     2.3639   2.4693   2.7178   2.7887   2.9544   2.9782   3.0002   3.0392
     3.0966   3.1341   3.1718   3.2026   3.3475   3.4385   3.5469   3.5789
     3.6054   3.6444   3.6951   3.7536   3.7969   3.8519   3.9007   4.0460
     4.0664   4.0909   4.1448   4.2196   4.3311   4.4192   4.5306   4.5471
     4.5675   4.5938   4.6149   4.6465   4.6815   4.7647   4.7939   4.8399
     4.8736   5.0448   5.0926   5.1541   5.1990   5.3148   5.3481   5.3919
     5.4363   5.4785   5.5434   5.6190   5.7229   5.8135   5.9436   5.9775
     6.1229   6.1515   6.2933   6.3231   6.3622   6.4299   6.4432   6.4786
     6.6133   6.7430   6.7992   7.2221   7.5041   8.2735   8.3599   8.5922
     8.7916   8.8314   8.8569   8.8965   8.9078   8.9206   8.9623   9.0269
     9.1467   9.1759   9.2506   9.2763   9.2994   9.3222   9.3609   9.3686
     9.3985   9.4281

     the Fermi energy is     7.3525 ev

!    total energy              =    -845.31348188 Ry
     Harris-Foulkes estimate   =    -845.31348233 Ry
     estimated scf accuracy    <       0.00000050 Ry

     The total energy is the sum of the following terms:

     one-electron contribution =     -10.06344596 Ry
     hartree contribution      =     133.24029402 Ry
     xc contribution           =    -333.94904878 Ry
     ewald contribution        =    -634.54415961 Ry
     smearing contrib. (-TS)   =       0.00287846 Ry

     convergence has been achieved in  16 iterations

     Forces acting on atoms (cartesian axes, Ry/au):

     atom    1 type  1   force =     0.00018541    0.02387114   -0.02638295
     atom    2 type  1   force =    -0.00405546   -0.02517578    0.02193273
     atom    3 type  1   force =     0.00045947    0.03120072   -0.01930557
     atom    4 type  1   force =     0.00310984   -0.03118223    0.02025438
     atom    5 type  1   force =    -0.01148388    0.00491878   -0.00049626
     atom    6 type  1   force =     0.00169821   -0.00573424   -0.00365133
     atom    7 type  1   force =     0.01064530    0.00392793    0.00079839
     atom    8 type  1   force =     0.00160671   -0.01686155   -0.01170258
     atom    9 type  1   force =     0.00554476    0.00098879    0.00849894
     atom   10 type  1   force =    -0.00091168   -0.00114963    0.00229958
     atom   11 type  1   force =    -0.00472746    0.00634291    0.00758442
     atom   12 type  1   force =     0.00260084   -0.01258252    0.00439466
     atom   13 type  2   force =     0.00196562    0.01730376   -0.00459537
     atom   14 type  2   force =     0.00954193   -0.01605072    0.00093987
     atom   15 type  2   force =    -0.00255121    0.00689809   -0.00379328
     atom   16 type  2   force =    -0.00646564   -0.02049591    0.00175084
     atom   17 type  2   force =    -0.00133795    0.00259484    0.00235939
     atom   18 type  2   force =    -0.01199563    0.00039512   -0.00489675
     atom   19 type  2   force =    -0.00007007    0.00788977   -0.00390099
     atom   20 type  2   force =     0.00925779    0.00200609   -0.00225619
     atom   21 type  2   force =     0.00167755   -0.00423928   -0.00325590
     atom   22 type  2   force =    -0.00379194    0.01784439    0.00079314
     atom   23 type  2   force =    -0.00474618    0.00234364   -0.01010414
     atom   24 type  2   force =     0.00597449    0.01313160    0.00444421
     atom   25 type  2   force =     0.00245800    0.01620620   -0.00302213
     atom   26 type  2   force =     0.00157501   -0.00643651    0.00577218
     atom   27 type  2   force =    -0.00467129    0.01881671    0.00032594
     atom   28 type  2   force =    -0.00122979   -0.01486323    0.00198063
     atom   29 type  2   force =     0.00051147   -0.00551488   -0.00549692
     atom   30 type  2   force =    -0.01837875   -0.01037384    0.00809685
     atom   31 type  2   force =     0.00074111    0.02790727    0.00864066
     atom   32 type  2   force =     0.01782279   -0.01013045    0.00629675
     atom   33 type  2   force =     0.00367623   -0.02376530   -0.00084371
     atom   34 type  2   force =    -0.01383465    0.00490922    0.00761572
     atom   35 type  2   force =    -0.00412867   -0.00595522   -0.02570022
     atom   36 type  2   force =     0.01332774    0.00101430    0.01462501

     Total force =     0.115742     Total SCF correction =     0.001983

     General routines

     Parallel routines

   This run was terminated on:  13: 0:16   6Oct2021

   JOB DONE.