     Program PWSCF v.6.4 starts on 19Nov2021 at 20:37:25

     R & G space division:  proc/nbgrp/npool/nimage =      40
     Waiting for input...
     Reading input from standard input
Warning: card    &IONS ignored
Warning: card      ION_DYNAMICS = 'BFGS' ignored
Warning: card   / ignored
Warning: card    &CELL ignored
Warning: card      CELL_DYNAMICS = 'BFGS', ignored
Warning: card    / ignored

     Current dimensions of program PWSCF are:
     Max number of different atomic species (ntypx) = 10
     Max number of k-points (npk) =  40000
     Max angular momentum in pseudopotentials (lmaxx) =  3

     bravais-lattice index     =            0
     lattice parameter (alat)  =      11.7517  a.u.
     unit-cell volume          =   12492.9962 (a.u.)^3
     number of atoms/cell      =           36
     number of atomic types    =            2
     number of electrons       =       216.00
     number of Kohn-Sham states=          130
     kinetic-energy cutoff     =      45.0000  Ry
     charge density cutoff     =     360.0000  Ry
     convergence threshold     =      1.0E-06
     mixing beta               =       0.7000
     number of iterations used =            8  local-TF  mixing
     Exchange-correlation      = SLA PW GGX GGC ( 1  4  2  2 0 0)

     celldm(1)=  11.751750  celldm(2)=   0.000000  celldm(3)=   0.000000
     celldm(4)=   0.000000  celldm(5)=   0.000000  celldm(6)=   0.000000

     crystal axes: (cart. coord. in units of alat)
               a(1) = (   1.000000   0.000000   0.000000 )
               a(2) = (   0.000679   1.809245   0.000000 )
               a(3) = (  -0.332884  -0.703383   4.254628 )

     reciprocal axes: (cart. coord. in units 2 pi/alat)
               b(1) = (  1.000000 -0.000375  0.078178 )
               b(2) = (  0.000000  0.552717  0.091376 )
               b(3) = (  0.000000  0.000000  0.235038 )

     PseudoPot. # 1 for Mo read from file:
     ~/pseudo/Mo.pw91-n-van.UPF
     MD5 check sum: Not computed, couldn't open file
     Pseudo is Ultrasoft + core correction, Zval =  6.0
     Generated by new atomic code, or converted to UPF format
     Using radial grid of  965 points,  3 beta functions with:
                l(1) =   1
                l(2) =   2
                l(3) =   2
     Q(r) pseudized with  8 coefficients,  rinner =    1.000   1.000   1.000
                                                       1.200   1.200

     PseudoPot. # 2 for S  read from file:
     ~/pseudo/S.pw91-van_ak.UPF
     MD5 check sum: Not computed, couldn't open file
     Pseudo is Ultrasoft, Zval =  6.0
     Generated by new atomic code, or converted to UPF format
     Using radial grid of  811 points,  6 beta functions with:
                l(1) =   0
                l(2) =   0
                l(3) =   1
                l(4) =   1
                l(5) =   2
                l(6) =   2
     Q(r) pseudized with  8 coefficients,  rinner =    1.100   1.100   1.100
                                                       1.100   1.100

     atomic species   valence    mass     pseudopotential
        Mo             6.00    95.50000     Mo( 1.00)
        S              6.00    32.06500     S ( 1.00)

     No symmetry found

   Cartesian axes

     site n.     atom                  positions (alat units)
         1           Mo  tau(   1) = (   0.4883648   1.3055717   2.9001519  )
         2           Mo  tau(   2) = (   0.2353930  -0.0474356   2.8938353  )
         3           Mo  tau(   3) = (  -0.0145151   1.3075083   2.8988495  )
         4           Mo  tau(   4) = (   0.7353134  -0.0488125   2.8945843  )
         5           Mo  tau(   5) = (  -0.0154630   0.4043909   2.9059179  )
         6           Mo  tau(   6) = (   0.4852475   0.4040946   2.9079623  )
         7           Mo  tau(   7) = (   0.7350414   0.8571093   2.9109095  )
         8           Mo  tau(   8) = (   0.2371041   0.8568251   2.9097733  )
         9           Mo  tau(   9) = (   0.4286952   0.1078148   3.8746726  )
        10           Mo  tau(  10) = (  -0.0660271   0.1089523   3.8675913  )
        11           Mo  tau(  11) = (   0.5049475  -0.0910424   1.6512180  )
        12           Mo  tau(  12) = (   0.0067899  -0.0937798   1.6545129  )
        13           S   tau(  13) = (   0.2363570  -0.3461785   3.1531661  )
        14           S   tau(  14) = (   0.4863882   1.0139953   3.1689201  )
        15           S   tau(  15) = (   0.7367403  -0.3456610   3.1577061  )
        16           S   tau(  16) = (  -0.0127053   1.0156043   3.1657461  )
        17           S   tau(  17) = (   0.7563364   0.1442617   1.7824446  )
        18           S   tau(  18) = (   0.2532540   0.0536403   1.4189032  )
        19           S   tau(  19) = (   0.2366795  -0.3494780   2.6390505  )
        20           S   tau(  20) = (   0.4862953   1.0054278   2.6468971  )
        21           S   tau(  21) = (   0.7348931  -0.3485202   2.6379434  )
        22           S   tau(  22) = (  -0.0144786   1.0052377   2.6485452  )
        23           S   tau(  23) = (   0.7563399   1.4886462   1.5010234  )
        24           S   tau(  24) = (   0.2585439  -0.2391481   1.8799933  )
        25           S   tau(  25) = (  -0.0148309   0.1016847   3.1548508  )
        26           S   tau(  26) = (   0.4855258   0.1007427   3.1560079  )
        27           S   tau(  27) = (  -0.0152606   0.1110489   2.6374578  )
        28           S   tau(  28) = (   0.4855537   0.1122582   2.6387536  )
        29           S   tau(  29) = (   0.7335861   0.5604467   2.6502732  )
        30           S   tau(  30) = (   0.2351258   0.5588254   2.6511205  )
        31           S   tau(  31) = (   0.6797224  -0.1283988   3.7452132  )
        32           S   tau(  32) = (   0.1770108  -0.0369703   4.1069763  )
        33           S   tau(  33) = (   0.7359610   0.5594273   3.1681872  )
        34           S   tau(  34) = (   0.2343240   0.5585093   3.1675673  )
        35           S   tau(  35) = (   0.6823785   0.3494974   3.9999316  )
        36           S   tau(  36) = (   0.1865612   0.2283024   3.6243756  )

     number of k points=     4  Marzari-Vanderbilt smearing, width (Ry)=  0.0200
                       cart. coord. in units 2pi/alat
        k(    1) = (   0.0000000   0.0000000   0.0000000), wk =   0.3333333
        k(    2) = (   0.0000000  -0.2763583  -0.0456881), wk =   0.3333333
        k(    3) = (   0.3333333  -0.0001250   0.0260595), wk =   0.6666667
        k(    4) = (   0.3333333  -0.2764834  -0.0196286), wk =   0.6666667

     Initial potential from superposition of free atoms

     starting charge  215.98107, renormalised to  216.00000

     negative rho (up, down):  8.559E-04 0.000E+00
     Starting wfcs are  204 randomized atomic wfcs

     Self-consistent Calculation

     iteration #  1     ecut=    45.00 Ry     beta= 0.70
     Davidson diagonalization with overlap
     ethr =  1.00E-02,  avg # of iterations =  2.2

     negative rho (up, down):  2.895E-05 0.000E+00

     total energy              =    -843.76662094 Ry
     Harris-Foulkes estimate   =    -846.34522916 Ry
     estimated scf accuracy    <       6.58027261 Ry

[...]

     iteration # 21     ecut=    45.00 Ry     beta= 0.70
     Davidson diagonalization with overlap
     c_bands:  2 eigenvalues not converged
     c_bands:  1 eigenvalues not converged
     ethr =  7.66E-07,  avg # of iterations = 12.5

[...]

     iteration # 79     ecut=    45.00 Ry     beta= 0.70
     Davidson diagonalization with overlap
     c_bands:  2 eigenvalues not converged
     ethr =  1.51E-07,  avg # of iterations = 18.5

[...]

     total energy              =    -845.05274429 Ry
     Harris-Foulkes estimate   =    -845.05274473 Ry
     estimated scf accuracy    <       0.00000266 Ry

     iteration # 95     ecut=    45.00 Ry     beta= 0.70
     Davidson diagonalization with overlap
     ethr =  1.18E-09,  avg # of iterations =  1.8

[...]

     End of self-consistent calculation

          k = 0.0000 0.0000 0.0000 ( 63675 PWs)   bands (ev):

   -14.8261 -14.0681 -14.0592 -13.7309 -13.6701 -13.6382 -13.3599 -13.3428
   -13.0943 -13.0833 -13.0794 -13.0743 -13.0526 -12.9755 -12.9710 -12.9443
   -12.9318 -12.9125 -12.9054 -12.9037 -12.7127 -12.7037 -12.6955 -12.6766
    -6.5217  -6.4610  -6.4520  -6.3354  -5.9089  -5.8778  -5.7558  -5.6916
    -5.6594  -5.6529  -5.6409  -5.6082  -5.6041  -5.5905  -5.5107  -4.8315
    -4.8175  -4.7847  -4.6803  -4.6379  -4.5977  -4.5875  -4.5757  -4.5600
    -4.5540  -4.5448  -4.3730  -4.3556  -4.3270  -4.3188  -4.3183  -4.2864
    -4.1265  -4.0930  -4.0908  -4.0800  -4.0608  -4.0375  -4.0299  -3.9451
    -3.9298  -3.9264  -3.5153  -3.5067  -3.4391  -3.4183  -3.4019  -3.4010
    -2.9529  -2.9418  -2.7993  -2.7868  -2.7698  -2.7271  -2.6611  -2.6361
    -2.6116  -2.5941  -2.5833  -2.4738  -2.4356  -2.2719  -2.2237  -2.2045
    -2.1402  -2.1247  -2.0374  -2.0152  -1.8819  -1.7254  -1.7105  -1.6966
    -1.6862  -1.6145  -1.3808  -1.3762  -1.3669  -1.3135  -1.2727  -1.0196
    -1.0059  -1.0020  -0.9995  -0.9915  -0.8027  -0.7860   0.6144   0.6477
     0.7132   0.7342   1.0794   1.1493   1.1522   1.1551   1.3032   1.3197
     1.3256   1.3405   1.3559   1.3719   1.3830   1.6488   1.6834   1.7963
     1.8501   1.9315

[...]

          k = 0.3333-0.2765-0.0196 ( 63627 PWs)   bands (ev):

   -14.3352 -14.3189 -13.6182 -13.5941 -13.5208 -13.4909 -13.4471 -13.4196
   -13.2286 -13.2025 -13.1584 -13.1466 -13.0847 -13.0740 -13.0665 -13.0575
   -13.0479 -13.0170 -12.9229 -12.9089 -12.8753 -12.8527 -12.6912 -12.6799
    -5.9063  -5.8753  -5.8423  -5.8287  -5.8179  -5.7862  -5.7760  -5.7676
    -5.7406  -5.7295  -5.3117  -5.2743  -5.2206  -5.1862  -4.7903  -4.7615
    -4.6813  -4.6160  -4.5875  -4.5726  -4.5526  -4.5220  -4.5145  -4.5102
    -4.5010  -4.4752  -4.4537  -4.4122  -4.3908  -4.3810  -4.1153  -4.0986
    -4.0664  -4.0383  -3.9943  -3.9757  -3.9671  -3.9561  -3.9385  -3.9281
    -3.8959  -3.8647  -3.7553  -3.7479  -3.6807  -3.6301  -3.6022  -3.5933
    -3.5698  -3.5631  -3.1749  -3.1426  -3.1192  -3.1083  -2.9910  -2.9716
    -2.9366  -2.9257  -2.9103  -2.8947  -2.7279  -2.7213  -2.7071  -2.6995
    -2.4448  -2.4249  -2.3333  -2.2949  -2.1811  -2.1547  -1.8692  -1.8364
    -1.7134  -1.7081  -1.3125  -1.3097  -1.2934  -1.2724  -1.0348  -1.0120
    -0.9088  -0.9004  -0.7955  -0.7861  -0.0173  -0.0116   0.8990   0.9054
     0.9225   0.9566   0.9649   1.0412   1.1272   1.1449   1.2293   1.2518
     1.2666   1.2818   1.2972   1.3145   1.5117   1.5310   1.5485   1.5597
     1.5760   1.5874

     the Fermi energy is    -0.7024 ev

!    total energy              =    -845.05274464 Ry
     Harris-Foulkes estimate   =    -845.05274455 Ry
     estimated scf accuracy    <       0.00000044 Ry

     The total energy is the sum of the following terms:

     one-electron contribution =   -5179.71756267 Ry
     hartree contribution      =    2656.42973646 Ry
     xc contribution           =    -333.41801280 Ry
     ewald contribution        =    2011.63740854 Ry
     smearing contrib. (-TS)   =       0.01568584 Ry

     convergence has been achieved in  95 iterations

     negative rho (up, down):  1.422E-03 0.000E+00

     Forces acting on atoms (cartesian axes, Ry/au):

     atom    1 type  1   force =    -0.00613174    0.01443210   -0.00117408
     atom    2 type  1   force =     0.00025225    0.00206560    0.00599029
     atom    3 type  1   force =     0.00301609    0.01063639    0.00072243
     atom    4 type  1   force =    -0.00183594    0.00393016    0.00286572
     atom    5 type  1   force =    -0.00118301    0.00718298    0.00106764
     atom    6 type  1   force =    -0.00048131    0.00853211   -0.00329188
     atom    7 type  1   force =     0.00295173    0.00409353   -0.00770652
     atom    8 type  1   force =    -0.00430681    0.00687575   -0.00433538
     atom    9 type  1   force =     0.00171359   -0.00259754    0.00404585
     atom   10 type  1   force =    -0.00080887   -0.00228566    0.00902180
     atom   11 type  1   force =     0.00331364    0.00075355   -0.02442899
     atom   12 type  1   force =    -0.00100720    0.00301266   -0.02716791
     atom   13 type  2   force =    -0.00060191   -0.00012011   -0.00680968
     atom   14 type  2   force =    -0.00061443   -0.00271782   -0.01720498
     atom   15 type  2   force =    -0.00092748   -0.00124811   -0.01604053
     atom   16 type  2   force =    -0.00174350   -0.00454368   -0.01264277
     atom   17 type  2   force =    -0.00021431    0.01951760    0.02276372
     atom   18 type  2   force =     0.00045892    0.00148353   -0.00267210
     atom   19 type  2   force =    -0.00019944   -0.00416764    0.01282203
     atom   20 type  2   force =     0.00065189   -0.00250652    0.01323087
     atom   21 type  2   force =     0.00196417   -0.00487785    0.01363040
     atom   22 type  2   force =     0.00135475   -0.00250316    0.00983562
     atom   23 type  2   force =    -0.00026039   -0.01010580    0.00071221
     atom   24 type  2   force =    -0.00039826   -0.01466468    0.03018622
     atom   25 type  2   force =    -0.00125381   -0.00460578   -0.01219818
     atom   26 type  2   force =     0.00021155   -0.00355353   -0.00946941
     atom   27 type  2   force =     0.00052079   -0.00416765    0.01612479
     atom   28 type  2   force =     0.00023490   -0.00564829    0.01458238
     atom   29 type  2   force =     0.00237019   -0.00246114    0.01082557
     atom   30 type  2   force =     0.00153931   -0.00043814    0.00735543
     atom   31 type  2   force =     0.00129502   -0.01993913   -0.01315075
     atom   32 type  2   force =     0.00102896    0.00540914    0.00873373
     atom   33 type  2   force =    -0.00135875   -0.00904663   -0.01289284
     atom   34 type  2   force =     0.00121448   -0.00632484   -0.01504707
     atom   35 type  2   force =     0.00101487    0.00843631    0.00515808
     atom   36 type  2   force =    -0.00177995    0.01216228   -0.00344173

     Total force =     0.090929     Total SCF correction =     0.001512

     General routines

     Parallel routines

   This run was terminated on:  21: 2:19  19Nov2021

   JOB DONE.