     Program PWSCF v.6.4 starts on  3Dec2021 at 18:38:48

     R & G space division:  proc/nbgrp/npool/nimage =      40
     Waiting for input...
     Reading input from standard input
Warning: card    &IONS ignored
Warning: card      ION_DYNAMICS = 'BFGS' ignored
Warning: card   / ignored
Warning: card    &CELL ignored
Warning: card      CELL_DYNAMICS = 'BFGS', ignored
Warning: card    / ignored

     Current dimensions of program PWSCF are:
     Max number of different atomic species (ntypx) = 10
     Max number of k-points (npk) =  40000
     Max angular momentum in pseudopotentials (lmaxx) =  3

     bravais-lattice index     =            0
     lattice parameter (alat)  =      11.9345  a.u.
     unit-cell volume          =   19626.8282 (a.u.)^3
     number of atoms/cell      =           36
     number of atomic types    =            2
     number of electrons       =       216.00
     number of Kohn-Sham states=          130
     kinetic-energy cutoff     =      45.0000  Ry
     charge density cutoff     =     360.0000  Ry
     convergence threshold     =      1.0E-06
     mixing beta               =       0.7000
     number of iterations used =            8  local-TF  mixing
     Exchange-correlation      = SLA PW GGX GGC ( 1  4  2  2 0 0)

     celldm(1)=  11.934524  celldm(2)=   0.000000  celldm(3)=   0.000000
     celldm(4)=   0.000000  celldm(5)=   0.000000  celldm(6)=   0.000000

     crystal axes: (cart. coord. in units of alat)
               a(1) = (   1.000000   0.000000   0.000000 )
               a(2) = (  -0.271091   1.855279   0.000000 )
               a(3) = (  -0.000142  -0.456147   6.223371 )

     reciprocal axes: (cart. coord. in units 2 pi/alat)
               b(1) = (  1.000000  0.146119  0.010733 )
               b(2) = (  0.000000  0.539003  0.039507 )
               b(3) = (  0.000000  0.000000  0.160685 )

     PseudoPot. # 1 for Mo read from file:
     ~/pseudo/Mo.pw91-n-van.UPF
     MD5 check sum: Not computed, couldn't open file
     Pseudo is Ultrasoft + core correction, Zval =  6.0
     Generated by new atomic code, or converted to UPF format
     Using radial grid of  965 points,  3 beta functions with:
                l(1) =   1
                l(2) =   2
                l(3) =   2
     Q(r) pseudized with  8 coefficients,  rinner =    1.000   1.000   1.000
                                                       1.200   1.200

     PseudoPot. # 2 for S  read from file:
     ~/pseudo/S.pw91-van_ak.UPF
     MD5 check sum: Not computed, couldn't open file
     Pseudo is Ultrasoft, Zval =  6.0
     Generated by new atomic code, or converted to UPF format
     Using radial grid of  811 points,  6 beta functions with:
                l(1) =   0
                l(2) =   0
                l(3) =   1
                l(4) =   1
                l(5) =   2
                l(6) =   2
     Q(r) pseudized with  8 coefficients,  rinner =    1.100   1.100   1.100
                                                       1.100   1.100

     atomic species   valence    mass     pseudopotential
        Mo             6.00    95.50000     Mo( 1.00)
        S              6.00    32.06500     S ( 1.00)

     No symmetry found

   Cartesian axes

     site n.     atom                  positions (alat units)
         1           Mo  tau(   1) = (   0.1957221   0.4352566   3.4551460  )
         2           Mo  tau(   2) = (   0.4497005  -0.1026510   3.5927323  )
         3           Mo  tau(   3) = (   0.6934402   0.4351496   3.4568085  )
         4           Mo  tau(   4) = (   0.9497065  -0.1038784   3.5934769  )
         5           Mo  tau(   5) = (   0.4333492   1.3043374   3.5507455  )
         6           Mo  tau(   6) = (  -0.0669474   1.3045929   3.5512339  )
         7           Mo  tau(   7) = (   0.6895639   0.8820619   3.5133882  )
         8           Mo  tau(   8) = (   0.1888885   0.8817325   3.5128996  )
         9           Mo  tau(   9) = (  -0.1057346   1.6038173   2.2709225  )
        10           Mo  tau(  10) = (   0.4467964   1.6200244   2.2636994  )
        11           Mo  tau(  11) = (  -0.0266247   0.1174469   2.4408504  )
        12           Mo  tau(  12) = (   0.4942302   0.1100705   2.4547182  )
        13           S   tau(  13) = (   0.1974021   0.1784034   3.7408980  )
        14           S   tau(  14) = (  -0.0579684   0.6396620   3.7217638  )
        15           S   tau(  15) = (   0.6990542   0.1776150   3.7427089  )
        16           S   tau(  16) = (   0.4415491   0.6410433   3.7226483  )
        17           S   tau(  17) = (   0.7335045   0.1056488   2.1362831  )
        18           S   tau(  18) = (   0.2389880   0.0962555   2.1646277  )
        19           S   tau(  19) = (   0.4458945   0.1840995   3.2955275  )
        20           S   tau(  20) = (  -0.0588589   0.6968422   3.2525888  )
        21           S   tau(  21) = (  -0.0547536   0.1834996   3.2977736  )
        22           S   tau(  22) = (   0.4417158   0.6988596   3.2523193  )
        23           S   tau(  23) = (   0.7322554   0.3734014   2.5738723  )
        24           S   tau(  24) = (   0.2172803   0.2294851   2.7143693  )
        25           S   tau(  25) = (   0.4288182   1.5661735   3.8291365  )
        26           S   tau(  26) = (  -0.0702422   1.5668885   3.8296597  )
        27           S   tau(  27) = (   0.6999126  -0.2367057   3.3286360  )
        28           S   tau(  28) = (   0.1999320  -0.2370325   3.3288903  )
        29           S   tau(  29) = (   0.6832701   1.1794458   3.2786136  )
        30           S   tau(  30) = (   0.1829718   1.1798255   3.2790083  )
        31           S   tau(  31) = (   0.6720260   1.4538633   2.0231582  )
        32           S   tau(  32) = (   0.4241028  -0.0589933   2.7504533  )
        33           S   tau(  33) = (   0.6826788   1.1335137   3.7961637  )
        34           S   tau(  34) = (   0.1828370   1.1333466   3.7956845  )
        35           S   tau(  35) = (   0.9311393  -0.2290000   2.5622225  )
        36           S   tau(  36) = (   0.1758229   1.3860284   2.3690882  )

     number of k points=     4  Marzari-Vanderbilt smearing, width (Ry)=  0.0200
                       cart. coord. in units 2pi/alat
        k(    1) = (   0.0000000   0.0000000   0.0000000), wk =   0.3333333
        k(    2) = (   0.0000000  -0.2695013  -0.0197533), wk =   0.3333333
        k(    3) = (   0.3333333   0.0487063   0.0035776), wk =   0.6666667
        k(    4) = (   0.3333333  -0.2207950  -0.0161757), wk =   0.6666667

     Initial potential from superposition of free atoms

     starting charge  215.98107, renormalised to  216.00000

     negative rho (up, down):  3.199E-03 0.000E+00
     Starting wfcs are  204 randomized atomic wfcs

     Self-consistent Calculation

     iteration #  1     ecut=    45.00 Ry     beta= 0.70
     Davidson diagonalization with overlap
     ethr =  1.00E-02,  avg # of iterations =  2.2

     negative rho (up, down):  1.474E-03 0.000E+00

     total energy              =    -843.23660342 Ry
     Harris-Foulkes estimate   =    -846.01333324 Ry
     estimated scf accuracy    <       7.73993968 Ry

[...]

     iteration #  9     ecut=    45.00 Ry     beta= 0.70
     Davidson diagonalization with overlap
     c_bands:  1 eigenvalues not converged
     ethr =  5.29E-06,  avg # of iterations =  7.2

[...]

     total energy              =    -844.67573992 Ry
     Harris-Foulkes estimate   =    -844.67573891 Ry
     estimated scf accuracy    <       0.00000128 Ry

     iteration # 24     ecut=    45.00 Ry     beta= 0.70
     Davidson diagonalization with overlap
     ethr =  5.91E-10,  avg # of iterations =  1.2

[...]

     End of self-consistent calculation

          k = 0.0000 0.0000 0.0000 (100095 PWs)   bands (ev):

   -16.8411 -16.7529 -16.2300 -16.0090 -15.7087 -15.6900 -15.4704 -15.3085
   -15.2999 -15.2819 -15.1763 -15.0670 -15.0612 -14.9720 -14.9068 -14.8695
   -14.7935 -14.7688 -14.6704 -14.5383 -14.4065 -14.3469 -14.2715 -13.6639
    -8.6901  -8.5054  -8.2852  -8.2303  -8.1898  -7.8936  -7.8892  -7.8159
    -7.6682  -7.6334  -7.6070  -7.5570  -7.4416  -7.4229  -7.3588  -7.3463
    -7.1702  -7.0509  -6.9892  -6.9572  -6.8399  -6.7854  -6.7483  -6.6335
    -6.5879  -6.5683  -6.4758  -6.4318  -6.2596  -6.2268  -6.0259  -5.9866
    -5.9493  -5.9098  -5.8136  -5.7283  -5.6837  -5.6125  -5.5617  -5.5062
    -5.4920  -5.4130  -5.3603  -5.3550  -5.2335  -5.1997  -5.1564  -5.1393
    -5.0752  -5.0059  -4.9005  -4.8766  -4.8412  -4.7646  -4.7434  -4.7193
    -4.6331  -4.6209  -4.5647  -4.4552  -4.4125  -4.3292  -4.3118  -4.1673
    -4.0933  -4.0327  -4.0117  -3.9150  -3.8469  -3.6745  -3.6684  -3.6065
    -3.4814  -3.4560  -3.3358  -3.2902  -3.1963  -3.0304  -2.9583  -2.9243
    -2.6868  -2.6128  -2.2045  -2.1236  -1.9366  -1.8943  -1.8350  -1.6789
    -1.3397  -1.1330  -1.0704  -0.9809  -0.9697  -0.8705  -0.7648  -0.6655
    -0.6189  -0.5749  -0.5476  -0.5369  -0.4806  -0.4660  -0.4576  -0.4124
    -0.3523  -0.1815

[...]

          k = 0.3333 0.0487 0.0036 ( 99983 PWs)   bands (ev):

[...]

          k = 0.3333-0.2208-0.0162 (100109 PWs)   bands (ev):

   -16.7019 -16.4506 -16.2706 -15.7822 -15.6163 -15.6112 -15.5675 -15.4833
   -15.4357 -15.2275 -15.2137 -15.1632 -15.1236 -15.0453 -15.0243 -14.9697
   -14.8330 -14.7779 -14.7194 -14.6442 -14.5743 -14.3445 -14.2786 -13.6651
    -8.0784  -8.0481  -7.9122  -7.9070  -7.8696  -7.7728  -7.6785  -7.5793
    -7.5236  -7.5122  -7.4340  -7.3746  -7.3678  -7.2275  -7.1073  -7.0484
    -6.9380  -6.9282  -6.8998  -6.7725  -6.7339  -6.7241  -6.6538  -6.5931
    -6.4335  -6.4009  -6.3445  -6.3414  -6.2827  -6.2432  -6.2197  -6.0963
    -6.0731  -6.0488  -5.9607  -5.9235  -5.8489  -5.8159  -5.7917  -5.7031
    -5.6625  -5.6145  -5.5946  -5.5367  -5.4358  -5.4144  -5.3813  -5.3361
    -5.2488  -5.2117  -5.1896  -5.1138  -5.0828  -4.9909  -4.8922  -4.8385
    -4.8333  -4.8168  -4.6740  -4.5620  -4.4989  -4.4434  -4.3354  -4.2977
    -4.1939  -4.0344  -4.0024  -3.9638  -3.9359  -3.8254  -3.7261  -3.6622
    -3.5192  -3.4518  -3.4204  -3.2294  -3.1271  -3.0445  -3.0352  -2.8314
    -2.5321  -2.2159  -2.1712  -2.1211  -2.0425  -1.9459  -1.8344  -1.6501
    -1.5773  -1.4217  -1.4029  -1.1890  -1.1009  -0.9998  -0.9364  -0.8943
    -0.8608  -0.8373  -0.7742  -0.7239  -0.6446  -0.6261  -0.5809  -0.5337
    -0.4993  -0.4087

     the Fermi energy is    -2.0432 ev

!    total energy              =    -844.67574156 Ry
     Harris-Foulkes estimate   =    -844.67573998 Ry
     estimated scf accuracy    <       0.00000043 Ry

     The total energy is the sum of the following terms:

     one-electron contribution =  -13423.01040257 Ry
     hartree contribution      =    6762.88843970 Ry
     xc contribution           =    -333.35937425 Ry
     ewald contribution        =    6148.82254759 Ry
     smearing contrib. (-TS)   =      -0.01695203 Ry

     convergence has been achieved in  24 iterations

     negative rho (up, down):  4.369E-03 0.000E+00

     Forces acting on atoms (cartesian axes, Ry/au):

     atom    1 type  1   force =    -0.00270986    0.04468103    0.01350094
     atom    2 type  1   force =     0.00065013   -0.02354752   -0.01429429
     atom    3 type  1   force =     0.00001508    0.04496947    0.01109272
     atom    4 type  1   force =    -0.00036114   -0.02051704   -0.01627726
     atom    5 type  1   force =    -0.00468111   -0.01975075   -0.01333282
     atom    6 type  1   force =    -0.00452981   -0.01982045   -0.01386256
     atom    7 type  1   force =    -0.00188302   -0.07145349   -0.00442734
     atom    8 type  1   force =     0.00138887   -0.06997841   -0.00358841
     atom    9 type  1   force =     0.00623137   -0.03310012   -0.01180992
     atom   10 type  1   force =     0.00301134   -0.05401948    0.04112962
     atom   11 type  1   force =    -0.01851768   -0.01172195   -0.02444542
     atom   12 type  1   force =     0.03774534    0.07921791   -0.08755314
     atom   13 type  2   force =     0.00307733   -0.00765850   -0.00136275
     atom   14 type  2   force =    -0.00038104    0.02407721   -0.01782964
     atom   15 type  2   force =    -0.00088453   -0.00623085   -0.00278162
     atom   16 type  2   force =     0.00016146    0.02189041   -0.01943923
     atom   17 type  2   force =    -0.01975208    0.03909962   -0.00354102
     atom   18 type  2   force =    -0.00543081    0.01666316   -0.00513222
     atom   19 type  2   force =     0.00005697    0.01488725    0.00630607
     atom   20 type  2   force =    -0.00151832   -0.00126179    0.01335001
     atom   21 type  2   force =     0.00050538    0.01694435    0.00660985
     atom   22 type  2   force =    -0.00246150   -0.00037679    0.01433686
     atom   23 type  2   force =    -0.01342564    0.00635893   -0.00199631
     atom   24 type  2   force =     0.00527679   -0.01731967    0.02462777
     atom   25 type  2   force =     0.00127912    0.02702746    0.01184213
     atom   26 type  2   force =     0.00141487    0.02618859    0.01140879
     atom   27 type  2   force =     0.00128421    0.00294105    0.00614210
     atom   28 type  2   force =    -0.00003210    0.00359818    0.00541786
     atom   29 type  2   force =     0.00260679    0.00746482    0.01215364
     atom   30 type  2   force =     0.00181022    0.00680762    0.01120248
     atom   31 type  2   force =     0.01400919    0.00764710   -0.02189985
     atom   32 type  2   force =    -0.02380747   -0.02560545    0.05702979
     atom   33 type  2   force =     0.00396980   -0.00042698   -0.00714868
     atom   34 type  2   force =     0.00289130   -0.00073359   -0.00711931
     atom   35 type  2   force =     0.01362610   -0.00149256    0.04186873
     atom   36 type  2   force =    -0.00063554   -0.00544878   -0.01017758

     Total force =     0.234963     Total SCF correction =     0.001379

     General routines

     Parallel routines

   This run was terminated on:  18:47:48   3Dec2021

   JOB DONE.