     Program PWSCF v.6.4 starts on 10Nov2021 at 18:21:32

     R & G space division:  proc/nbgrp/npool/nimage =      40
     Waiting for input...
     Reading input from standard input
Warning: card    &IONS ignored
Warning: card      ION_DYNAMICS = 'BFGS' ignored
Warning: card   / ignored
Warning: card    &CELL ignored
Warning: card      CELL_DYNAMICS = 'BFGS', ignored
Warning: card    / ignored

     Current dimensions of program PWSCF are:
     Max number of different atomic species (ntypx) = 10
     Max number of k-points (npk) =  40000
     Max angular momentum in pseudopotentials (lmaxx) =  3

     bravais-lattice index     =            0
     lattice parameter (alat)  =       6.0980  a.u.
     unit-cell volume          =    1314.0816 (a.u.)^3
     number of atoms/cell      =            9
     number of atomic types    =            2
     number of electrons       =        54.00
     number of Kohn-Sham states=           32
     kinetic-energy cutoff     =      45.0000  Ry
     charge density cutoff     =     360.0000  Ry
     convergence threshold     =      1.0E-06
     mixing beta               =       0.7000
     number of iterations used =            8  local-TF  mixing
     Exchange-correlation      = SLA PW GGX GGC ( 1  4  2  2 0 0)

     celldm(1)=   6.098044  celldm(2)=   0.000000  celldm(3)=   0.000000
     celldm(4)=   0.000000  celldm(5)=   0.000000  celldm(6)=   0.000000

     crystal axes: (cart. coord. in units of alat)
               a(1) = (   1.000000   0.000000   0.000000 )
               a(2) = (   0.494444   0.861315   0.000000 )
               a(3) = (  -0.148291  -0.182236   6.728040 )

     reciprocal axes: (cart. coord. in units 2 pi/alat)
               b(1) = (  1.000000 -0.574057  0.006492 )
               b(2) = (  0.000000  1.161015  0.031447 )
               b(3) = (  0.000000  0.000000  0.148632 )

     PseudoPot. # 1 for Mo read from file:
     ~/pseudo/Mo.pw91-n-van.UPF
     MD5 check sum: Not computed, couldn't open file
     Pseudo is Ultrasoft + core correction, Zval =  6.0
     Generated by new atomic code, or converted to UPF format
     Using radial grid of  965 points,  3 beta functions with:
                l(1) =   1
                l(2) =   2
                l(3) =   2
     Q(r) pseudized with  8 coefficients,  rinner =    1.000   1.000   1.000
                                                       1.200   1.200

     PseudoPot. # 2 for S  read from file:
     ~/pseudo/S.pw91-van_ak.UPF
     MD5 check sum: Not computed, couldn't open file
     Pseudo is Ultrasoft, Zval =  6.0
     Generated by new atomic code, or converted to UPF format
     Using radial grid of  811 points,  6 beta functions with:
                l(1) =   0
                l(2) =   0
                l(3) =   1
                l(4) =   1
                l(5) =   2
                l(6) =   2
     Q(r) pseudized with  8 coefficients,  rinner =    1.100   1.100   1.100
                                                       1.100   1.100

     atomic species   valence    mass     pseudopotential
        Mo             6.00    95.50000     Mo( 1.00)
        S              6.00    32.06500     S ( 1.00)

     No symmetry found

   Cartesian axes

     site n.     atom                  positions (alat units)
         1           Mo  tau(   1) = (   1.0236508   0.5559749   2.2825090  )
         2           Mo  tau(   2) = (   0.3319740   0.1678670   4.1606917  )
         3           Mo  tau(   3) = (   0.4827094   0.8197635   0.2809704  )
         4           S   tau(   4) = (   0.4870717   0.2438457   0.7764609  )
         5           S   tau(   5) = (   1.0323001  -0.0173088   1.7980579  )
         6           S   tau(   6) = (   1.0237887  -0.0226309   2.7646804  )
         7           S   tau(   7) = (   0.8327603   0.4425808   3.6659413  )
         8           S   tau(   8) = (   0.8252761   0.4633145   4.6462929  )
         9           S   tau(   9) = (   0.3477062   0.0647509   6.5225778  )

     number of k points=    20  Marzari-Vanderbilt smearing, width (Ry)=  0.0200
                       cart. coord. in units 2pi/alat
        k(    1) = (   0.0000000   0.0000000   0.0000000), wk =   0.0555556
        k(    2) = (   0.0000000   0.1935025   0.0052412), wk =   0.1111111
        k(    3) = (   0.0000000   0.3870050   0.0104825), wk =   0.1111111
        k(    4) = (   0.0000000  -0.5805076  -0.0157237), wk =   0.0555556
        k(    5) = (   0.1666667  -0.0956762   0.0010820), wk =   0.1111111
        k(    6) = (   0.1666667   0.0978263   0.0063232), wk =   0.1111111
        k(    7) = (   0.1666667   0.2913288   0.0115644), wk =   0.1111111
        k(    8) = (   0.1666667  -0.6761838  -0.0146417), wk =   0.1111111
        k(    9) = (   0.1666667  -0.4826812  -0.0094005), wk =   0.1111111
        k(   10) = (   0.1666667  -0.2891787  -0.0041593), wk =   0.1111111
        k(   11) = (   0.3333333  -0.1913524   0.0021640), wk =   0.1111111
        k(   12) = (   0.3333333   0.0021501   0.0074052), wk =   0.1111111
        k(   13) = (   0.3333333   0.1956526   0.0126464), wk =   0.1111111
        k(   14) = (   0.3333333  -0.7718600  -0.0135597), wk =   0.1111111
        k(   15) = (   0.3333333  -0.5783574  -0.0083185), wk =   0.1111111
        k(   16) = (   0.3333333  -0.3848549  -0.0030773), wk =   0.1111111
        k(   17) = (  -0.5000000   0.2870286  -0.0032459), wk =   0.0555556
        k(   18) = (  -0.5000000   0.4805311   0.0019953), wk =   0.1111111
        k(   19) = (  -0.5000000   0.6740336   0.0072365), wk =   0.1111111
        k(   20) = (  -0.5000000  -0.2934790  -0.0189696), wk =   0.0555556

     Initial potential from superposition of free atoms

     starting charge   53.99527, renormalised to   54.00000
     Starting wfcs are   51 randomized atomic wfcs

     Self-consistent Calculation

     iteration #  1     ecut=    45.00 Ry     beta= 0.70
     Davidson diagonalization with overlap
     ethr =  1.00E-02,  avg # of iterations =  2.0

     total energy              =    -211.05191156 Ry
     Harris-Foulkes estimate   =    -211.70365128 Ry
     estimated scf accuracy    <       1.66441382 Ry

[...]

     iteration #  6     ecut=    45.00 Ry     beta= 0.70
     Davidson diagonalization with overlap
     c_bands:  1 eigenvalues not converged
     c_bands:  2 eigenvalues not converged
     ethr =  3.64E-06,  avg # of iterations =  7.2

[...]

     total energy              =    -211.37809186 Ry
     Harris-Foulkes estimate   =    -211.37809207 Ry
     estimated scf accuracy    <       0.00000111 Ry

     iteration # 17     ecut=    45.00 Ry     beta= 0.70
     Davidson diagonalization with overlap
     ethr =  2.06E-09,  avg # of iterations =  3.0

     End of self-consistent calculation

          k = 0.0000 0.0000 0.0000 (  6777 PWs)   bands (ev):

    -8.4408  -8.2480  -8.1984  -7.2422  -7.0608  -6.9354  -0.1735   0.2472
     0.5491   2.9571   3.0359   3.1317   3.1423   3.2115   3.2197   3.3683
     3.9851   4.0997   4.1780   4.2028   4.2564   4.3302   4.3676   4.8399
     5.4930   5.9174   6.3104   8.2406   8.3505   8.4025   8.4068   8.4470

[...]

          k = 0.3333-0.3849-0.0031 (  6669 PWs)   bands (ev):

[...]

          k =-0.5000 0.2870-0.0032 (  6658 PWs)   bands (ev):

[...]

          k =-0.5000-0.2935-0.0190 (  6652 PWs)   bands (ev):

    -6.6944  -6.5151  -6.4901  -6.3597  -6.2280  -6.1878  -0.0507   0.1276
     0.1671   0.8505   1.0200   1.1576   1.4691   1.7302   1.9369   2.4805
     2.6105   2.6603   3.4985   3.8890   4.2444   4.6201   4.7766   4.8293
     4.9962   5.1228   5.2315   7.6876   7.7615   7.7706   8.1876   8.2697

     the Fermi energy is     6.5421 ev

!    total energy              =    -211.37809154 Ry
     Harris-Foulkes estimate   =    -211.37809200 Ry
     estimated scf accuracy    <       0.00000046 Ry

     The total energy is the sum of the following terms:

     one-electron contribution =    -175.49467061 Ry
     hartree contribution      =     117.39187437 Ry
     xc contribution           =     -83.57848707 Ry
     ewald contribution        =     -69.69695917 Ry
     smearing contrib. (-TS)   =       0.00015094 Ry

     convergence has been achieved in  17 iterations

     Forces acting on atoms (cartesian axes, Ry/au):

     atom    1 type  1   force =    -0.00066306   -0.00310134   -0.00499845
     atom    2 type  1   force =    -0.00438645   -0.00222795   -0.01547699
     atom    3 type  1   force =     0.01126390    0.00094384    0.01597587
     atom    4 type  2   force =    -0.00008175    0.00141017   -0.01353196
     atom    5 type  2   force =    -0.00521157   -0.00188223   -0.01069864
     atom    6 type  2   force =     0.00456387    0.00390920    0.00993151
     atom    7 type  2   force =    -0.00128135    0.01310616    0.01648780
     atom    8 type  2   force =     0.00610927   -0.01016029    0.00752221
     atom    9 type  2   force =    -0.01031285   -0.00199756   -0.00521135

     Total force =     0.043894     Total SCF correction =     0.002058

     General routines

     Parallel routines

   This run was terminated on:  18:22: 1  10Nov2021

   JOB DONE.