     Program PWSCF v.6.4 starts on  4Aug2021 at 15:51:55

     R & G space division:  proc/nbgrp/npool/nimage =      40
     Waiting for input...
     Reading input from standard input
Warning: card    &IONS ignored
Warning: card      ION_DYNAMICS = 'BFGS' ignored
Warning: card   / ignored
Warning: card    &CELL ignored
Warning: card      CELL_DYNAMICS = 'BFGS', ignored
Warning: card    / ignored

     Current dimensions of program PWSCF are:
     Max number of different atomic species (ntypx) = 10
     Max number of k-points (npk) =  40000
     Max angular momentum in pseudopotentials (lmaxx) =  3

     bravais-lattice index     =            0
     lattice parameter (alat)  =      12.9843  a.u.
     unit-cell volume          =    3493.2380 (a.u.)^3
     number of atoms/cell      =           24
     number of atomic types    =            2
     number of electrons       =       144.00
     number of Kohn-Sham states=           86
     kinetic-energy cutoff     =      45.0000  Ry
     charge density cutoff     =     360.0000  Ry
     convergence threshold     =      1.0E-06
     mixing beta               =       0.7000
     number of iterations used =            8  local-TF  mixing
     Exchange-correlation      = SLA PW GGX GGC ( 1  4  2  2 0 0)

     celldm(1)=  12.984331  celldm(2)=   0.000000  celldm(3)=   0.000000
     celldm(4)=   0.000000  celldm(5)=   0.000000  celldm(6)=   0.000000

     crystal axes: (cart. coord. in units of alat)
               a(1) = (   0.998573   0.023019   0.048196 )
               a(2) = (  -0.235138   0.415784  -0.011848 )
               a(3) = (  -0.263033  -0.800121   3.782245 )

     reciprocal axes: (cart. coord. in units 2 pi/alat)
               b(1) = (  0.979539  0.559271  0.186433 )
               b(2) = ( -0.078726  2.374735  0.496892 )
               b(3) = ( -0.012729  0.000312  0.263574 )

     PseudoPot. # 1 for Mo read from file:
     ~/pseudo/Mo.pw91-n-van.UPF
     MD5 check sum: Not computed, couldn't open file
     Pseudo is Ultrasoft + core correction, Zval =  6.0
     Generated by new atomic code, or converted to UPF format
     Using radial grid of  965 points,  3 beta functions with:
                l(1) =   1
                l(2) =   2
                l(3) =   2
     Q(r) pseudized with  8 coefficients,  rinner =    1.000   1.000   1.000
                                                       1.200   1.200

     PseudoPot. # 2 for S  read from file:
     ~/pseudo/S.pw91-van_ak.UPF
     MD5 check sum: Not computed, couldn't open file
     Pseudo is Ultrasoft, Zval =  6.0
     Generated by new atomic code, or converted to UPF format
     Using radial grid of  811 points,  6 beta functions with:
                l(1) =   0
                l(2) =   0
                l(3) =   1
                l(4) =   1
                l(5) =   2
                l(6) =   2
     Q(r) pseudized with  8 coefficients,  rinner =    1.100   1.100   1.100
                                                       1.100   1.100

     atomic species   valence    mass     pseudopotential
        Mo             6.00    95.50000     Mo( 1.00)
        S              6.00    32.06500     S ( 1.00)

     No symmetry found

   Cartesian axes

     site n.     atom                  positions (alat units)
         1           Mo  tau(   1) = (   0.0358531  -0.2019260   1.4366171  )
         2           Mo  tau(   2) = (  -0.2262682  -0.7242163   3.2892284  )
         3           Mo  tau(   3) = (   0.4971017  -0.2238796   1.3842306  )
         4           Mo  tau(   4) = (   0.1725223  -0.7630619   3.4784685  )
         5           Mo  tau(   5) = (  -0.0661533  -0.0228267   0.5312960  )
         6           Mo  tau(   6) = (  -0.2448452  -0.4917062   2.3429733  )
         7           Mo  tau(   7) = (   0.3750170  -0.0565777   0.4750398  )
         8           Mo  tau(   8) = (   0.2722605  -0.4745044   2.3492300  )
         9           S   tau(   9) = (   0.2962589  -0.3376475   1.6532952  )
        10           S   tau(  10) = (  -0.1124855  -0.6523934   3.6443105  )
        11           S   tau(  11) = (   0.7590563  -0.3482048   1.6280276  )
        12           S   tau(  12) = (   0.4749194  -0.6007072   3.4905595  )
        13           S   tau(  13) = (  -0.1236332   0.2062021   0.2690674  )
        14           S   tau(  14) = (  -0.2250575  -0.2080615   2.1167359  )
        15           S   tau(  15) = (   0.3628237   0.2052794   0.2415426  )
        16           S   tau(  16) = (   0.2895299  -0.1850477   2.1187330  )
        17           S   tau(  17) = (   0.1267115   0.1601612   0.7546106  )
        18           S   tau(  18) = (  -0.2578936  -0.2147852   2.5857065  )
        19           S   tau(  19) = (   0.6408927   0.0936258   0.7230740  )
        20           S   tau(  20) = (   0.2602520  -0.1960377   2.5809545  )
        21           S   tau(  21) = (   0.2389230  -0.0976955   1.1628280  )
        22           S   tau(  22) = (   0.0505941  -0.5564794   3.2082596  )
        23           S   tau(  23) = (   0.7713544  -0.0622040   1.2369182  )
        24           S   tau(  24) = (   0.6461356  -0.5003392   3.0595060  )

     number of k points=    10  Marzari-Vanderbilt smearing, width (Ry)=  0.0200
                       cart. coord. in units 2pi/alat
        k(    1) = (   0.0000000   0.0000000   0.0000000), wk =   0.1111111
        k(    2) = (  -0.0131210   0.3957891   0.0828154), wk =   0.2222222
        k(    3) = (  -0.0262419   0.7915782   0.1656308), wk =   0.2222222
        k(    4) = (   0.0393629  -1.1873673  -0.2484462), wk =   0.1111111
        k(    5) = (   0.3265129   0.1864235   0.0621444), wk =   0.2222222
        k(    6) = (   0.3133919   0.5822127   0.1449597), wk =   0.2222222
        k(    7) = (   0.3002710   0.9780018   0.2277751), wk =   0.2222222
        k(    8) = (   0.3658758  -1.0009438  -0.1863018), wk =   0.2222222
        k(    9) = (   0.3527548  -0.6051547  -0.1034864), wk =   0.2222222
        k(   10) = (   0.3396339  -0.2093656  -0.0206710), wk =   0.2222222

     Initial potential from superposition of free atoms

     starting charge  143.98738, renormalised to  144.00000
     Starting wfcs are  136 randomized atomic wfcs

     Self-consistent Calculation

     iteration #  1     ecut=    45.00 Ry     beta= 0.70
     Davidson diagonalization with overlap
     ethr =  1.00E-02,  avg # of iterations =  2.0

     total energy              =    -561.89808537 Ry
     Harris-Foulkes estimate   =    -564.15026916 Ry
     estimated scf accuracy    <       6.00484800 Ry

[...]

     iteration # 14     ecut=    45.00 Ry     beta= 0.70
     Davidson diagonalization with overlap
     c_bands:  1 eigenvalues not converged
     ethr =  1.75E-07,  avg # of iterations =  4.4

[...]

     total energy              =    -563.08856286 Ry
     Harris-Foulkes estimate   =    -563.08856537 Ry
     estimated scf accuracy    <       0.00001181 Ry

     iteration # 17     ecut=    45.00 Ry     beta= 0.70
     Davidson diagonalization with overlap
     ethr =  8.20E-09,  avg # of iterations =  2.8

     End of self-consistent calculation

          k = 0.0000 0.0000 0.0000 ( 17807 PWs)   bands (ev):

    -8.1131  -7.7608  -7.6070  -7.4679  -7.0680  -6.9429  -6.7588  -6.6409
    -6.4766  -6.4029  -6.2484  -6.1323  -6.0649  -5.9871  -5.8930  -5.8102
     0.2844   0.4776   0.6022   0.6307   0.8412   0.8962   1.0112   1.3019
     1.3501   1.6024   1.8334   1.8564   1.9854   2.1558   2.3046   2.4561
     2.5540   2.5750   2.6978   2.8477   2.9491   3.0374   3.0865   3.1385
     3.1959   3.2124   3.2677   3.3235   3.3973   3.4579   3.7191   3.8027
     3.8908   4.1201   4.1569   4.2159   4.4397   4.5376   4.5557   4.6783
     4.7445   4.8570   4.9544   5.0249   5.0451   5.0958   5.1139   5.2634
     5.3650   5.4104   5.6129   5.7463   5.8199   6.0194   6.1469   6.2319
     6.3793   6.3942   6.4658   6.5578   6.8720   6.9597   7.3341   7.3636
     7.5780   7.6570   7.7382   7.8389   7.8680   8.0087

          k =-0.0131 0.3958 0.0828 ( 17825 PWs)   bands (ev):

[...]

          k =-0.0262 0.7916 0.1656 ( 17757 PWs)   bands (ev):

[...]

          k = 0.3396-0.2094-0.0207 ( 17830 PWs)   bands (ev):

    -7.8075  -7.4490  -7.2974  -7.1767  -6.9731  -6.8404  -6.6837  -6.5478
    -6.3607  -6.3091  -6.2057  -6.1493  -6.0583  -5.9005  -5.8135  -5.7370
     0.6403   0.7793   0.9000   0.9830   1.1581   1.2162   1.3748   1.3934
     1.4881   1.5905   1.6578   1.7836   1.8591   2.0312   2.1327   2.2927
     2.3573   2.3800   2.4566   2.5903   2.6886   2.8275   2.8739   2.9092
     3.0687   3.1144   3.2131   3.2510   3.2831   3.3632   3.4394   3.5585
     3.6114   3.6467   3.7598   3.8784   3.9260   4.0637   4.1159   4.2098
     4.2821   4.3907   4.4757   4.7310   4.8037   4.8681   5.0407   5.0890
     5.2991   5.4711   5.5089   5.6067   5.7758   5.8829   6.0425   6.1333
     6.2858   6.5304   6.7568   6.8051   6.9215   7.0846   7.3883   7.4210
     7.5093   7.6157   7.6882   7.8493   7.9318   8.0031

     the Fermi energy is     6.2286 ev

!    total energy              =    -563.08856360 Ry
     Harris-Foulkes estimate   =    -563.08856417 Ry
     estimated scf accuracy    <       0.00000065 Ry

     The total energy is the sum of the following terms:

     one-electron contribution =     -34.37357112 Ry
     hartree contribution      =      97.09379420 Ry
     xc contribution           =    -221.56131800 Ry
     ewald contribution        =    -404.25647252 Ry
     smearing contrib. (-TS)   =       0.00900385 Ry

     convergence has been achieved in  17 iterations

     Forces acting on atoms (cartesian axes, Ry/au):

     atom    1 type  1   force =     0.04532980   -0.00397187   -0.05924531
     atom    2 type  1   force =    -0.02297247   -0.02966427   -0.02012141
     atom    3 type  1   force =    -0.04757539   -0.01241017    0.03175269
     atom    4 type  1   force =     0.02169881    0.00612121   -0.02417762
     atom    5 type  1   force =     0.03851987    0.01832967   -0.03477170
     atom    6 type  1   force =     0.00982315    0.01697182    0.00942736
     atom    7 type  1   force =    -0.02300319   -0.02133653    0.02458634
     atom    8 type  1   force =    -0.04459360    0.00357478    0.01504081
     atom    9 type  2   force =    -0.03149460    0.00138701    0.00002283
     atom   10 type  2   force =    -0.00768717    0.00914451   -0.02385451
     atom   11 type  2   force =    -0.00611898    0.00489852   -0.02771384
     atom   12 type  2   force =    -0.03020678    0.00463120    0.00390875
     atom   13 type  2   force =     0.00746666    0.00922579    0.02135882
     atom   14 type  2   force =     0.01541141    0.00093424    0.02918881
     atom   15 type  2   force =     0.00295203    0.02143787    0.03513719
     atom   16 type  2   force =    -0.00010679   -0.01593207    0.04970217
     atom   17 type  2   force =     0.01730397   -0.04567506   -0.04667006
     atom   18 type  2   force =     0.02466517    0.00742151   -0.07193677
     atom   19 type  2   force =    -0.04016409    0.01788793    0.00055264
     atom   20 type  2   force =    -0.00592097   -0.01077873   -0.02810209
     atom   21 type  2   force =     0.02694332    0.01207449    0.02441887
     atom   22 type  2   force =     0.05412087    0.01625538    0.00516227
     atom   23 type  2   force =     0.01127243   -0.00226712    0.03358882
     atom   24 type  2   force =    -0.01566348   -0.00826011    0.05274495

     Total force =     0.226163     Total SCF correction =     0.002207

     General routines

     Parallel routines

   This run was terminated on:  15:53: 9   4Aug2021

   JOB DONE.