     Program PWSCF v.6.4 starts on 24Dec2021 at  0: 8: 5

     R & G space division:  proc/nbgrp/npool/nimage =      40
     Waiting for input...
     Reading input from standard input
Warning: card    &IONS ignored
Warning: card      ION_DYNAMICS = 'BFGS' ignored
Warning: card   / ignored
Warning: card    &CELL ignored
Warning: card      CELL_DYNAMICS = 'BFGS', ignored
Warning: card    / ignored

     Current dimensions of program PWSCF are:
     Max number of different atomic species (ntypx) = 10
     Max number of k-points (npk) =  40000
     Max angular momentum in pseudopotentials (lmaxx) =  3

     bravais-lattice index     =            0
     lattice parameter (alat)  =      12.8071  a.u.
     unit-cell volume          =    4718.3629 (a.u.)^3
     number of atoms/cell      =           36
     number of atomic types    =            2
     number of electrons       =       216.00
     number of Kohn-Sham states=          130
     kinetic-energy cutoff     =      45.0000  Ry
     charge density cutoff     =     360.0000  Ry
     convergence threshold     =      1.0E-06
     mixing beta               =       0.7000
     number of iterations used =            8  local-TF  mixing
     Exchange-correlation      = SLA PW GGX GGC ( 1  4  2  2 0 0)

     celldm(1)=  12.807144  celldm(2)=   0.000000  celldm(3)=   0.000000
     celldm(4)=   0.000000  celldm(5)=   0.000000  celldm(6)=   0.000000

     crystal axes: (cart. coord. in units of alat)
               a(1) = (   1.000000   0.000000   0.000000 )
               a(2) = (   0.544789   1.419304   0.000000 )
               a(3) = (   0.092460   0.492010   1.582556 )

     reciprocal axes: (cart. coord. in units 2 pi/alat)
               b(1) = (  1.000000 -0.383842  0.060911 )
               b(2) = (  0.000000  0.704571 -0.219048 )
               b(3) = (  0.000000  0.000000  0.631889 )

     PseudoPot. # 1 for Mo read from file:
     ~/pseudo/Mo.pw91-n-van.UPF
     MD5 check sum: Not computed, couldn't open file
     Pseudo is Ultrasoft + core correction, Zval =  6.0
     Generated by new atomic code, or converted to UPF format
     Using radial grid of  965 points,  3 beta functions with:
                l(1) =   1
                l(2) =   2
                l(3) =   2
     Q(r) pseudized with  8 coefficients,  rinner =    1.000   1.000   1.000
                                                       1.200   1.200

     PseudoPot. # 2 for S  read from file:
     ~/pseudo/S.pw91-van_ak.UPF
     MD5 check sum: Not computed, couldn't open file
     Pseudo is Ultrasoft, Zval =  6.0
     Generated by new atomic code, or converted to UPF format
     Using radial grid of  811 points,  6 beta functions with:
                l(1) =   0
                l(2) =   0
                l(3) =   1
                l(4) =   1
                l(5) =   2
                l(6) =   2
     Q(r) pseudized with  8 coefficients,  rinner =    1.100   1.100   1.100
                                                       1.100   1.100

     atomic species   valence    mass     pseudopotential
        Mo             6.00    95.50000     Mo( 1.00)
        S              6.00    32.06500     S ( 1.00)

     No symmetry found

   Cartesian axes

     site n.     atom                  positions (alat units)
         1           Mo  tau(   1) = (   0.7651240   0.9640327   0.5426941  )
         2           Mo  tau(   2) = (   0.9842592   1.3362550   0.0405019  )
         3           Mo  tau(   3) = (   0.7798868   1.2484639   1.3431740  )
         4           Mo  tau(   4) = (   0.7122271   0.7090258   1.2235060  )
         5           Mo  tau(   5) = (   1.0156965   1.0750434   0.9347709  )
         6           Mo  tau(   6) = (   0.9490594   0.5336855   0.8256481  )
         7           Mo  tau(   7) = (   1.3553074   1.3311186   1.3463149  )
         8           Mo  tau(   8) = (   1.2560424   0.9636683   0.5527542  )
         9           Mo  tau(   9) = (   0.1142117   0.3476685   0.4606697  )
        10           Mo  tau(  10) = (   0.4876306   0.8996663   0.1447547  )
        11           Mo  tau(  11) = (   0.3924689   0.3705440   0.0021915  )
        12           Mo  tau(  12) = (   0.5651580   1.5012440   0.7873787  )
        13           S   tau(  13) = (   0.8264419   1.2770575   0.7117268  )
        14           S   tau(  14) = (   1.3206226   1.2105622   0.7974417  )
        15           S   tau(  15) = (   0.6693343   0.6015402   0.0850360  )
        16           S   tau(  16) = (   0.8419182   1.5471408   1.5396594  )
        17           S   tau(  17) = (   1.0188025   1.0947877   0.3302081  )
        18           S   tau(  18) = (   1.3651649   1.6270686   1.5375864  )
        19           S   tau(  19) = (   0.5103801   1.0255350   1.2476068  )
        20           S   tau(  20) = (   0.4002890   0.5962997   1.3592415  )
        21           S   tau(  21) = (   0.6516518   0.4373705   1.0032918  )
        22           S   tau(  22) = (   0.7432052   0.8452173   0.8740221  )
        23           S   tau(  23) = (   0.7903174   0.6569593   1.5763019  )
        24           S   tau(  24) = (   0.9988484   0.6890413   0.4930262  )
        25           S   tau(  25) = (   1.0649747   1.3591628   1.1549550  )
        26           S   tau(  26) = (   0.9764339   0.9549613   1.2689235  )
        27           S   tau(  27) = (   0.8017308   0.2755301   0.5921095  )
        28           S   tau(  28) = (   1.0172939   0.5174316   1.1819581  )
        29           S   tau(  29) = (   1.0470993   0.3287371   0.1018691  )
        30           S   tau(  30) = (   1.2129745   0.6944326   0.0775496  )
        31           S   tau(  31) = (   1.2160439   0.7896433   0.8702197  )
        32           S   tau(  32) = (   0.2550691   0.3439718   0.7843200  )
        33           S   tau(  33) = (   0.5129738   1.1579748   0.3806480  )
        34           S   tau(  34) = (   0.4995571   0.7274984   0.4691094  )
        35           S   tau(  35) = (   0.5931260   1.4769292   1.1380597  )
        36           S   tau(  36) = (   0.3758294   0.1444554   0.3093734  )

     number of k points=     8  Marzari-Vanderbilt smearing, width (Ry)=  0.0200
                       cart. coord. in units 2pi/alat
        k(    1) = (   0.0000000   0.0000000   0.0000000), wk =   0.1666667
        k(    2) = (   0.0000000   0.0000000  -0.3159445), wk =   0.1666667
        k(    3) = (   0.0000000  -0.3522855   0.1095241), wk =   0.1666667
        k(    4) = (   0.0000000  -0.3522855  -0.2064204), wk =   0.1666667
        k(    5) = (   0.3333333  -0.1279475   0.0203036), wk =   0.3333333
        k(    6) = (   0.3333333  -0.1279475  -0.2956409), wk =   0.3333333
        k(    7) = (   0.3333333  -0.4802329   0.1298278), wk =   0.3333333
        k(    8) = (   0.3333333  -0.4802329  -0.1861168), wk =   0.3333333

     Initial potential from superposition of free atoms

     starting charge  215.98107, renormalised to  216.00000
     Starting wfcs are  204 randomized atomic wfcs

     Self-consistent Calculation

     iteration #  1     ecut=    45.00 Ry     beta= 0.70
     Davidson diagonalization with overlap
     ethr =  1.00E-02,  avg # of iterations =  2.0

     total energy              =    -842.46457441 Ry
     Harris-Foulkes estimate   =    -845.65512363 Ry
     estimated scf accuracy    <       8.16953792 Ry

[...]

     total energy              =    -844.18821248 Ry
     Harris-Foulkes estimate   =    -844.18821274 Ry
     estimated scf accuracy    <       0.00000326 Ry

     iteration # 15     ecut=    45.00 Ry     beta= 0.70
     Davidson diagonalization with overlap
     ethr =  1.51E-09,  avg # of iterations =  1.0

     End of self-consistent calculation

          k = 0.0000 0.0000 0.0000 ( 24061 PWs)   bands (ev):

    -7.0715  -6.4412  -6.2548  -6.0363  -5.7829  -5.7172  -5.6665  -5.5672
    -5.5211  -5.4936  -5.3647  -5.2757  -5.1807  -5.1697  -5.1043  -5.0632
    -4.9712  -4.9481  -4.8703  -4.8059  -4.7040  -4.6740  -4.3221  -4.2119
     1.2283   1.4732   1.5551   1.6593   1.8002   1.8301   1.8653   1.9630
     2.0644   2.1710   2.2296   2.2591   2.3356   2.3515   2.4195   2.4871
     2.5302   2.6175   2.6394   2.7489   2.8372   2.9007   2.9716   3.0064
     3.1037   3.1582   3.2795   3.3344   3.4670   3.5084   3.5733   3.6074
     3.6600   3.7404   3.8342   3.9268   4.0235   4.0603   4.1007   4.2027
     4.2540   4.2899   4.3732   4.4752   4.4975   4.5587   4.6141   4.7133
     4.8158   4.9093   4.9621   5.0098   5.1091   5.1831   5.2567   5.3376
     5.4197   5.5190   5.5962   5.6508   5.7488   5.7609   5.8052   5.9412
     6.0472   6.0659   6.1976   6.2420   6.2904   6.4062   6.5089   6.7026
     6.7250   6.7978   6.9592   7.0587   7.2089   7.2568   7.3018   7.3577
     7.4081   7.5905   7.6758   7.7039   7.7616   7.9074   7.9763   7.9816
     8.1743   8.3229   8.3338   8.4607   8.5661   8.5725   8.6879   8.7388
     8.8361   8.9330   8.9666   9.0728   9.1300   9.1670   9.3849   9.5227
     9.5627   9.6313

[...]

          k = 0.3333-0.4802-0.1861 ( 24054 PWs)   bands (ev):

    -6.7495  -6.5360  -6.1397  -6.0793  -5.9909  -5.8339  -5.6247  -5.5969
    -5.4995  -5.4312  -5.3521  -5.3300  -5.2486  -5.1834  -5.1573  -5.1369
    -5.0027  -4.9380  -4.9157  -4.8739  -4.6802  -4.6495  -4.2723  -4.1382
     1.4344   1.4907   1.6674   1.7474   1.8352   1.9139   2.0157   2.0887
     2.1083   2.1504   2.2342   2.2901   2.3605   2.4413   2.4708   2.5318
     2.5875   2.6342   2.7341   2.7697   2.8026   2.8598   2.9844   3.0324
     3.1492   3.1769   3.2255   3.4011   3.4730   3.5210   3.5661   3.6764
     3.7242   3.8113   3.8523   3.9131   3.9786   4.0640   4.1056   4.1507
     4.2301   4.2877   4.3731   4.4030   4.4656   4.4995   4.5784   4.6253
     4.6578   4.8292   4.9176   4.9470   4.9906   5.0792   5.1386   5.1759
     5.3046   5.3799   5.4588   5.5350   5.5912   5.6293   5.7653   5.8303
     5.9133   6.0488   6.0916   6.1890   6.2588   6.3593   6.4202   6.6077
     6.6843   6.8710   7.0251   7.0660   7.1813   7.3017   7.3402   7.4171
     7.5088   7.6283   7.6746   7.7081   7.7963   7.8905   7.9563   8.0832
     8.1618   8.2429   8.3045   8.3827   8.4721   8.5482   8.6508   8.7580
     8.8634   8.9444   9.0351   9.1072   9.2498   9.3313   9.4313   9.4732
     9.4947   9.6162

     the Fermi energy is     7.7820 ev

!    total energy              =    -844.18821223 Ry
     Harris-Foulkes estimate   =    -844.18821273 Ry
     estimated scf accuracy    <       0.00000063 Ry

     The total energy is the sum of the following terms:

     one-electron contribution =      48.72443115 Ry
     hartree contribution      =     105.88707817 Ry
     xc contribution           =    -333.92893485 Ry
     ewald contribution        =    -664.86775210 Ry
     smearing contrib. (-TS)   =      -0.00303460 Ry

     convergence has been achieved in  15 iterations

     Forces acting on atoms (cartesian axes, Ry/au):

     atom    1 type  1   force =    -0.00991483    0.01546214   -0.02771139
     atom    2 type  1   force =     0.00627611   -0.00025619    0.01762609
     atom    3 type  1   force =     0.02673010    0.00865511   -0.00562082
     atom    4 type  1   force =    -0.00317084   -0.04392511    0.03732992
     atom    5 type  1   force =     0.00563193    0.04396686    0.01016390
     atom    6 type  1   force =    -0.00288245   -0.04859262   -0.00735837
     atom    7 type  1   force =    -0.01119225    0.03084248    0.01040290
     atom    8 type  1   force =     0.00501185    0.02167472   -0.01089968
     atom    9 type  1   force =    -0.01434816   -0.00842493   -0.03263674
     atom   10 type  1   force =     0.01573864    0.03974316    0.05014428
     atom   11 type  1   force =    -0.00073870   -0.04639047   -0.00028341
     atom   12 type  1   force =    -0.01667786   -0.02089038    0.00514540
     atom   13 type  2   force =    -0.02529593    0.00842305   -0.00103097
     atom   14 type  2   force =     0.00177784    0.00684284   -0.00979826
     atom   15 type  2   force =     0.02019497   -0.00117211   -0.01645976
     atom   16 type  2   force =     0.00931890   -0.00442865    0.00875506
     atom   17 type  2   force =    -0.00656016    0.00070359   -0.00332622
     atom   18 type  2   force =    -0.00338446   -0.00288981   -0.01167758
     atom   19 type  2   force =    -0.00124393   -0.01890613   -0.01000703
     atom   20 type  2   force =    -0.01615232    0.00885320   -0.01917885
     atom   21 type  2   force =     0.00987822   -0.00440588    0.00103961
     atom   22 type  2   force =     0.00491201    0.00647104    0.01398724
     atom   23 type  2   force =    -0.02706525   -0.00312745   -0.00543407
     atom   24 type  2   force =     0.02132250   -0.00795602   -0.00441215
     atom   25 type  2   force =    -0.00571337    0.01305319   -0.01455936
     atom   26 type  2   force =     0.00680081   -0.00835914    0.00071163
     atom   27 type  2   force =    -0.00936194    0.00344317    0.00417008
     atom   28 type  2   force =    -0.00712635   -0.00382672   -0.00844353
     atom   29 type  2   force =     0.00595452    0.00307241    0.03683492
     atom   30 type  2   force =    -0.01321429   -0.02536101   -0.00711169
     atom   31 type  2   force =     0.00448681    0.00320264    0.01123719
     atom   32 type  2   force =     0.01476650    0.00568529    0.00877863
     atom   33 type  2   force =    -0.00365556    0.02957866   -0.00213502
     atom   34 type  2   force =     0.00873555   -0.02131985   -0.01020264
     atom   35 type  2   force =    -0.00722079    0.01302233   -0.01924535
     atom   36 type  2   force =     0.01738215    0.00753661    0.01120606

     Total force =     0.177223     Total SCF correction =     0.001729

     General routines

     Parallel routines

   This run was terminated on:   0:10:18  24Dec2021

   JOB DONE.