     Program PWSCF v.6.4 starts on  8Sep2021 at 11:53:48

     R & G space division:  proc/nbgrp/npool/nimage =      40
     Waiting for input...
     Reading input from standard input
Warning: card    &IONS ignored
Warning: card      ION_DYNAMICS = 'BFGS' ignored
Warning: card   / ignored
Warning: card    &CELL ignored
Warning: card      CELL_DYNAMICS = 'BFGS', ignored
Warning: card    / ignored

     Current dimensions of program PWSCF are:
     Max number of different atomic species (ntypx) = 10
     Max number of k-points (npk) =  40000
     Max angular momentum in pseudopotentials (lmaxx) =  3

     bravais-lattice index     =            0
     lattice parameter (alat)  =      12.3058  a.u.
     unit-cell volume          =    4264.4902 (a.u.)^3
     number of atoms/cell      =           12
     number of atomic types    =            2
     number of electrons       =        72.00
     number of Kohn-Sham states=           43
     kinetic-energy cutoff     =      45.0000  Ry
     charge density cutoff     =     360.0000  Ry
     convergence threshold     =      1.0E-06
     mixing beta               =       0.7000
     number of iterations used =            8  local-TF  mixing
     Exchange-correlation      = SLA PW GGX GGC ( 1  4  2  2 0 0)

     celldm(1)=  12.305850  celldm(2)=   0.000000  celldm(3)=   0.000000
     celldm(4)=   0.000000  celldm(5)=   0.000000  celldm(6)=   0.000000

     crystal axes: (cart. coord. in units of alat)
               a(1) = (   0.999928   0.003437   0.011513 )
               a(2) = (  -0.504948   0.867971  -0.007201 )
               a(3) = (   0.231900   0.001237   2.634093 )

     reciprocal axes: (cart. coord. in units 2 pi/alat)
               b(1) = (  0.999093  0.580497 -0.088231 )
               b(2) = ( -0.003950  1.149812 -0.000192 )
               b(3) = ( -0.004378  0.000606  0.380022 )

     PseudoPot. # 1 for Mo read from file:
     ~/pseudo/Mo.pw91-n-van.UPF
     MD5 check sum: Not computed, couldn't open file
     Pseudo is Ultrasoft + core correction, Zval =  6.0
     Generated by new atomic code, or converted to UPF format
     Using radial grid of  965 points,  3 beta functions with:
                l(1) =   1
                l(2) =   2
                l(3) =   2
     Q(r) pseudized with  8 coefficients,  rinner =    1.000   1.000   1.000
                                                       1.200   1.200

     PseudoPot. # 2 for S  read from file:
     ~/pseudo/S.pw91-van_ak.UPF
     MD5 check sum: Not computed, couldn't open file
     Pseudo is Ultrasoft, Zval =  6.0
     Generated by new atomic code, or converted to UPF format
     Using radial grid of  811 points,  6 beta functions with:
                l(1) =   0
                l(2) =   0
                l(3) =   1
                l(4) =   1
                l(5) =   2
                l(6) =   2
     Q(r) pseudized with  8 coefficients,  rinner =    1.100   1.100   1.100
                                                       1.100   1.100

     atomic species   valence    mass     pseudopotential
        Mo             6.00    95.50000     Mo( 1.00)
        S              6.00    32.06500     S ( 1.00)

     No symmetry found

   Cartesian axes

     site n.     atom                  positions (alat units)
         1           Mo  tau(   1) = (   0.0024470  -0.0314164   0.0016251  )
         2           Mo  tau(   2) = (  -0.2140556   0.3388117  -0.0021774  )
         3           Mo  tau(   3) = (   0.5056286  -0.0681427  -0.0029409  )
         4           Mo  tau(   4) = (   0.2151030   0.3410227   0.0034298  )
         5           S   tau(   5) = (  -0.0045888   0.5091229   0.2497926  )
         6           S   tau(   6) = (  -0.2520946   0.9374003   0.2476112  )
         7           S   tau(   7) = (   0.4961803   0.5077126   0.2125128  )
         8           S   tau(   8) = (   0.2397509   0.9389138   0.2545204  )
         9           S   tau(   9) = (   0.2353911   0.2153258   2.3582088  )
        10           S   tau(  10) = (  -0.0238706   0.6453830   2.4040005  )
        11           S   tau(  11) = (   0.7346790   0.2230327   2.4069859  )
        12           S   tau(  12) = (   0.4889542   0.6468418   2.4074781  )

     number of k points=     5  Marzari-Vanderbilt smearing, width (Ry)=  0.0200
                       cart. coord. in units 2pi/alat
        k(    1) = (   0.0000000   0.0000000   0.0000000), wk =   0.2222222
        k(    2) = (  -0.0013168   0.3832708  -0.0000641), wk =   0.4444444
        k(    3) = (   0.3330309   0.1934989  -0.0294102), wk =   0.4444444
        k(    4) = (   0.3317141   0.5767697  -0.0294743), wk =   0.4444444
        k(    5) = (   0.3343476  -0.1897719  -0.0293461), wk =   0.4444444

     Initial potential from superposition of free atoms

     starting charge   71.99369, renormalised to   72.00000

     negative rho (up, down):  6.565E-04 0.000E+00
     Starting wfcs are   68 randomized atomic wfcs

     Self-consistent Calculation

     iteration #  1     ecut=    45.00 Ry     beta= 0.70
     Davidson diagonalization with overlap
     ethr =  1.00E-02,  avg # of iterations =  2.0

     negative rho (up, down):  5.647E-05 0.000E+00

     total energy              =    -281.13295710 Ry
     Harris-Foulkes estimate   =    -282.15314730 Ry
     estimated scf accuracy    <       2.69722779 Ry

[...]

     total energy              =    -281.65624294 Ry
     Harris-Foulkes estimate   =    -281.65623922 Ry
     estimated scf accuracy    <       0.00000994 Ry

     iteration # 13     ecut=    45.00 Ry     beta= 0.70
     Davidson diagonalization with overlap
     ethr =  1.38E-08,  avg # of iterations =  3.0

[...]

     End of self-consistent calculation

          k = 0.0000 0.0000 0.0000 ( 21739 PWs)   bands (ev):

   -14.9885 -13.9618 -13.6481 -13.6439 -13.2379 -13.0858 -13.0690 -12.5239
    -7.0712  -6.8531  -6.8517  -6.3656  -5.5817  -5.4032  -5.3975  -5.0381
    -5.0170  -4.8636  -4.4691  -4.4483  -4.1913  -3.7865  -3.7633  -3.3246
    -3.3079  -3.2433  -3.1201  -2.5631  -2.4388  -2.3417  -2.0060  -1.9715
    -1.8053  -1.2448  -1.1600  -1.1337  -0.8567  -0.7600   0.5164   0.5306
     0.6539   1.3239   1.5665

          k =-0.0013 0.3833-0.0001 ( 21737 PWs)   bands (ev):

[...]

          k = 0.3343-0.1898-0.0293 ( 21739 PWs)   bands (ev):

   -14.6294 -13.9138 -13.7657 -13.5319 -13.5093 -13.2396 -13.2245 -12.6226
    -6.5006  -6.2473  -6.1529  -5.9356  -5.6876  -5.5669  -5.4966  -4.9552
    -4.8371  -4.7897  -4.5915  -4.5216  -4.2238  -4.1590  -3.8561  -3.6962
    -3.5473  -3.4362  -3.2096  -2.9699  -2.8422  -2.4255  -2.2692  -1.9331
    -1.8648  -1.7119  -1.5274  -1.2597  -0.4698  -0.3159   0.2154   0.2774
     0.7077   1.2456   1.3904

     the Fermi energy is    -0.9498 ev

!    total energy              =    -281.65624819 Ry
     Harris-Foulkes estimate   =    -281.65624492 Ry
     estimated scf accuracy    <       0.00000081 Ry

     The total energy is the sum of the following terms:

     one-electron contribution =   -1321.24464290 Ry
     hartree contribution      =     681.96248853 Ry
     xc contribution           =    -111.19683205 Ry
     ewald contribution        =     468.81727348 Ry
     smearing contrib. (-TS)   =       0.00546475 Ry

     convergence has been achieved in  13 iterations

     negative rho (up, down):  9.137E-04 0.000E+00

     Forces acting on atoms (cartesian axes, Ry/au):

     atom    1 type  1   force =    -0.00033042   -0.00288648   -0.00138320
     atom    2 type  1   force =    -0.00109294    0.00102260    0.00143886
     atom    3 type  1   force =    -0.00105424   -0.00129635   -0.00167072
     atom    4 type  1   force =    -0.00117715   -0.00012046    0.00098868
     atom    5 type  2   force =     0.00094227   -0.00012958    0.00125570
     atom    6 type  2   force =    -0.00033202    0.00018152   -0.00074730
     atom    7 type  2   force =     0.00119344   -0.00042110   -0.00215483
     atom    8 type  2   force =     0.00026322    0.00046064   -0.00197352
     atom    9 type  2   force =     0.00058463   -0.00059928    0.00178124
     atom   10 type  2   force =    -0.00006686    0.00095761   -0.00081360
     atom   11 type  2   force =     0.00066775    0.00098596    0.00303308
     atom   12 type  2   force =     0.00040232    0.00184491    0.00024560

     Total force =     0.007479     Total SCF correction =     0.001480
     SCF correction compared to forces is large: reduce conv_thr to get better values

     General routines

     Parallel routines

   This run was terminated on:  11:54:13   8Sep2021

   JOB DONE.