     Program PWSCF v.6.4 starts on  2Dec2021 at 10:29:39

     R & G space division:  proc/nbgrp/npool/nimage =      40
     Waiting for input...
     Reading input from standard input
Warning: card    &IONS ignored
Warning: card      ION_DYNAMICS = 'BFGS' ignored
Warning: card   / ignored
Warning: card    &CELL ignored
Warning: card      CELL_DYNAMICS = 'BFGS', ignored
Warning: card    / ignored

     Current dimensions of program PWSCF are:
     Max number of different atomic species (ntypx) = 10
     Max number of k-points (npk) =  40000
     Max angular momentum in pseudopotentials (lmaxx) =  3

     bravais-lattice index     =            0
     lattice parameter (alat)  =      12.1213  a.u.
     unit-cell volume          =    3706.3214 (a.u.)^3
     number of atoms/cell      =           24
     number of atomic types    =            2
     number of electrons       =       144.00
     number of Kohn-Sham states=           86
     kinetic-energy cutoff     =      45.0000  Ry
     charge density cutoff     =     360.0000  Ry
     convergence threshold     =      1.0E-06
     mixing beta               =       0.7000
     number of iterations used =            8  local-TF  mixing
     Exchange-correlation      = SLA PW GGX GGC ( 1  4  2  2 0 0)

     celldm(1)=  12.121316  celldm(2)=   0.000000  celldm(3)=   0.000000
     celldm(4)=   0.000000  celldm(5)=   0.000000  celldm(6)=   0.000000

     crystal axes: (cart. coord. in units of alat)
               a(1) = (   1.000000   0.000000   0.000000 )
               a(2) = (   0.499894   0.866059   0.000000 )
               a(3) = (   0.021670   0.061959   2.402958 )

     reciprocal axes: (cart. coord. in units 2 pi/alat)
               b(1) = (  1.000000 -0.577205  0.005865 )
               b(2) = (  0.000000  1.154655 -0.029772 )
               b(3) = (  0.000000  0.000000  0.416154 )

     PseudoPot. # 1 for Mo read from file:
     ~/pseudo/Mo.pw91-n-van.UPF
     MD5 check sum: Not computed, couldn't open file
     Pseudo is Ultrasoft + core correction, Zval =  6.0
     Generated by new atomic code, or converted to UPF format
     Using radial grid of  965 points,  3 beta functions with:
                l(1) =   1
                l(2) =   2
                l(3) =   2
     Q(r) pseudized with  8 coefficients,  rinner =    1.000   1.000   1.000
                                                       1.200   1.200

     PseudoPot. # 2 for S  read from file:
     ~/pseudo/S.pw91-van_ak.UPF
     MD5 check sum: Not computed, couldn't open file
     Pseudo is Ultrasoft, Zval =  6.0
     Generated by new atomic code, or converted to UPF format
     Using radial grid of  811 points,  6 beta functions with:
                l(1) =   0
                l(2) =   0
                l(3) =   1
                l(4) =   1
                l(5) =   2
                l(6) =   2
     Q(r) pseudized with  8 coefficients,  rinner =    1.100   1.100   1.100
                                                       1.100   1.100

     atomic species   valence    mass     pseudopotential
        Mo             6.00    95.50000     Mo( 1.00)
        S              6.00    32.06500     S ( 1.00)

     No symmetry found

   Cartesian axes

     site n.     atom                  positions (alat units)
         1           Mo  tau(   1) = (   0.6058085   0.8524242   0.6004404  )
         2           Mo  tau(   2) = (   0.8558629   0.4193975   0.6004542  )
         3           Mo  tau(   3) = (   1.1229674   0.6125269   1.7984039  )
         4           Mo  tau(   4) = (   0.3558666   0.4194070   0.6004152  )
         5           Mo  tau(   5) = (   0.6231005   0.6125265   1.7983313  )
         6           Mo  tau(   6) = (   1.1058124   0.8524270   0.6004335  )
         7           Mo  tau(   7) = (   0.8730992   0.1795264   1.7982532  )
         8           Mo  tau(   8) = (   0.3731330   0.1793293   1.7985880  )
         9           S   tau(   9) = (   0.6228916   0.9010398   2.0448534  )
        10           S   tau(  10) = (   0.6230241   0.9014091   1.5520472  )
        11           S   tau(  11) = (   0.8729918   0.4680772   2.0449069  )
        12           S   tau(  12) = (   0.8730714   0.4683875   1.5520297  )
        13           S   tau(  13) = (   1.1058809   0.5636547   0.3540280  )
        14           S   tau(  14) = (   1.1058665   0.5638960   0.8467199  )
        15           S   tau(  15) = (   0.3731191   0.4681006   2.0448296  )
        16           S   tau(  16) = (   0.3729691   0.4681290   1.5523855  )
        17           S   tau(  17) = (   0.6058973   0.5636534   0.3540320  )
        18           S   tau(  18) = (   0.6058157   0.5638864   0.8467298  )
        19           S   tau(  19) = (   1.1231760   0.9010835   2.0448085  )
        20           S   tau(  20) = (   1.1230195   0.9013524   1.5519530  )
        21           S   tau(  21) = (   0.8559381   0.1305932   0.3540534  )
        22           S   tau(  22) = (   0.8558881   0.1308093   0.8467522  )
        23           S   tau(  23) = (   0.3559422   0.1305960   0.3540234  )
        24           S   tau(  24) = (   0.3558996   0.1308424   0.8467039  )

     number of k points=     5  Marzari-Vanderbilt smearing, width (Ry)=  0.0200
                       cart. coord. in units 2pi/alat
        k(    1) = (   0.0000000   0.0000000   0.0000000), wk =   0.2222222
        k(    2) = (   0.0000000   0.3848851  -0.0099241), wk =   0.4444444
        k(    3) = (   0.3333333  -0.1924016   0.0019550), wk =   0.4444444
        k(    4) = (   0.3333333   0.1924835  -0.0079691), wk =   0.4444444
        k(    5) = (   0.3333333  -0.5772868   0.0118790), wk =   0.4444444

     Initial potential from superposition of free atoms

     starting charge  143.98738, renormalised to  144.00000
     Starting wfcs are  136 randomized atomic wfcs

     Self-consistent Calculation

     iteration #  1     ecut=    45.00 Ry     beta= 0.70
     Davidson diagonalization with overlap
     ethr =  1.00E-02,  avg # of iterations =  2.0

     total energy              =    -562.84649808 Ry
     Harris-Foulkes estimate   =    -564.56445774 Ry
     estimated scf accuracy    <       4.38229434 Ry

[...]

     total energy              =    -563.69673548 Ry
     Harris-Foulkes estimate   =    -563.69673908 Ry
     estimated scf accuracy    <       0.00001757 Ry

     iteration # 10     ecut=    45.00 Ry     beta= 0.70
     Davidson diagonalization with overlap
     ethr =  1.22E-08,  avg # of iterations =  3.0

     End of self-consistent calculation

          k = 0.0000 0.0000 0.0000 ( 18855 PWs)   bands (ev):

    -8.9333  -8.9220  -7.7404  -7.7202  -7.1672  -7.1664  -7.1657  -7.1632
    -7.1623  -7.1619  -6.9109  -6.9105  -6.9094  -6.9069  -6.9067  -6.9058
    -0.5668  -0.5664  -0.5661  -0.5500  -0.5499  -0.5495  -0.4601  -0.3489
     0.3749   0.3759   0.3779   0.3903   0.3928   0.3933   1.0569   1.0589
     1.0609   1.1057   1.1077   1.1093   1.9885   1.9896   1.9902   1.9913
     1.9921   1.9928   2.5133   2.5143   2.5144   2.5158   3.1804   3.2141
     3.2196   3.2254   3.2309   3.2360   3.2428   3.6039   3.6364   3.6373
     3.6384   3.6394   4.1687   4.1697   4.1707   4.1757   4.1766   4.1780
     4.4328   4.4333   4.4355   4.4377   4.4412   4.4420   4.9063   5.1891
     7.1372   7.1381   7.1383   7.1397   7.1404   7.1409   7.6423   7.6426
     7.6439   7.6802   7.6808   7.6810   7.8210   7.8213

[...]

          k = 0.3333-0.5773 0.0119 ( 18928 PWs)   bands (ev):

    -7.9400  -7.9395  -7.9392  -7.9309  -7.9302  -7.9300  -7.2606  -7.2601
    -7.2599  -7.2477  -7.2473  -7.2471  -6.9202  -6.9191  -6.7433  -6.7424
    -0.1830  -0.1753   0.2493   0.2496   0.2498   0.3069   0.3072   0.3075
     0.6112   0.6126   1.1046   1.1185   1.3043   1.3050   1.3063   1.3404
     1.3411   1.3422   1.5237   1.5244   1.5246   1.5531   1.5537   1.5540
     1.5567   1.5628   1.9447   1.9451   1.9460   2.0101   2.0106   2.0116
     2.2260   2.2285   2.9310   2.9401   3.1698   3.1707   3.1709   3.1710
     3.1717   3.1734   3.9871   3.9880   3.9897   4.0742   4.0753   4.0765
     4.2851   4.2856   4.2863   4.2953   4.2964   4.2973   5.0422   5.0549
     6.7078   6.7082   6.8450   6.8455   6.8462   7.0233   7.0240   7.0254
     7.3980   7.3985   7.3991   7.4845   7.4850   7.4866

     the Fermi energy is     5.1709 ev

!    total energy              =    -563.69673923 Ry
     Harris-Foulkes estimate   =    -563.69673950 Ry
     estimated scf accuracy    <       0.00000048 Ry

     The total energy is the sum of the following terms:

     one-electron contribution =    -206.37721808 Ry
     hartree contribution      =     178.89167421 Ry
     xc contribution           =    -222.84263246 Ry
     ewald contribution        =    -313.38381597 Ry
     smearing contrib. (-TS)   =       0.01525307 Ry

     convergence has been achieved in  10 iterations

     Forces acting on atoms (cartesian axes, Ry/au):

     atom    1 type  1   force =     0.00008576    0.00035549   -0.00045826
     atom    2 type  1   force =     0.00047398    0.00007504   -0.00045445
     atom    3 type  1   force =     0.00031339    0.00007499    0.00134922
     atom    4 type  1   force =    -0.00034768    0.00003319   -0.00036573
     atom    5 type  1   force =    -0.00027745    0.00021591    0.00185814
     atom    6 type  1   force =     0.00001798   -0.00016014   -0.00040517
     atom    7 type  1   force =     0.00016982    0.00008130    0.00166093
     atom    8 type  1   force =    -0.00017192    0.00041180    0.00061016
     atom    9 type  2   force =     0.00002629    0.00021850    0.00119745
     atom   10 type  2   force =     0.00016925   -0.00064167   -0.00210454
     atom   11 type  2   force =     0.00015647    0.00020904    0.00091819
     atom   12 type  2   force =     0.00002431   -0.00027768   -0.00217797
     atom   13 type  2   force =     0.00006387    0.00011294   -0.00155337
     atom   14 type  2   force =     0.00004677   -0.00020371    0.00186668
     atom   15 type  2   force =    -0.00025009    0.00023032    0.00116489
     atom   16 type  2   force =     0.00013115   -0.00009390   -0.00282903
     atom   17 type  2   force =    -0.00026930    0.00002145   -0.00164873
     atom   18 type  2   force =     0.00003153   -0.00027275    0.00169993
     atom   19 type  2   force =    -0.00013012   -0.00001596    0.00133179
     atom   20 type  2   force =    -0.00017911   -0.00057657   -0.00174450
     atom   21 type  2   force =    -0.00002503    0.00043404   -0.00167801
     atom   22 type  2   force =    -0.00002879   -0.00039603    0.00149810
     atom   23 type  2   force =    -0.00008577    0.00041041   -0.00150501
     atom   24 type  2   force =     0.00005470   -0.00024598    0.00176929

     Total force =     0.007722     Total SCF correction =     0.001159
     SCF correction compared to forces is large: reduce conv_thr to get better values

     General routines

     Parallel routines

   This run was terminated on:  10:30:12   2Dec2021

   JOB DONE.