     Program PWSCF v.6.4 starts on  6Oct2021 at 13: 2:55

     R & G space division:  proc/nbgrp/npool/nimage =      40
     Waiting for input...
     Reading input from standard input
Warning: card    &IONS ignored
Warning: card      ION_DYNAMICS = 'BFGS' ignored
Warning: card   / ignored
Warning: card    &CELL ignored
Warning: card      CELL_DYNAMICS = 'BFGS', ignored
Warning: card    / ignored

     Current dimensions of program PWSCF are:
     Max number of different atomic species (ntypx) = 10
     Max number of k-points (npk) =  40000
     Max angular momentum in pseudopotentials (lmaxx) =  3

     bravais-lattice index     =            0
     lattice parameter (alat)  =      12.1275  a.u.
     unit-cell volume          =    4838.4502 (a.u.)^3
     number of atoms/cell      =           36
     number of atomic types    =            2
     number of electrons       =       216.00
     number of Kohn-Sham states=          130
     kinetic-energy cutoff     =      45.0000  Ry
     charge density cutoff     =     360.0000  Ry
     convergence threshold     =      1.0E-06
     mixing beta               =       0.7000
     number of iterations used =            8  local-TF  mixing
     Exchange-correlation      = SLA PW GGX GGC ( 1  4  2  2 0 0)

     celldm(1)=  12.127512  celldm(2)=   0.000000  celldm(3)=   0.000000
     celldm(4)=   0.000000  celldm(5)=   0.000000  celldm(6)=   0.000000

     crystal axes: (cart. coord. in units of alat)
               a(1) = (   1.000000   0.000000   0.000000 )
               a(2) = (  -0.500527   0.881003   0.000000 )
               a(3) = (  -0.118493  -0.419205   3.079028 )

     reciprocal axes: (cart. coord. in units 2 pi/alat)
               b(1) = (  1.000000  0.568133  0.115834 )
               b(2) = (  0.000000  1.135070  0.154538 )
               b(3) = (  0.000000  0.000000  0.324778 )

     PseudoPot. # 1 for Mo read from file:
     ~/pseudo/Mo.pw91-n-van.UPF
     MD5 check sum: Not computed, couldn't open file
     Pseudo is Ultrasoft + core correction, Zval =  6.0
     Generated by new atomic code, or converted to UPF format
     Using radial grid of  965 points,  3 beta functions with:
                l(1) =   1
                l(2) =   2
                l(3) =   2
     Q(r) pseudized with  8 coefficients,  rinner =    1.000   1.000   1.000
                                                       1.200   1.200

     PseudoPot. # 2 for S  read from file:
     ~/pseudo/S.pw91-van_ak.UPF
     MD5 check sum: Not computed, couldn't open file
     Pseudo is Ultrasoft, Zval =  6.0
     Generated by new atomic code, or converted to UPF format
     Using radial grid of  811 points,  6 beta functions with:
                l(1) =   0
                l(2) =   0
                l(3) =   1
                l(4) =   1
                l(5) =   2
                l(6) =   2
     Q(r) pseudized with  8 coefficients,  rinner =    1.100   1.100   1.100
                                                       1.100   1.100

     atomic species   valence    mass     pseudopotential
        Mo             6.00    95.50000     Mo( 1.00)
        S              6.00    32.06500     S ( 1.00)

     No symmetry found

   Cartesian axes

     site n.     atom                  positions (alat units)
         1           Mo  tau(   1) = (  -0.0002345   0.3042469  -0.0090477  )
         2           Mo  tau(   2) = (  -0.3708158   0.2354496   3.0968900  )
         3           Mo  tau(   3) = (   0.4993199   0.3021342  -0.0094387  )
         4           Mo  tau(   4) = (   0.1299335   0.2376406   3.0968394  )
         5           Mo  tau(   5) = (   0.3868786   0.4258552   2.0774518  )
         6           Mo  tau(   6) = (   0.6362188  -0.0146708   2.0774108  )
         7           Mo  tau(   7) = (  -0.1145525   0.4260487   2.0769396  )
         8           Mo  tau(   8) = (   0.1364174  -0.0128029   2.0787675  )
         9           Mo  tau(   9) = (  -0.2503103   0.7243129   0.9996657  )
        10           Mo  tau(  10) = (  -0.0000076   0.2848781   1.0009518  )
        11           Mo  tau(  11) = (   0.2510426   0.7239248   0.9993597  )
        12           Mo  tau(  12) = (   0.5000878   0.2860881   0.9994171  )
        13           S   tau(  13) = (   0.2492821   0.1052376   0.2177580  )
        14           S   tau(  14) = (  -0.0017974   0.5562042   0.2799868  )
        15           S   tau(  15) = (   0.7490687   0.1058811   0.2200667  )
        16           S   tau(  16) = (   0.4981625   0.5520681   0.2797406  )
        17           S   tau(  17) = (   0.1356622   0.5719183   2.3198062  )
        18           S   tau(  18) = (   0.3854591   0.1349113   2.3209040  )
        19           S   tau(  19) = (  -0.3639122   0.5725233   2.3234326  )
        20           S   tau(  20) = (  -0.1138058   0.1353347   2.3208208  )
        21           S   tau(  21) = (   0.0009775  -0.0083561   1.2447190  )
        22           S   tau(  22) = (  -0.2510973   0.4330251   1.2447119  )
        23           S   tau(  23) = (   0.5020091  -0.0066256   1.2406470  )
        24           S   tau(  24) = (   0.2511301   0.4322947   1.2453051  )
        25           S   tau(  25) = (   0.1311950  -0.0123918   2.8078474  )
        26           S   tau(  26) = (  -0.1200629   0.4330428   2.8669077  )
        27           S   tau(  27) = (   0.6313877  -0.0167105   2.8084292  )
        28           S   tau(  28) = (   0.3805048   0.4329924   2.8688614  )
        29           S   tau(  29) = (   0.1367475   0.5718870   1.8339417  )
        30           S   tau(  30) = (   0.3876205   0.1337927   1.8334926  )
        31           S   tau(  31) = (  -0.3640759   0.5764645   1.8350696  )
        32           S   tau(  32) = (  -0.1145471   0.1336435   1.8333413  )
        33           S   tau(  33) = (   0.0008779  -0.0081190   0.7571711  )
        34           S   tau(  34) = (  -0.2506592   0.4312517   0.7556177  )
        35           S   tau(  35) = (   0.5005318  -0.0068563   0.7562042  )
        36           S   tau(  36) = (   0.2500436   0.4307794   0.7558898  )

     number of k points=     5  Marzari-Vanderbilt smearing, width (Ry)=  0.0200
                       cart. coord. in units 2pi/alat
        k(    1) = (   0.0000000   0.0000000   0.0000000), wk =   0.2222222
        k(    2) = (   0.0000000   0.3783565   0.0515127), wk =   0.4444444
        k(    3) = (   0.3333333   0.1893776   0.0386115), wk =   0.4444444
        k(    4) = (   0.3333333   0.5677341   0.0901242), wk =   0.4444444
        k(    5) = (   0.3333333  -0.1889790  -0.0129012), wk =   0.4444444

     Initial potential from superposition of free atoms

     starting charge  215.98107, renormalised to  216.00000
     Starting wfcs are  204 randomized atomic wfcs

     Self-consistent Calculation

     iteration #  1     ecut=    45.00 Ry     beta= 0.70
     Davidson diagonalization with overlap
     ethr =  1.00E-02,  avg # of iterations =  2.0

     total energy              =    -844.00539096 Ry
     Harris-Foulkes estimate   =    -846.68783710 Ry
     estimated scf accuracy    <       7.01120356 Ry

[...]

     iteration #  6     ecut=    45.00 Ry     beta= 0.70
     Davidson diagonalization with overlap
     c_bands:  2 eigenvalues not converged
     c_bands:  1 eigenvalues not converged
     c_bands:  1 eigenvalues not converged
     c_bands:  2 eigenvalues not converged
     ethr =  9.88E-07,  avg # of iterations = 21.6

[...]

     total energy              =    -845.36539076 Ry
     Harris-Foulkes estimate   =    -845.36539122 Ry
     estimated scf accuracy    <       0.00000245 Ry

     iteration # 14     ecut=    45.00 Ry     beta= 0.70
     Davidson diagonalization with overlap
     ethr =  1.14E-09,  avg # of iterations =  2.0

     End of self-consistent calculation

          k = 0.0000 0.0000 0.0000 ( 24617 PWs)   bands (ev):

    -7.2908  -7.2516  -7.0321  -6.1442  -6.0516  -5.9373  -5.6262  -5.6154
    -5.5942  -5.5863  -5.5675  -5.5582  -5.5496  -5.5346  -5.3467  -5.3103
    -5.3014  -5.2673  -5.2538  -5.2393  -5.2295  -5.1328  -4.8600  -4.8531
     0.9991   1.0019   1.0324   1.0469   1.0951   1.1115   1.1150   1.1210
     1.1329   1.1549   1.3119   1.7196   2.0254   2.0408   2.0527   2.0739
     2.0860   2.0881   2.3876   2.3903   2.4246   2.5463   2.6589   2.6944
     2.7117   2.7504   2.7591   2.8114   3.1137   3.1490   3.5013   3.5051
     3.5152   3.5268   3.6300   3.6839   3.6911   3.8260   3.9205   3.9501
     3.9746   3.9754   4.1418   4.1442   4.1962   4.4624   4.5164   4.5461
     4.7089   4.8100   4.8187   4.8961   4.9129   5.0230   5.0402   5.1109
     5.1187   5.1227   5.2265   5.2285   5.3248   5.3303   5.5828   5.6211
     5.6437   5.6491   5.6620   5.7737   5.7914   5.9091   5.9930   5.9994
     6.0276   6.0419   6.0678   6.1066   6.1190   6.1683   6.1974   6.3096
     6.7343   6.8458   6.9984   7.0747   7.5027   7.7531   8.6123   8.6249
     8.6457   8.6634   8.6699   8.6723   8.6760   8.6794   8.9744   9.0953
     9.1519   9.1686   9.1908   9.2058   9.2165   9.2331   9.3377   9.3459
     9.4078   9.4232

[...]

          k = 0.3333-0.1890-0.0129 ( 24680 PWs)   bands (ev):

    -6.9297  -6.8944  -6.6539  -6.0890  -6.0684  -5.9863  -5.8782  -5.8345
    -5.7912  -5.6445  -5.6341  -5.6207  -5.5972  -5.5878  -5.4763  -5.4518
    -5.3268  -5.3049  -5.2923  -5.2615  -5.2347  -5.2304  -5.1618  -4.9239
     1.4053   1.5059   1.5283   1.5503   1.5560   1.5786   1.5934   1.6092
     1.6287   1.6652   1.9601   1.9768   1.9804   2.0035   2.0077   2.0801
     2.2187   2.2661   2.5655   2.6054   2.7670   2.7979   2.8034   2.8846
     2.8947   2.9388   2.9596   2.9887   3.0668   3.3194   3.3572   3.3773
     3.3835   3.3929   3.5387   3.5507   3.6168   3.6348   3.7193   3.8279
     3.8345   3.8824   3.9753   3.9897   4.0436   4.3223   4.3495   4.3965
     4.4142   4.4212   4.4377   4.4825   4.5114   4.5662   4.6133   4.6173
     4.6465   4.8844   4.9492   4.9818   5.0562   5.1084   5.1480   5.2323
     5.2416   5.2497   5.4468   5.5261   5.5734   5.5908   5.7690   5.8090
     5.8774   5.9706   6.0402   6.1794   6.1973   6.2007   6.2264   6.2512
     6.3124   6.4166   6.5897   6.7014   7.2928   8.0531   8.1540   8.4894
     8.6719   8.6847   8.7031   8.7236   8.7334   8.7405   8.8516   8.9078
     9.0087   9.0584   9.1016   9.1200   9.1504   9.1657   9.1775   9.2070
     9.2250   9.2537

     the Fermi energy is     6.9955 ev

!    total energy              =    -845.36539037 Ry
     Harris-Foulkes estimate   =    -845.36539091 Ry
     estimated scf accuracy    <       0.00000059 Ry

     The total energy is the sum of the following terms:

     one-electron contribution =     -35.69878792 Ry
     hartree contribution      =     144.58765808 Ry
     xc contribution           =    -334.09789977 Ry
     ewald contribution        =    -620.16922259 Ry
     smearing contrib. (-TS)   =       0.01286182 Ry

     convergence has been achieved in  14 iterations

     Forces acting on atoms (cartesian axes, Ry/au):

     atom    1 type  1   force =    -0.00031216   -0.00530012    0.01214739
     atom    2 type  1   force =     0.00323211    0.00203079   -0.01291199
     atom    3 type  1   force =    -0.00197491    0.00312729    0.01092026
     atom    4 type  1   force =     0.00042874   -0.00480854   -0.01077127
     atom    5 type  1   force =    -0.00026567    0.00316948    0.00037480
     atom    6 type  1   force =     0.00114401   -0.00127588    0.00173080
     atom    7 type  1   force =     0.00005518    0.00201560    0.00075711
     atom    8 type  1   force =    -0.00193555   -0.00492784   -0.00337852
     atom    9 type  1   force =     0.00344535    0.00468864   -0.00014343
     atom   10 type  1   force =    -0.00021598   -0.00216624    0.00059526
     atom   11 type  1   force =    -0.00222722    0.00454906    0.00074937
     atom   12 type  1   force =     0.00070660   -0.00541002    0.00242438
     atom   13 type  2   force =    -0.00182497    0.00878435   -0.00708322
     atom   14 type  2   force =     0.00103719   -0.00660519   -0.00729227
     atom   15 type  2   force =     0.00145737    0.00982070   -0.01080914
     atom   16 type  2   force =    -0.00011248   -0.00188987   -0.00666360
     atom   17 type  2   force =     0.00067810    0.00413292    0.00746897
     atom   18 type  2   force =     0.00486514   -0.00334026    0.00586536
     atom   19 type  2   force =     0.00022848    0.00491393   -0.00264974
     atom   20 type  2   force =    -0.00287580   -0.00383224    0.00471350
     atom   21 type  2   force =    -0.00060305   -0.00101937    0.00106539
     atom   22 type  2   force =     0.00317686   -0.00068605    0.00238579
     atom   23 type  2   force =    -0.00247840   -0.00443575    0.01023800
     atom   24 type  2   force =    -0.00265109    0.00038813    0.00011308
     atom   25 type  2   force =    -0.00085780    0.00171742    0.00582564
     atom   26 type  2   force =    -0.00043560   -0.00830608    0.01091850
     atom   27 type  2   force =    -0.00108445    0.00664241    0.00260710
     atom   28 type  2   force =     0.00084797   -0.00503821    0.00805287
     atom   29 type  2   force =    -0.00165315    0.00453890   -0.00567446
     atom   30 type  2   force =    -0.00367520   -0.00128320   -0.00308994
     atom   31 type  2   force =     0.00017926   -0.00171380   -0.00713909
     atom   32 type  2   force =     0.00196112   -0.00089863   -0.00266510
     atom   33 type  2   force =    -0.00037429    0.00135954   -0.00585701
     atom   34 type  2   force =     0.00416919    0.00225735    0.00053329
     atom   35 type  2   force =     0.00072478   -0.00372008   -0.00306363
     atom   36 type  2   force =    -0.00277966    0.00252086   -0.00029443

     Total force =     0.047643     Total SCF correction =     0.002349

     General routines

     Parallel routines

   This run was terminated on:  13: 4:18   6Oct2021

   JOB DONE.