     Program PWSCF v.6.4 starts on  8Sep2021 at 12: 7:39

     R & G space division:  proc/nbgrp/npool/nimage =      40
     Waiting for input...
     Reading input from standard input
Warning: card    &IONS ignored
Warning: card      ION_DYNAMICS = 'BFGS' ignored
Warning: card   / ignored
Warning: card    &CELL ignored
Warning: card      CELL_DYNAMICS = 'BFGS', ignored
Warning: card    / ignored

     Current dimensions of program PWSCF are:
     Max number of different atomic species (ntypx) = 10
     Max number of k-points (npk) =  40000
     Max angular momentum in pseudopotentials (lmaxx) =  3

     bravais-lattice index     =            0
     lattice parameter (alat)  =      11.7844  a.u.
     unit-cell volume          =    4536.0668 (a.u.)^3
     number of atoms/cell      =           12
     number of atomic types    =            2
     number of electrons       =        72.00
     number of Kohn-Sham states=           43
     kinetic-energy cutoff     =      45.0000  Ry
     charge density cutoff     =     360.0000  Ry
     convergence threshold     =      1.0E-06
     mixing beta               =       0.7000
     number of iterations used =            8  local-TF  mixing
     Exchange-correlation      = SLA PW GGX GGC ( 1  4  2  2 0 0)

     celldm(1)=  11.784352  celldm(2)=   0.000000  celldm(3)=   0.000000
     celldm(4)=   0.000000  celldm(5)=   0.000000  celldm(6)=   0.000000

     crystal axes: (cart. coord. in units of alat)
               a(1) = (   0.999943  -0.000946   0.010591 )
               a(2) = (  -0.502876   0.970311  -0.046052 )
               a(3) = (   0.161071  -0.063603   2.862545 )

     reciprocal axes: (cart. coord. in units 2 pi/alat)
               b(1) = (  1.001020  0.516663 -0.044846 )
               b(2) = (  0.000734  1.032064  0.022890 )
               b(3) = ( -0.003692  0.014692  0.349874 )

     PseudoPot. # 1 for Mo read from file:
     ~/pseudo/Mo.pw91-n-van.UPF
     MD5 check sum: Not computed, couldn't open file
     Pseudo is Ultrasoft + core correction, Zval =  6.0
     Generated by new atomic code, or converted to UPF format
     Using radial grid of  965 points,  3 beta functions with:
                l(1) =   1
                l(2) =   2
                l(3) =   2
     Q(r) pseudized with  8 coefficients,  rinner =    1.000   1.000   1.000
                                                       1.200   1.200

     PseudoPot. # 2 for S  read from file:
     ~/pseudo/S.pw91-van_ak.UPF
     MD5 check sum: Not computed, couldn't open file
     Pseudo is Ultrasoft, Zval =  6.0
     Generated by new atomic code, or converted to UPF format
     Using radial grid of  811 points,  6 beta functions with:
                l(1) =   0
                l(2) =   0
                l(3) =   1
                l(4) =   1
                l(5) =   2
                l(6) =   2
     Q(r) pseudized with  8 coefficients,  rinner =    1.100   1.100   1.100
                                                       1.100   1.100

     atomic species   valence    mass     pseudopotential
        Mo             6.00    95.50000     Mo( 1.00)
        S              6.00    32.06500     S ( 1.00)

     No symmetry found

   Cartesian axes

     site n.     atom                  positions (alat units)
         1           Mo  tau(   1) = (  -0.0054453  -0.0302085  -0.0511336  )
         2           Mo  tau(   2) = (  -0.2521865   0.5122142   0.0052214  )
         3           Mo  tau(   3) = (   0.5082659  -0.0291678  -0.0488265  )
         4           Mo  tau(   4) = (   0.2507921   0.4877374   0.0139059  )
         5           S   tau(   5) = (  -0.0115911   0.4180644   0.2759810  )
         6           S   tau(   6) = (  -0.2522824   0.8862886   0.1760703  )
         7           S   tau(   7) = (   0.5073125   0.4107735   0.2844293  )
         8           S   tau(   8) = (   0.2426538   0.8349093   0.1847294  )
         9           S   tau(   9) = (   0.1555586   0.2426855   2.6490386  )
        10           S   tau(  10) = (  -0.0879078   0.6872523   2.5544071  )
        11           S   tau(  11) = (   0.6734035   0.2397114   2.6456644  )
        12           S   tau(  12) = (   0.4142993   0.6672136   2.5623011  )

     number of k points=     5  Marzari-Vanderbilt smearing, width (Ry)=  0.0200
                       cart. coord. in units 2pi/alat
        k(    1) = (   0.0000000   0.0000000   0.0000000), wk =   0.2222222
        k(    2) = (   0.0002447   0.3440213   0.0076301), wk =   0.4444444
        k(    3) = (   0.3336735   0.1722211  -0.0149487), wk =   0.4444444
        k(    4) = (   0.3339182   0.5162424  -0.0073186), wk =   0.4444444
        k(    5) = (   0.3334288  -0.1718003  -0.0225788), wk =   0.4444444

     Initial potential from superposition of free atoms

     starting charge   71.99369, renormalised to   72.00000

     negative rho (up, down):  7.285E-04 0.000E+00
     Starting wfcs are   68 randomized atomic wfcs

     Self-consistent Calculation

     iteration #  1     ecut=    45.00 Ry     beta= 0.70
     Davidson diagonalization with overlap
     ethr =  1.00E-02,  avg # of iterations =  2.2

     negative rho (up, down):  7.058E-05 0.000E+00

     total energy              =    -281.10681362 Ry
     Harris-Foulkes estimate   =    -282.02594454 Ry
     estimated scf accuracy    <       2.38563349 Ry

[...]

     total energy              =    -281.56947023 Ry
     Harris-Foulkes estimate   =    -281.56946654 Ry
     estimated scf accuracy    <       0.00000289 Ry

     iteration # 14     ecut=    45.00 Ry     beta= 0.70
     Davidson diagonalization with overlap
     ethr =  4.02E-09,  avg # of iterations =  1.6

[...]

     End of self-consistent calculation

          k = 0.0000 0.0000 0.0000 ( 23151 PWs)   bands (ev):

   -15.4049 -14.2782 -14.0678 -13.8060 -13.6618 -13.5618 -13.4459 -12.9683
    -7.1011  -6.9564  -6.9327  -6.5436  -6.1695  -5.9978  -5.7874  -5.5801
    -5.4737  -5.2249  -5.1409  -4.9506  -4.7131  -4.2342  -3.8017  -3.7591
    -3.4959  -3.3629  -3.3177  -3.2477  -2.8992  -2.2629  -2.0865  -1.9809
    -1.9318  -1.5829  -1.4061  -1.3745  -0.5832  -0.2989  -0.2048   0.2155
     0.6690   0.9222   1.2253

[...]

          k = 0.3334-0.1718-0.0226 ( 23119 PWs)   bands (ev):

   -15.0570 -14.2833 -14.1447 -13.9526 -13.8424 -13.6509 -13.3911 -13.0830
    -6.6745  -6.5660  -6.4145  -6.3239  -6.2284  -5.9638  -5.5549  -5.4973
    -5.2746  -5.0984  -4.9146  -4.7571  -4.4787  -4.4111  -4.3094  -4.2051
    -4.0544  -3.7328  -3.4697  -3.3002  -3.1401  -2.9072  -2.5081  -2.2642
    -1.9127  -1.7958  -1.5824  -1.3933  -0.3320  -0.1617   0.0503   0.2463
     0.5486   0.7901   0.9525

     the Fermi energy is    -1.0981 ev

!    total energy              =    -281.56947247 Ry
     Harris-Foulkes estimate   =    -281.56947051 Ry
     estimated scf accuracy    <       0.00000029 Ry

     The total energy is the sum of the following terms:

     one-electron contribution =   -1395.89789975 Ry
     hartree contribution      =     718.57459499 Ry
     xc contribution           =    -111.42691566 Ry
     ewald contribution        =     507.17001882 Ry
     smearing contrib. (-TS)   =       0.01072913 Ry

     convergence has been achieved in  14 iterations

     negative rho (up, down):  1.020E-03 0.000E+00

     Forces acting on atoms (cartesian axes, Ry/au):

     atom    1 type  1   force =     0.00425578    0.01860512    0.02114430
     atom    2 type  1   force =     0.00368348    0.00605947   -0.00686662
     atom    3 type  1   force =    -0.00051399    0.01025127    0.02430465
     atom    4 type  1   force =     0.00613615    0.01829647   -0.01944951
     atom    5 type  2   force =     0.00978777   -0.03893080    0.03241525
     atom    6 type  2   force =    -0.00426691   -0.05449434    0.02774540
     atom    7 type  2   force =    -0.01603256   -0.03280492    0.01765408
     atom    8 type  2   force =     0.00735910    0.00693381    0.02221557
     atom    9 type  2   force =     0.00724165    0.01972663   -0.04503686
     atom   10 type  2   force =    -0.00056044    0.01063341   -0.02351409
     atom   11 type  2   force =    -0.01293522    0.03018584   -0.03329041
     atom   12 type  2   force =    -0.00415481    0.00553805   -0.01732176

     Total force =     0.129178     Total SCF correction =     0.000878

     General routines

     Parallel routines

   This run was terminated on:  12: 8: 8   8Sep2021

   JOB DONE.