     Program PWSCF v.6.4 starts on 14Oct2021 at 10: 2:54

     R & G space division:  proc/nbgrp/npool/nimage =      40
     Waiting for input...
     Reading input from standard input
Warning: card    &IONS ignored
Warning: card      ION_DYNAMICS = 'BFGS' ignored
Warning: card   / ignored
Warning: card    &CELL ignored
Warning: card      CELL_DYNAMICS = 'BFGS', ignored
Warning: card    / ignored

     Current dimensions of program PWSCF are:
     Max number of different atomic species (ntypx) = 10
     Max number of k-points (npk) =  40000
     Max angular momentum in pseudopotentials (lmaxx) =  3

     bravais-lattice index     =            0
     lattice parameter (alat)  =      12.1602  a.u.
     unit-cell volume          =    6238.6350 (a.u.)^3
     number of atoms/cell      =           36
     number of atomic types    =            2
     number of electrons       =       216.00
     number of Kohn-Sham states=          130
     kinetic-energy cutoff     =      45.0000  Ry
     charge density cutoff     =     360.0000  Ry
     convergence threshold     =      1.0E-06
     mixing beta               =       0.7000
     number of iterations used =            8  local-TF  mixing
     Exchange-correlation      = SLA PW GGX GGC ( 1  4  2  2 0 0)

     celldm(1)=  12.160177  celldm(2)=   0.000000  celldm(3)=   0.000000
     celldm(4)=   0.000000  celldm(5)=   0.000000  celldm(6)=   0.000000

     crystal axes: (cart. coord. in units of alat)
               a(1) = (   1.000000   0.000000   0.000000 )
               a(2) = (  -0.504691   0.863391   0.000000 )
               a(3) = (  -0.150244  -0.599958   4.018484 )

     reciprocal axes: (cart. coord. in units 2 pi/alat)
               b(1) = (  1.000000  0.584544  0.124661 )
               b(2) = (  0.000000  1.158223  0.172922 )
               b(3) = (  0.000000  0.000000  0.248850 )

     PseudoPot. # 1 for Mo read from file:
     ~/pseudo/Mo.pw91-n-van.UPF
     MD5 check sum: Not computed, couldn't open file
     Pseudo is Ultrasoft + core correction, Zval =  6.0
     Generated by new atomic code, or converted to UPF format
     Using radial grid of  965 points,  3 beta functions with:
                l(1) =   1
                l(2) =   2
                l(3) =   2
     Q(r) pseudized with  8 coefficients,  rinner =    1.000   1.000   1.000
                                                       1.200   1.200

     PseudoPot. # 2 for S  read from file:
     ~/pseudo/S.pw91-van_ak.UPF
     MD5 check sum: Not computed, couldn't open file
     Pseudo is Ultrasoft, Zval =  6.0
     Generated by new atomic code, or converted to UPF format
     Using radial grid of  811 points,  6 beta functions with:
                l(1) =   0
                l(2) =   0
                l(3) =   1
                l(4) =   1
                l(5) =   2
                l(6) =   2
     Q(r) pseudized with  8 coefficients,  rinner =    1.100   1.100   1.100
                                                       1.100   1.100

     atomic species   valence    mass     pseudopotential
        Mo             6.00    95.50000     Mo( 1.00)
        S              6.00    32.06500     S ( 1.00)

     No symmetry found

   Cartesian axes

     site n.     atom                  positions (alat units)
         1           Mo  tau(   1) = (   0.5667678  -0.0358721   2.6117649  )
         2           Mo  tau(   2) = (   0.0656196  -0.0343561   2.6139407  )
         3           Mo  tau(   3) = (   0.3175634   0.4002220   2.6155431  )
         4           Mo  tau(   4) = (  -0.1937111   0.4012167   2.6143592  )
         5           Mo  tau(   5) = (   0.0599044   0.6759287   1.3095038  )
         6           Mo  tau(   6) = (  -0.4450342   0.6789034   1.3084194  )
         7           Mo  tau(   7) = (   0.3074542   0.2498197   1.3077904  )
         8           Mo  tau(   8) = (  -0.1888740   0.2433031   1.3060474  )
         9           Mo  tau(   9) = (  -0.0331266   0.0510711   0.1008573  )
        10           Mo  tau(  10) = (   0.4726770   0.0525268   0.0976994  )
        11           Mo  tau(  11) = (  -0.2869224   0.4761988   0.0975951  )
        12           Mo  tau(  12) = (   0.2161054   0.4820365   0.0980424  )
        13           S   tau(  13) = (   0.0678012   0.1718533   3.8718862  )
        14           S   tau(  14) = (  -0.4342551   0.1714038   3.8746317  )
        15           S   tau(  15) = (   0.3153542  -0.2600331   3.8673526  )
        16           S   tau(  16) = (  -0.1828567  -0.2604980   3.8709896  )
        17           S   tau(  17) = (  -0.4390999   0.2549094   2.8635604  )
        18           S   tau(  18) = (   0.0602620   0.2608754   2.8574707  )
        19           S   tau(  19) = (  -0.1850872  -0.1750630   2.8605607  )
        20           S   tau(  20) = (   0.3137808  -0.1740804   2.8588903  )
        21           S   tau(  21) = (   0.5643899   0.2498405   2.3664442  )
        22           S   tau(  22) = (   0.0639355   0.2545873   2.3706851  )
        23           S   tau(  23) = (   0.8199932  -0.1811486   2.3685101  )
        24           S   tau(  24) = (   0.3162611  -0.1812917   2.3685572  )
        25           S   tau(  25) = (   0.3102185   0.5312016   1.5600106  )
        26           S   tau(  26) = (  -0.1904294   0.5281238   1.5519953  )
        27           S   tau(  27) = (   0.5624409   0.1000987   1.5493094  )
        28           S   tau(  28) = (   0.0636436   0.1008531   1.5544173  )
        29           S   tau(  29) = (   0.3079777   0.5392739   1.0578163  )
        30           S   tau(  30) = (  -0.1937555   0.5369158   1.0643260  )
        31           S   tau(  31) = (   0.5583278   0.1037873   1.0622979  )
        32           S   tau(  32) = (   0.0600452   0.1049378   1.0585915  )
        33           S   tau(  33) = (   0.2151950   0.7691082   0.3477305  )
        34           S   tau(  34) = (  -0.2845718   0.7658123   0.3392057  )
        35           S   tau(  35) = (   0.4645578   0.3365695   0.3478438  )
        36           S   tau(  36) = (  -0.0359609   0.3362260   0.3474584  )

     number of k points=     5  Marzari-Vanderbilt smearing, width (Ry)=  0.0200
                       cart. coord. in units 2pi/alat
        k(    1) = (   0.0000000   0.0000000   0.0000000), wk =   0.2222222
        k(    2) = (   0.0000000   0.3860745   0.0576407), wk =   0.4444444
        k(    3) = (   0.3333333   0.1948482   0.0415535), wk =   0.4444444
        k(    4) = (   0.3333333   0.5809227   0.0991942), wk =   0.4444444
        k(    5) = (   0.3333333  -0.1912263  -0.0160872), wk =   0.4444444

     Initial potential from superposition of free atoms

     starting charge  215.98107, renormalised to  216.00000
     Starting wfcs are  204 randomized atomic wfcs

     Self-consistent Calculation

     iteration #  1     ecut=    45.00 Ry     beta= 0.70
     Davidson diagonalization with overlap
     ethr =  1.00E-02,  avg # of iterations =  2.0

     total energy              =    -844.22843580 Ry
     Harris-Foulkes estimate   =    -846.84493786 Ry
     estimated scf accuracy    <       6.69192033 Ry

[...]

     End of self-consistent calculation

          k = 0.0000 0.0000 0.0000 ( 31713 PWs)   bands (ev):

   -10.1095 -10.0974 -10.0909  -8.9234  -8.9203  -8.9139  -8.3975  -8.3823
    -8.3730  -8.3619  -8.3530  -8.3404  -8.3336  -8.3264  -8.2997  -8.1447
    -8.1271  -8.1186  -8.1061  -8.1028  -8.0973  -8.0655  -8.0563  -8.0409
    -1.7628  -1.7414  -1.7409  -1.7380  -1.7283  -1.7270  -1.7252  -1.7197
    -1.7133  -1.6006  -1.5811  -1.5461  -0.8357  -0.8188  -0.8082  -0.7947
    -0.7936  -0.7889  -0.7837  -0.7788  -0.7767  -0.1408  -0.1194  -0.1124
    -0.1037  -0.1001  -0.0973  -0.0792  -0.0773  -0.0590   0.7525   0.7866
     0.7872   0.7977   0.7993   0.8091   0.8508   0.8518   0.8596   1.2830
     1.3009   1.3051   1.3430   1.3698   1.3765   1.9140   1.9420   1.9596
     1.9849   1.9931   1.9967   2.0531   2.0780   2.1045   2.1597   2.2303
     2.3203   2.4154   2.4339   2.4473   2.4663   2.4728   2.4755   2.8912
     2.9026   2.9194   2.9275   2.9414   3.0084   3.0151   3.0289   3.0471
     3.2053   3.2123   3.2199   3.2408   3.2482   3.2531   3.2584   3.2619
     3.2815   3.7574   3.8525   3.9057   5.8649   5.8674   5.8757   5.9148
     5.9240   5.9300   5.9359   5.9507   5.9609   6.4135   6.4152   6.4206
     6.4259   6.4287   6.4357   6.4402   6.4463   6.4508   6.5457   6.5669
     6.5728   6.5999

[...]

     the Fermi energy is     3.9465 ev

!    total energy              =    -845.52973083 Ry
     Harris-Foulkes estimate   =    -845.52973159 Ry
     estimated scf accuracy    <       0.00000080 Ry

     The total energy is the sum of the following terms:

     one-electron contribution =    -732.61781018 Ry
     hartree contribution      =     470.31190052 Ry
     xc contribution           =    -334.08591992 Ry
     ewald contribution        =    -249.16328295 Ry
     smearing contrib. (-TS)   =       0.02538168 Ry

     convergence has been achieved in  15 iterations

     Forces acting on atoms (cartesian axes, Ry/au):

     atom    1 type  1   force =    -0.00576264    0.00895931    0.01350632
     atom    2 type  1   force =    -0.00279133    0.01642306    0.00214514
     atom    3 type  1   force =    -0.02403298   -0.01630714   -0.00542031
     atom    4 type  1   force =     0.02638037   -0.02130497    0.00186805
     atom    5 type  1   force =    -0.00818115    0.00279514   -0.00875573
     atom    6 type  1   force =     0.01242973   -0.00478143    0.00077304
     atom    7 type  1   force =     0.01460960   -0.01096993   -0.00794248
     atom    8 type  1   force =    -0.00176373    0.01017678   -0.00117876
     atom    9 type  1   force =     0.01441254   -0.00328974   -0.00488206
     atom   10 type  1   force =    -0.01605137   -0.01097253    0.00622399
     atom   11 type  1   force =     0.01294599    0.02276113    0.00325610
     atom   12 type  1   force =    -0.00177398   -0.00106891    0.01215809
     atom   13 type  2   force =    -0.00531192   -0.00349530   -0.00292542
     atom   14 type  2   force =    -0.00317875   -0.00538414   -0.00273666
     atom   15 type  2   force =    -0.00222679   -0.00568897    0.00573658
     atom   16 type  2   force =    -0.00318852   -0.00598769    0.00221078
     atom   17 type  2   force =     0.00575632   -0.00768627   -0.00944424
     atom   18 type  2   force =     0.00436711   -0.00979462   -0.00098335
     atom   19 type  2   force =     0.00557553   -0.00179977   -0.00018263
     atom   20 type  2   force =     0.00466781   -0.00292544    0.00387164
     atom   21 type  2   force =    -0.00435336    0.00791343    0.00266091
     atom   22 type  2   force =    -0.00205201    0.00629929    0.00331968
     atom   23 type  2   force =    -0.00392212    0.00768721   -0.00580458
     atom   24 type  2   force =    -0.00351198    0.01220096   -0.00754907
     atom   25 type  2   force =    -0.00366200    0.00854282   -0.01387914
     atom   26 type  2   force =    -0.00478208    0.01022084    0.00161667
     atom   27 type  2   force =    -0.00694325    0.00631574    0.01023019
     atom   28 type  2   force =    -0.00808137    0.00432257   -0.00224513
     atom   29 type  2   force =    -0.00095490   -0.00901895    0.01381403
     atom   30 type  2   force =     0.00414303   -0.00663863   -0.00033309
     atom   31 type  2   force =     0.00012937   -0.00513659    0.00330516
     atom   32 type  2   force =     0.00288390   -0.00570639    0.00871425
     atom   33 type  2   force =    -0.00265377    0.00004188   -0.00837761
     atom   34 type  2   force =     0.00203717    0.00559649    0.00742817
     atom   35 type  2   force =     0.00021188    0.00163939   -0.01046983
     atom   36 type  2   force =     0.00462965    0.00606136   -0.00972868

     Total force =     0.087305     Total SCF correction =     0.001899

     General routines

     Parallel routines

   This run was terminated on:  10: 4:32  14Oct2021

   JOB DONE.

     Program PWSCF v.6.4 starts on 14Oct2021 at 10:46: 8

     R & G space division:  proc/nbgrp/npool/nimage =      40
     Waiting for input...
     Reading input from standard input
Warning: card    &IONS ignored
Warning: card      ION_DYNAMICS = 'BFGS' ignored
Warning: card   / ignored
Warning: card    &CELL ignored
Warning: card      CELL_DYNAMICS = 'BFGS', ignored
Warning: card    / ignored

     Current dimensions of program PWSCF are:
     Max number of different atomic species (ntypx) = 10
     Max number of k-points (npk) =  40000
     Max angular momentum in pseudopotentials (lmaxx) =  3

     bravais-lattice index     =            0
     lattice parameter (alat)  =      12.1602  a.u.
     unit-cell volume          =    6238.6350 (a.u.)^3
     number of atoms/cell      =           36
     number of atomic types    =            2
     number of electrons       =       216.00
     number of Kohn-Sham states=          130
     kinetic-energy cutoff     =      45.0000  Ry
     charge density cutoff     =     360.0000  Ry
     convergence threshold     =      1.0E-06
     mixing beta               =       0.7000
     number of iterations used =            8  local-TF  mixing
     Exchange-correlation      = SLA PW GGX GGC ( 1  4  2  2 0 0)

     celldm(1)=  12.160177  celldm(2)=   0.000000  celldm(3)=   0.000000
     celldm(4)=   0.000000  celldm(5)=   0.000000  celldm(6)=   0.000000

     crystal axes: (cart. coord. in units of alat)
               a(1) = (   1.000000   0.000000   0.000000 )
               a(2) = (  -0.504691   0.863391   0.000000 )
               a(3) = (  -0.150244  -0.599958   4.018484 )

     reciprocal axes: (cart. coord. in units 2 pi/alat)
               b(1) = (  1.000000  0.584544  0.124661 )
               b(2) = (  0.000000  1.158223  0.172922 )
               b(3) = (  0.000000  0.000000  0.248850 )

     PseudoPot. # 1 for Mo read from file:
     ~/pseudo/Mo.pw91-n-van.UPF
     MD5 check sum: Not computed, couldn't open file
     Pseudo is Ultrasoft + core correction, Zval =  6.0
     Generated by new atomic code, or converted to UPF format
     Using radial grid of  965 points,  3 beta functions with:
                l(1) =   1
                l(2) =   2
                l(3) =   2
     Q(r) pseudized with  8 coefficients,  rinner =    1.000   1.000   1.000
                                                       1.200   1.200

     PseudoPot. # 2 for S  read from file:
     ~/pseudo/S.pw91-van_ak.UPF
     MD5 check sum: Not computed, couldn't open file
     Pseudo is Ultrasoft, Zval =  6.0
     Generated by new atomic code, or converted to UPF format
     Using radial grid of  811 points,  6 beta functions with:
                l(1) =   0
                l(2) =   0
                l(3) =   1
                l(4) =   1
                l(5) =   2
                l(6) =   2
     Q(r) pseudized with  8 coefficients,  rinner =    1.100   1.100   1.100
                                                       1.100   1.100

     atomic species   valence    mass     pseudopotential
        Mo             6.00    95.50000     Mo( 1.00)
        S              6.00    32.06500     S ( 1.00)

     No symmetry found

   Cartesian axes

     site n.     atom                  positions (alat units)
         1           Mo  tau(   1) = (   0.5667678  -0.0358721   2.6117649  )
         2           Mo  tau(   2) = (   0.0656196  -0.0343561   2.6139407  )
         3           Mo  tau(   3) = (   0.3175634   0.4002220   2.6155431  )
         4           Mo  tau(   4) = (  -0.1937111   0.4012167   2.6143592  )
         5           Mo  tau(   5) = (   0.0599044   0.6759287   1.3095038  )
         6           Mo  tau(   6) = (  -0.4450342   0.6789034   1.3084194  )
         7           Mo  tau(   7) = (   0.3074542   0.2498197   1.3077904  )
         8           Mo  tau(   8) = (  -0.1888740   0.2433031   1.3060474  )
         9           Mo  tau(   9) = (  -0.0331266   0.0510711   0.1008573  )
        10           Mo  tau(  10) = (   0.4726770   0.0525268   0.0976994  )
        11           Mo  tau(  11) = (  -0.2869224   0.4761988   0.0975951  )
        12           Mo  tau(  12) = (   0.2161054   0.4820365   0.0980424  )
        13           S   tau(  13) = (   0.0678012   0.1718533   3.8718862  )
        14           S   tau(  14) = (  -0.4342551   0.1714038   3.8746317  )
        15           S   tau(  15) = (   0.3153542  -0.2600331   3.8673526  )
        16           S   tau(  16) = (  -0.1828567  -0.2604980   3.8709896  )
        17           S   tau(  17) = (  -0.4390999   0.2549094   2.8635604  )
        18           S   tau(  18) = (   0.0602620   0.2608754   2.8574707  )
        19           S   tau(  19) = (  -0.1850872  -0.1750630   2.8605607  )
        20           S   tau(  20) = (   0.3137808  -0.1740804   2.8588903  )
        21           S   tau(  21) = (   0.5643899   0.2498405   2.3664442  )
        22           S   tau(  22) = (   0.0639355   0.2545873   2.3706851  )
        23           S   tau(  23) = (   0.8199932  -0.1811486   2.3685101  )
        24           S   tau(  24) = (   0.3162611  -0.1812917   2.3685572  )
        25           S   tau(  25) = (   0.3102185   0.5312016   1.5600106  )
        26           S   tau(  26) = (  -0.1904294   0.5281238   1.5519953  )
        27           S   tau(  27) = (   0.5624409   0.1000987   1.5493094  )
        28           S   tau(  28) = (   0.0636436   0.1008531   1.5544173  )
        29           S   tau(  29) = (   0.3079777   0.5392739   1.0578163  )
        30           S   tau(  30) = (  -0.1937555   0.5369158   1.0643260  )
        31           S   tau(  31) = (   0.5583278   0.1037873   1.0622979  )
        32           S   tau(  32) = (   0.0600452   0.1049378   1.0585915  )
        33           S   tau(  33) = (   0.2151950   0.7691082   0.3477305  )
        34           S   tau(  34) = (  -0.2845718   0.7658123   0.3392057  )
        35           S   tau(  35) = (   0.4645578   0.3365695   0.3478438  )
        36           S   tau(  36) = (  -0.0359609   0.3362260   0.3474584  )

     number of k points=     5  Marzari-Vanderbilt smearing, width (Ry)=  0.0200
                       cart. coord. in units 2pi/alat
        k(    1) = (   0.0000000   0.0000000   0.0000000), wk =   0.2222222
        k(    2) = (   0.0000000   0.3860745   0.0576407), wk =   0.4444444
        k(    3) = (   0.3333333   0.1948482   0.0415535), wk =   0.4444444
        k(    4) = (   0.3333333   0.5809227   0.0991942), wk =   0.4444444
        k(    5) = (   0.3333333  -0.1912263  -0.0160872), wk =   0.4444444

     Initial potential from superposition of free atoms

     starting charge  215.98107, renormalised to  216.00000
     Starting wfcs are  204 randomized atomic wfcs

     Self-consistent Calculation

[...]

     total energy              =    -845.52973154 Ry
     Harris-Foulkes estimate   =    -845.52973166 Ry
     estimated scf accuracy    <       0.00000174 Ry

     iteration # 15     ecut=    45.00 Ry     beta= 0.70
     Davidson diagonalization with overlap
     ethr =  8.04E-10,  avg # of iterations =  1.0

     End of self-consistent calculation

[...]

          k = 0.3333-0.1912-0.0161 ( 31807 PWs)   bands (ev):

    -9.7465  -9.7347  -9.7289  -8.8992  -8.8882  -8.8828  -8.7483  -8.7468
    -8.7391  -8.3914  -8.3817  -8.3719  -8.3698  -8.3563  -8.3524  -8.3461
    -8.3402  -8.3197  -8.1101  -8.0974  -8.0870  -8.0559  -8.0497  -8.0435
    -1.3168  -1.2984  -1.2934  -1.2816  -1.2753  -1.2636  -1.2145  -1.2098
    -1.1926  -1.1811  -1.1761  -1.1398  -0.8867  -0.8669  -0.8631  -0.8620
    -0.8548  -0.8415  -0.1847  -0.1804  -0.1662   0.0094   0.0164   0.0306
     0.1048   0.1166   0.1255   0.1382   0.1483   0.1539   0.5694   0.5864
     0.5932   0.7065   0.7155   0.7246   0.7403   0.7482   0.7567   1.0634
     1.0819   1.1252   1.1523   1.1617   1.1721   1.5449   1.5672   1.5773
     1.6105   1.6215   1.6367   1.7547   1.7695   1.7786   1.9294   1.9307
     1.9427   2.0997   2.1428   2.1507   2.1638   2.1902   2.2386   2.2500
     2.2999   2.3152   2.5978   2.6061   2.6181   2.7718   2.8152   2.8760
     2.9019   2.9086   2.9288   3.2710   3.3033   3.3405   3.4330   3.4617
     3.5038   3.5220   3.5604   3.5816   5.8460   5.8572   5.8887   5.9251
     5.9382   5.9502   5.9723   5.9854   5.9935   6.0160   6.0343   6.0434
     6.1135   6.1657   6.1732   6.3089   6.3328   6.3482   6.3841   6.4047
     6.4228   6.4518

     the Fermi energy is     3.9465 ev

!    total energy              =    -845.52973083 Ry
     Harris-Foulkes estimate   =    -845.52973159 Ry
     estimated scf accuracy    <       0.00000080 Ry

     The total energy is the sum of the following terms:

     one-electron contribution =    -732.61781018 Ry
     hartree contribution      =     470.31190052 Ry
     xc contribution           =    -334.08591992 Ry
     ewald contribution        =    -249.16328295 Ry
     smearing contrib. (-TS)   =       0.02538168 Ry

     convergence has been achieved in  15 iterations

     Forces acting on atoms (cartesian axes, Ry/au):

     atom    1 type  1   force =    -0.00576264    0.00895931    0.01350632
     atom    2 type  1   force =    -0.00279133    0.01642306    0.00214514
     atom    3 type  1   force =    -0.02403298   -0.01630714   -0.00542031
     atom    4 type  1   force =     0.02638037   -0.02130497    0.00186805
     atom    5 type  1   force =    -0.00818115    0.00279514   -0.00875573
     atom    6 type  1   force =     0.01242973   -0.00478143    0.00077304
     atom    7 type  1   force =     0.01460960   -0.01096993   -0.00794248
     atom    8 type  1   force =    -0.00176373    0.01017678   -0.00117876
     atom    9 type  1   force =     0.01441254   -0.00328974   -0.00488206
     atom   10 type  1   force =    -0.01605137   -0.01097253    0.00622399
     atom   11 type  1   force =     0.01294599    0.02276113    0.00325610
     atom   12 type  1   force =    -0.00177398   -0.00106891    0.01215809
     atom   13 type  2   force =    -0.00531192   -0.00349530   -0.00292542
     atom   14 type  2   force =    -0.00317875   -0.00538414   -0.00273666
     atom   15 type  2   force =    -0.00222679   -0.00568897    0.00573658
     atom   16 type  2   force =    -0.00318852   -0.00598769    0.00221078
     atom   17 type  2   force =     0.00575632   -0.00768627   -0.00944424
     atom   18 type  2   force =     0.00436711   -0.00979462   -0.00098335
     atom   19 type  2   force =     0.00557553   -0.00179977   -0.00018263
     atom   20 type  2   force =     0.00466781   -0.00292544    0.00387164
     atom   21 type  2   force =    -0.00435336    0.00791343    0.00266091
     atom   22 type  2   force =    -0.00205201    0.00629929    0.00331968
     atom   23 type  2   force =    -0.00392212    0.00768721   -0.00580458
     atom   24 type  2   force =    -0.00351198    0.01220096   -0.00754907
     atom   25 type  2   force =    -0.00366200    0.00854282   -0.01387914
     atom   26 type  2   force =    -0.00478208    0.01022084    0.00161667
     atom   27 type  2   force =    -0.00694325    0.00631574    0.01023019
     atom   28 type  2   force =    -0.00808137    0.00432257   -0.00224513
     atom   29 type  2   force =    -0.00095490   -0.00901895    0.01381403
     atom   30 type  2   force =     0.00414303   -0.00663863   -0.00033309
     atom   31 type  2   force =     0.00012937   -0.00513659    0.00330516
     atom   32 type  2   force =     0.00288390   -0.00570639    0.00871425
     atom   33 type  2   force =    -0.00265377    0.00004188   -0.00837761
     atom   34 type  2   force =     0.00203717    0.00559649    0.00742817
     atom   35 type  2   force =     0.00021188    0.00163939   -0.01046983
     atom   36 type  2   force =     0.00462965    0.00606136   -0.00972868

     Total force =     0.087305     Total SCF correction =     0.001899

     General routines

     Parallel routines

   This run was terminated on:  10:48: 6  14Oct2021

   JOB DONE.