     Program PWSCF v.6.4 starts on 23Dec2021 at 22: 6:27

     R & G space division:  proc/nbgrp/npool/nimage =      40
     Waiting for input...
     Reading input from standard input
Warning: card    &IONS ignored
Warning: card      ION_DYNAMICS = 'BFGS' ignored
Warning: card   / ignored
Warning: card    &CELL ignored
Warning: card      CELL_DYNAMICS = 'BFGS', ignored
Warning: card    / ignored

     Current dimensions of program PWSCF are:
     Max number of different atomic species (ntypx) = 10
     Max number of k-points (npk) =  40000
     Max angular momentum in pseudopotentials (lmaxx) =  3

     bravais-lattice index     =            0
     lattice parameter (alat)  =      10.3361  a.u.
     unit-cell volume          =    3714.1167 (a.u.)^3
     number of atoms/cell      =           18
     number of atomic types    =            2
     number of electrons       =       108.00
     number of Kohn-Sham states=           65
     kinetic-energy cutoff     =      45.0000  Ry
     charge density cutoff     =     360.0000  Ry
     convergence threshold     =      1.0E-06
     mixing beta               =       0.7000
     number of iterations used =            8  local-TF  mixing
     Exchange-correlation      = SLA PW GGX GGC ( 1  4  2  2 0 0)

     celldm(1)=  10.336063  celldm(2)=   0.000000  celldm(3)=   0.000000
     celldm(4)=   0.000000  celldm(5)=   0.000000  celldm(6)=   0.000000

     crystal axes: (cart. coord. in units of alat)
               a(1) = (   1.000000   0.000000   0.000000 )
               a(2) = (   0.004111   1.187751   0.000000 )
               a(3) = (  -0.089936   0.538553   2.831814 )

     reciprocal axes: (cart. coord. in units 2 pi/alat)
               b(1) = (  1.000000 -0.003462  0.032417 )
               b(2) = (  0.000000  0.841927 -0.160117 )
               b(3) = (  0.000000  0.000000  0.353131 )

     PseudoPot. # 1 for Mo read from file:
     ~/pseudo/Mo.pw91-n-van.UPF
     MD5 check sum: Not computed, couldn't open file
     Pseudo is Ultrasoft + core correction, Zval =  6.0
     Generated by new atomic code, or converted to UPF format
     Using radial grid of  965 points,  3 beta functions with:
                l(1) =   1
                l(2) =   2
                l(3) =   2
     Q(r) pseudized with  8 coefficients,  rinner =    1.000   1.000   1.000
                                                       1.200   1.200

     PseudoPot. # 2 for S  read from file:
     ~/pseudo/S.pw91-van_ak.UPF
     MD5 check sum: Not computed, couldn't open file
     Pseudo is Ultrasoft, Zval =  6.0
     Generated by new atomic code, or converted to UPF format
     Using radial grid of  811 points,  6 beta functions with:
                l(1) =   0
                l(2) =   0
                l(3) =   1
                l(4) =   1
                l(5) =   2
                l(6) =   2
     Q(r) pseudized with  8 coefficients,  rinner =    1.100   1.100   1.100
                                                       1.100   1.100

     atomic species   valence    mass     pseudopotential
        Mo             6.00    95.50000     Mo( 1.00)
        S              6.00    32.06500     S ( 1.00)

     No symmetry found

   Cartesian axes

     site n.     atom                  positions (alat units)
         1           Mo  tau(   1) = (   0.1757267   0.3422730   0.4998974  )
         2           Mo  tau(   2) = (   0.1808800   0.9338246   0.5172079  )
         3           Mo  tau(   3) = (   0.6725064   0.6408760   0.5092606  )
         4           Mo  tau(   4) = (   0.6767692   1.2372486   0.5143492  )
         5           Mo  tau(   5) = (   0.9364973   0.3671197   1.8257671  )
         6           Mo  tau(   6) = (   0.5984618   0.6934216   1.7304164  )
         7           S   tau(   7) = (   0.3523319   0.6413599   0.2169485  )
         8           S   tau(   8) = (   0.3476880   0.0475535   0.2246326  )
         9           S   tau(   9) = (   0.8537644   0.9336024   0.2140470  )
        10           S   tau(  10) = (   0.8369148   0.3372843   0.2127644  )
        11           S   tau(  11) = (   0.5438520   1.5195856   1.9449010  )
        12           S   tau(  12) = (   0.0338565   1.3459519   1.4993687  )
        13           S   tau(  13) = (   0.3368720   0.6381149   0.7866446  )
        14           S   tau(  14) = (   0.3449952   1.2322714   0.7885457  )
        15           S   tau(  15) = (   0.8485324   0.9432071   0.7952347  )
        16           S   tau(  16) = (   0.8427717   0.3510100   0.7938675  )
        17           S   tau(  17) = (   0.0018645   0.7664365   1.8046018  )
        18           S   tau(  18) = (   0.4633170   0.7991853   1.3630231  )

     number of k points=     5  Marzari-Vanderbilt smearing, width (Ry)=  0.0200
                       cart. coord. in units 2pi/alat
        k(    1) = (   0.0000000   0.0000000   0.0000000), wk =   0.2222222
        k(    2) = (   0.0000000   0.2806425  -0.0533724), wk =   0.4444444
        k(    3) = (   0.3333333  -0.0011539   0.0108058), wk =   0.4444444
        k(    4) = (   0.3333333   0.2794886  -0.0425666), wk =   0.4444444
        k(    5) = (   0.3333333  -0.2817963   0.0641782), wk =   0.4444444

     Initial potential from superposition of free atoms

     starting charge  107.99054, renormalised to  108.00000
     Starting wfcs are  102 randomized atomic wfcs

     Self-consistent Calculation

     iteration #  1     ecut=    45.00 Ry     beta= 0.70
     Davidson diagonalization with overlap
     ethr =  1.00E-02,  avg # of iterations =  2.0

     total energy              =    -421.48733138 Ry
     Harris-Foulkes estimate   =    -422.97766292 Ry
     estimated scf accuracy    <       4.11236315 Ry

[...]

     iteration # 12     ecut=    45.00 Ry     beta= 0.70
     Davidson diagonalization with overlap
     c_bands:  1 eigenvalues not converged
     ethr =  9.20E-07,  avg # of iterations =  7.4

[...]

     total energy              =    -422.23057328 Ry
     Harris-Foulkes estimate   =    -422.23057346 Ry
     estimated scf accuracy    <       0.00000138 Ry

     iteration # 18     ecut=    45.00 Ry     beta= 0.70
     Davidson diagonalization with overlap
     ethr =  1.28E-09,  avg # of iterations =  2.0

     End of self-consistent calculation

          k = 0.0000 0.0000 0.0000 ( 18909 PWs)   bands (ev):

   -11.5817 -10.3505 -10.2935  -9.9757  -9.9301  -9.7903  -9.7298  -9.5893
    -9.4788  -9.4344  -8.7737  -8.5805  -3.1912  -3.0520  -2.5603  -2.4963
    -2.3538  -2.2889  -2.2237  -1.5123  -1.4785  -1.2312  -1.1390  -1.0462
    -0.9461  -0.8917  -0.8214  -0.7747  -0.6900  -0.6258  -0.4873  -0.3996
    -0.3333  -0.2952   0.0278   0.0870   0.2892   0.3923   0.5814   0.6879
     0.8001   0.8281   0.9016   1.0289   1.0450   1.0922   1.4196   1.4286
     1.6565   1.9233   2.0304   2.1355   2.5587   2.9894   3.3123   3.8599
     3.9322   4.1960   4.4816   4.5143   4.5596   4.6069   4.7421   4.9746
     4.9954

[...]

          k = 0.3333-0.2818 0.0642 ( 18957 PWs)   bands (ev):

   -10.9569 -10.3870 -10.1364 -10.1340 -10.0404  -9.9223  -9.8400  -9.7690
    -9.6403  -9.4907  -8.7992  -8.6051  -2.8072  -2.6617  -2.6197  -2.4267
    -2.3119  -1.9768  -1.8095  -1.7321  -1.6329  -1.4976  -1.4352  -1.3064
    -1.2253  -1.1336  -0.9566  -0.8351  -0.7253  -0.6972  -0.6544  -0.4789
    -0.2721  -0.0734   0.0002   0.2505   0.2674   0.3681   0.5413   0.7931
     0.8441   0.9337   1.0863   1.1830   1.2661   1.3749   1.4952   1.6050
     1.6505   1.7599   1.8932   1.9470   1.9931   3.0408   3.1681   3.4998
     3.6888   4.3608   4.4751   4.4999   4.5645   4.6032   4.6796   4.7453
     4.8640

     the Fermi energy is     3.1402 ev

!    total energy              =    -422.23057320 Ry
     Harris-Foulkes estimate   =    -422.23057338 Ry
     estimated scf accuracy    <       0.00000022 Ry

     The total energy is the sum of the following terms:

     one-electron contribution =    -536.09533855 Ry
     hartree contribution      =     314.90206804 Ry
     xc contribution           =    -166.74388857 Ry
     ewald contribution        =     -34.28530663 Ry
     smearing contrib. (-TS)   =      -0.00810749 Ry

     convergence has been achieved in  18 iterations

     Forces acting on atoms (cartesian axes, Ry/au):

     atom    1 type  1   force =    -0.01128260    0.00965192    0.00037593
     atom    2 type  1   force =    -0.00206960    0.01743215   -0.08605476
     atom    3 type  1   force =     0.04940901    0.00659038   -0.02664259
     atom    4 type  1   force =     0.04802830   -0.01302074   -0.04699894
     atom    5 type  1   force =     0.06408193   -0.10047459   -0.00308117
     atom    6 type  1   force =    -0.07200322    0.06580525   -0.02546807
     atom    7 type  2   force =    -0.02730039    0.00243572   -0.00600759
     atom    8 type  2   force =    -0.01554981   -0.01817601   -0.01818650
     atom    9 type  2   force =    -0.01764086    0.00940009    0.03005435
     atom   10 type  2   force =     0.00103808    0.01235466    0.01607667
     atom   11 type  2   force =    -0.04665151   -0.02167288   -0.00285370
     atom   12 type  2   force =    -0.01043193    0.01247720    0.01406101
     atom   13 type  2   force =     0.00886774   -0.01857832    0.04606125
     atom   14 type  2   force =    -0.01196180    0.01663665    0.04778896
     atom   15 type  2   force =    -0.02252318   -0.01424571    0.02427189
     atom   16 type  2   force =    -0.00095041   -0.01047174    0.01415962
     atom   17 type  2   force =     0.03944075    0.06551849   -0.01484098
     atom   18 type  2   force =     0.02749950   -0.02166254    0.03728462

     Total force =     0.249507     Total SCF correction =     0.001187

     General routines

     Parallel routines

   This run was terminated on:  22: 7: 8  23Dec2021

   JOB DONE.