     Program PWSCF v.6.4 starts on 24Dec2021 at 22:16:44

     R & G space division:  proc/nbgrp/npool/nimage =      40
     Waiting for input...
     Reading input from standard input
Warning: card    &IONS ignored
Warning: card      ION_DYNAMICS = 'BFGS' ignored
Warning: card   / ignored
Warning: card    &CELL ignored
Warning: card      CELL_DYNAMICS = 'BFGS', ignored
Warning: card    / ignored

     Current dimensions of program PWSCF are:
     Max number of different atomic species (ntypx) = 10
     Max number of k-points (npk) =  40000
     Max angular momentum in pseudopotentials (lmaxx) =  3

     bravais-lattice index     =            0
     lattice parameter (alat)  =      18.5884  a.u.
     unit-cell volume          =    6433.4093 (a.u.)^3
     number of atoms/cell      =           48
     number of atomic types    =            2
     number of electrons       =       288.00
     number of Kohn-Sham states=          173
     kinetic-energy cutoff     =      45.0000  Ry
     charge density cutoff     =     360.0000  Ry
     convergence threshold     =      1.0E-06
     mixing beta               =       0.7000
     number of iterations used =            8  local-TF  mixing
     Exchange-correlation      = SLA PW GGX GGC ( 1  4  2  2 0 0)

     celldm(1)=  18.588437  celldm(2)=   0.000000  celldm(3)=   0.000000
     celldm(4)=   0.000000  celldm(5)=   0.000000  celldm(6)=   0.000000

     crystal axes: (cart. coord. in units of alat)
               a(1) = (   1.000000   0.000000   0.000000 )
               a(2) = (  -0.033036   1.011671   0.000000 )
               a(3) = (  -0.003457  -0.049872   0.990087 )

     reciprocal axes: (cart. coord. in units 2 pi/alat)
               b(1) = (  1.000000  0.032655  0.005137 )
               b(2) = (  0.000000  0.988464  0.049791 )
               b(3) = (  0.000000  0.000000  1.010013 )

     PseudoPot. # 1 for Mo read from file:
     ~/pseudo/Mo.pw91-n-van.UPF
     MD5 check sum: Not computed, couldn't open file
     Pseudo is Ultrasoft + core correction, Zval =  6.0
     Generated by new atomic code, or converted to UPF format
     Using radial grid of  965 points,  3 beta functions with:
                l(1) =   1
                l(2) =   2
                l(3) =   2
     Q(r) pseudized with  8 coefficients,  rinner =    1.000   1.000   1.000
                                                       1.200   1.200

     PseudoPot. # 2 for S  read from file:
     ~/pseudo/S.pw91-van_ak.UPF
     MD5 check sum: Not computed, couldn't open file
     Pseudo is Ultrasoft, Zval =  6.0
     Generated by new atomic code, or converted to UPF format
     Using radial grid of  811 points,  6 beta functions with:
                l(1) =   0
                l(2) =   0
                l(3) =   1
                l(4) =   1
                l(5) =   2
                l(6) =   2
     Q(r) pseudized with  8 coefficients,  rinner =    1.100   1.100   1.100
                                                       1.100   1.100

     atomic species   valence    mass     pseudopotential
        Mo             6.00    95.50000     Mo( 1.00)
        S              6.00    32.06500     S ( 1.00)

     No symmetry found

   Cartesian axes

     site n.     atom                  positions (alat units)
         1           Mo  tau(   1) = (   0.6231636   0.1461877   0.3696877  )
         2           Mo  tau(   2) = (   0.6184268   0.3615316   0.1516807  )
         3           Mo  tau(   3) = (   0.8099673   0.1434775   0.1537585  )
         4           Mo  tau(   4) = (   0.8306033   0.3434287   0.3642491  )
         5           Mo  tau(   5) = (   0.1274803   0.6395640   0.3871576  )
         6           Mo  tau(   6) = (   0.1048606   0.6492346   0.9032028  )
         7           Mo  tau(   7) = (   0.3340412   0.6408377   0.1689036  )
         8           Mo  tau(   8) = (   0.3181997   0.8497674   0.3756302  )
         9           Mo  tau(   9) = (   0.1197359   0.1204078   0.8254301  )
        10           Mo  tau(  10) = (   0.1201056   0.3369797   0.6427398  )
        11           Mo  tau(  11) = (   0.3431425   0.1368315   0.6338418  )
        12           Mo  tau(  12) = (   0.3378368   0.3238008   0.8602774  )
        13           Mo  tau(  13) = (   0.6316550   0.6119721   0.8857654  )
        14           Mo  tau(  14) = (   0.5646153   0.9260371   0.5954977  )
        15           Mo  tau(  15) = (   0.8491454   0.6149546   0.6566791  )
        16           Mo  tau(  16) = (   0.8469655   0.8284279   0.8658166  )
        17           S   tau(  17) = (   0.5821965   0.1299545   0.1171356  )
        18           S   tau(  18) = (   0.3547363   0.0848605   0.8724384  )
        19           S   tau(  19) = (   0.5889465   0.3899007   0.3964241  )
        20           S   tau(  20) = (   0.0955554   0.3760652   0.3875404  )
        21           S   tau(  21) = (   0.0765302   0.9117883   0.0365852  )
        22           S   tau(  22) = (   0.3596890   0.3983221   0.1270287  )
        23           S   tau(  23) = (   0.3654721   0.1132406   0.3764924  )
        24           S   tau(  24) = (   0.3595446   0.3763262   0.6264728  )
        25           S   tau(  25) = (   0.0956513   0.6087800   0.1498892  )
        26           S   tau(  26) = (   0.8631036   0.5753361   0.8958147  )
        27           S   tau(  27) = (   0.0886247   0.8691294   0.3756538  )
        28           S   tau(  28) = (   0.5768141   0.8964910   0.3713815  )
        29           S   tau(  29) = (   0.5818301   0.6223422   0.1337530  )
        30           S   tau(  30) = (   0.7929807   0.9055530   0.1183541  )
        31           S   tau(  31) = (   0.8677555   0.6015911   0.4110689  )
        32           S   tau(  32) = (   0.7969912   0.8572622   0.6185166  )
        33           S   tau(  33) = (   0.1055213   0.1033091   0.5951629  )
        34           S   tau(  34) = (   0.8636125   0.1090110   0.3857008  )
        35           S   tau(  35) = (   0.0944650   0.3488948   0.8956218  )
        36           S   tau(  36) = (   0.5863657   0.3579881   0.8858322  )
        37           S   tau(  37) = (   0.5984461   0.1450385   0.6265181  )
        38           S   tau(  38) = (   0.8688491   0.3698552   0.6283957  )
        39           S   tau(  39) = (   0.8812887   0.0718632   0.8974703  )
        40           S   tau(  40) = (   0.8651444   0.3841329   0.1275574  )
        41           S   tau(  41) = (   0.6101351   0.5839014   0.6398861  )
        42           S   tau(  42) = (   0.3648103   0.6177152   0.3942848  )
        43           S   tau(  43) = (   0.5896913   0.8494602   0.8377046  )
        44           S   tau(  44) = (   0.0773474   0.8632147   0.7620739  )
        45           S   tau(  45) = (   0.1036396   0.5961260   0.6332254  )
        46           S   tau(  46) = (   0.3292982   0.8861518   0.6188318  )
        47           S   tau(  47) = (   0.3475534   0.5875115   0.8919761  )
        48           S   tau(  48) = (   0.3581673   0.8846995   0.1398913  )

     number of k points=     8  Marzari-Vanderbilt smearing, width (Ry)=  0.0200
                       cart. coord. in units 2pi/alat
        k(    1) = (   0.0000000   0.0000000   0.0000000), wk =   0.2500000
        k(    2) = (   0.0000000   0.0000000  -0.5050063), wk =   0.2500000
        k(    3) = (   0.0000000  -0.4942318  -0.0248953), wk =   0.2500000
        k(    4) = (   0.0000000  -0.4942318  -0.5299015), wk =   0.2500000
        k(    5) = (  -0.5000000  -0.0163277  -0.0025685), wk =   0.2500000
        k(    6) = (  -0.5000000  -0.0163277  -0.5075748), wk =   0.2500000
        k(    7) = (  -0.5000000  -0.5105595  -0.0274637), wk =   0.2500000
        k(    8) = (  -0.5000000  -0.5105595  -0.5324700), wk =   0.2500000

     Initial potential from superposition of free atoms

     starting charge  287.97477, renormalised to  288.00000
     Starting wfcs are  272 randomized atomic wfcs

     Self-consistent Calculation

     iteration #  1     ecut=    45.00 Ry     beta= 0.70
     Davidson diagonalization with overlap
     ethr =  1.00E-02,  avg # of iterations =  2.0

     total energy              =   -1123.76387213 Ry
     Harris-Foulkes estimate   =   -1128.05706136 Ry
     estimated scf accuracy    <      11.47528989 Ry

[...]

     iteration #  7     ecut=    45.00 Ry     beta= 0.70
     Davidson diagonalization with overlap
     c_bands:  1 eigenvalues not converged
     c_bands:  1 eigenvalues not converged
     ethr =  1.01E-05,  avg # of iterations = 16.0

[...]

     iteration # 15     ecut=    45.00 Ry     beta= 0.70
     Davidson diagonalization with overlap

     Program PWSCF v.6.4 starts on 24Dec2021 at 23: 7:29

     R & G space division:  proc/nbgrp/npool/nimage =      40
     Waiting for input...
     Reading input from standard input
Warning: card    &IONS ignored
Warning: card      ION_DYNAMICS = 'BFGS' ignored
Warning: card   / ignored
Warning: card    &CELL ignored
Warning: card      CELL_DYNAMICS = 'BFGS', ignored
Warning: card    / ignored

     Current dimensions of program PWSCF are:
     Max number of different atomic species (ntypx) = 10
     Max number of k-points (npk) =  40000
     Max angular momentum in pseudopotentials (lmaxx) =  3

     bravais-lattice index     =            0
     lattice parameter (alat)  =      18.5884  a.u.
     unit-cell volume          =    6433.4093 (a.u.)^3
     number of atoms/cell      =           48
     number of atomic types    =            2
     number of electrons       =       288.00
     number of Kohn-Sham states=          173
     kinetic-energy cutoff     =      45.0000  Ry
     charge density cutoff     =     360.0000  Ry
     convergence threshold     =      1.0E-06
     mixing beta               =       0.7000
     number of iterations used =            8  local-TF  mixing
     Exchange-correlation      = SLA PW GGX GGC ( 1  4  2  2 0 0)

     celldm(1)=  18.588437  celldm(2)=   0.000000  celldm(3)=   0.000000
     celldm(4)=   0.000000  celldm(5)=   0.000000  celldm(6)=   0.000000

     crystal axes: (cart. coord. in units of alat)
               a(1) = (   1.000000   0.000000   0.000000 )
               a(2) = (  -0.033036   1.011671   0.000000 )
               a(3) = (  -0.003457  -0.049872   0.990087 )

     reciprocal axes: (cart. coord. in units 2 pi/alat)
               b(1) = (  1.000000  0.032655  0.005137 )
               b(2) = (  0.000000  0.988464  0.049791 )
               b(3) = (  0.000000  0.000000  1.010013 )

     PseudoPot. # 1 for Mo read from file:
     ~/pseudo/Mo.pw91-n-van.UPF
     MD5 check sum: Not computed, couldn't open file
     Pseudo is Ultrasoft + core correction, Zval =  6.0
     Generated by new atomic code, or converted to UPF format
     Using radial grid of  965 points,  3 beta functions with:
                l(1) =   1
                l(2) =   2
                l(3) =   2
     Q(r) pseudized with  8 coefficients,  rinner =    1.000   1.000   1.000
                                                       1.200   1.200

     PseudoPot. # 2 for S  read from file:
     ~/pseudo/S.pw91-van_ak.UPF
     MD5 check sum: Not computed, couldn't open file
     Pseudo is Ultrasoft, Zval =  6.0
     Generated by new atomic code, or converted to UPF format
     Using radial grid of  811 points,  6 beta functions with:
                l(1) =   0
                l(2) =   0
                l(3) =   1
                l(4) =   1
                l(5) =   2
                l(6) =   2
     Q(r) pseudized with  8 coefficients,  rinner =    1.100   1.100   1.100
                                                       1.100   1.100

     atomic species   valence    mass     pseudopotential
        Mo             6.00    95.50000     Mo( 1.00)
        S              6.00    32.06500     S ( 1.00)

     No symmetry found

   Cartesian axes

     site n.     atom                  positions (alat units)
         1           Mo  tau(   1) = (   0.6231636   0.1461877   0.3696877  )
         2           Mo  tau(   2) = (   0.6184268   0.3615316   0.1516807  )
         3           Mo  tau(   3) = (   0.8099673   0.1434775   0.1537585  )
         4           Mo  tau(   4) = (   0.8306033   0.3434287   0.3642491  )
         5           Mo  tau(   5) = (   0.1274803   0.6395640   0.3871576  )
         6           Mo  tau(   6) = (   0.1048606   0.6492346   0.9032028  )
         7           Mo  tau(   7) = (   0.3340412   0.6408377   0.1689036  )
         8           Mo  tau(   8) = (   0.3181997   0.8497674   0.3756302  )
         9           Mo  tau(   9) = (   0.1197359   0.1204078   0.8254301  )
        10           Mo  tau(  10) = (   0.1201056   0.3369797   0.6427398  )
        11           Mo  tau(  11) = (   0.3431425   0.1368315   0.6338418  )
        12           Mo  tau(  12) = (   0.3378368   0.3238008   0.8602774  )
        13           Mo  tau(  13) = (   0.6316550   0.6119721   0.8857654  )
        14           Mo  tau(  14) = (   0.5646153   0.9260371   0.5954977  )
        15           Mo  tau(  15) = (   0.8491454   0.6149546   0.6566791  )
        16           Mo  tau(  16) = (   0.8469655   0.8284279   0.8658166  )
        17           S   tau(  17) = (   0.5821965   0.1299545   0.1171356  )
        18           S   tau(  18) = (   0.3547363   0.0848605   0.8724384  )
        19           S   tau(  19) = (   0.5889465   0.3899007   0.3964241  )
        20           S   tau(  20) = (   0.0955554   0.3760652   0.3875404  )
        21           S   tau(  21) = (   0.0765302   0.9117883   0.0365852  )
        22           S   tau(  22) = (   0.3596890   0.3983221   0.1270287  )
        23           S   tau(  23) = (   0.3654721   0.1132406   0.3764924  )
        24           S   tau(  24) = (   0.3595446   0.3763262   0.6264728  )
        25           S   tau(  25) = (   0.0956513   0.6087800   0.1498892  )
        26           S   tau(  26) = (   0.8631036   0.5753361   0.8958147  )
        27           S   tau(  27) = (   0.0886247   0.8691294   0.3756538  )
        28           S   tau(  28) = (   0.5768141   0.8964910   0.3713815  )
        29           S   tau(  29) = (   0.5818301   0.6223422   0.1337530  )
        30           S   tau(  30) = (   0.7929807   0.9055530   0.1183541  )
        31           S   tau(  31) = (   0.8677555   0.6015911   0.4110689  )
        32           S   tau(  32) = (   0.7969912   0.8572622   0.6185166  )
        33           S   tau(  33) = (   0.1055213   0.1033091   0.5951629  )
        34           S   tau(  34) = (   0.8636125   0.1090110   0.3857008  )
        35           S   tau(  35) = (   0.0944650   0.3488948   0.8956218  )
        36           S   tau(  36) = (   0.5863657   0.3579881   0.8858322  )
        37           S   tau(  37) = (   0.5984461   0.1450385   0.6265181  )
        38           S   tau(  38) = (   0.8688491   0.3698552   0.6283957  )
        39           S   tau(  39) = (   0.8812887   0.0718632   0.8974703  )
        40           S   tau(  40) = (   0.8651444   0.3841329   0.1275574  )
        41           S   tau(  41) = (   0.6101351   0.5839014   0.6398861  )
        42           S   tau(  42) = (   0.3648103   0.6177152   0.3942848  )
        43           S   tau(  43) = (   0.5896913   0.8494602   0.8377046  )
        44           S   tau(  44) = (   0.0773474   0.8632147   0.7620739  )
        45           S   tau(  45) = (   0.1036396   0.5961260   0.6332254  )
        46           S   tau(  46) = (   0.3292982   0.8861518   0.6188318  )
        47           S   tau(  47) = (   0.3475534   0.5875115   0.8919761  )
        48           S   tau(  48) = (   0.3581673   0.8846995   0.1398913  )

     number of k points=     8  Marzari-Vanderbilt smearing, width (Ry)=  0.0200
                       cart. coord. in units 2pi/alat
        k(    1) = (   0.0000000   0.0000000   0.0000000), wk =   0.2500000
        k(    2) = (   0.0000000   0.0000000  -0.5050063), wk =   0.2500000
        k(    3) = (   0.0000000  -0.4942318  -0.0248953), wk =   0.2500000
        k(    4) = (   0.0000000  -0.4942318  -0.5299015), wk =   0.2500000
        k(    5) = (  -0.5000000  -0.0163277  -0.0025685), wk =   0.2500000
        k(    6) = (  -0.5000000  -0.0163277  -0.5075748), wk =   0.2500000
        k(    7) = (  -0.5000000  -0.5105595  -0.0274637), wk =   0.2500000
        k(    8) = (  -0.5000000  -0.5105595  -0.5324700), wk =   0.2500000

     Initial potential from superposition of free atoms

     starting charge  287.97477, renormalised to  288.00000
     Starting wfcs are  272 randomized atomic wfcs

     Self-consistent Calculation

[...]

     iteration #  7     ecut=    45.00 Ry     beta= 0.70
     Davidson diagonalization with overlap
     c_bands:  1 eigenvalues not converged
     c_bands:  1 eigenvalues not converged
     ethr =  1.01E-05,  avg # of iterations = 16.0

[...]

     total energy              =   -1126.01807309 Ry
     Harris-Foulkes estimate   =   -1126.01807318 Ry
     estimated scf accuracy    <       0.00000106 Ry

     iteration # 16     ecut=    45.00 Ry     beta= 0.70
     Davidson diagonalization with overlap
     ethr =  3.68E-10,  avg # of iterations =  1.0

     End of self-consistent calculation

          k = 0.0000 0.0000 0.0000 ( 32809 PWs)   bands (ev):

    -7.2439  -6.6924  -6.5892  -6.3492  -6.3114  -6.2010  -6.1306  -6.0144
    -5.9734  -5.8954  -5.8721  -5.8230  -5.7476  -5.7033  -5.6728  -5.6100
    -5.5800  -5.5024  -5.3834  -5.2813  -5.2051  -5.1709  -5.1009  -5.0511
    -4.9890  -4.8761  -4.8046  -4.7264  -4.6718  -4.5224  -4.4528  -4.4144
     0.7722   1.1384   1.2270   1.3118   1.4101   1.5047   1.5784   1.6499
     1.7263   1.8177   1.9231   1.9788   2.0186   2.0996   2.1146   2.2250
     2.2626   2.3320   2.3624   2.4103   2.4340   2.5308   2.5783   2.6024
     2.6555   2.7367   2.7737   2.8211   2.8485   2.9103   2.9225   3.0034
     3.0708   3.0870   3.0980   3.1524   3.1823   3.2530   3.2965   3.3062
     3.3550   3.4322   3.4446   3.4894   3.5271   3.5459   3.5934   3.6064
     3.6112   3.6491   3.6805   3.7215   3.7565   3.8007   3.8407   3.8567
     3.8973   3.9766   3.9963   4.0271   4.0853   4.1243   4.2148   4.2430
     4.2750   4.3243   4.3792   4.4707   4.5111   4.5639   4.5990   4.6835
     4.7548   4.8048   4.9030   4.9818   5.0055   5.0678   5.1948   5.2146
     5.2660   5.3565   5.4440   5.4829   5.5750   5.6255   5.6677   5.7258
     5.7580   5.8289   5.9396   5.9687   5.9974   6.0701   6.1169   6.1331
     6.2035   6.3092   6.3613   6.4589   6.5191   6.5569   6.6424   6.6807
     6.7598   6.8965   6.9232   6.9666   7.0283   7.0528   7.0986   7.1514
     7.2555   7.3445   7.4839   7.5440   7.5847   7.6434   7.6881   7.7775
     7.8765   7.9879   8.0481   8.1757   8.3451   8.4323   8.4525   8.5196
     8.5633   8.6148   8.6614   8.7802   8.9059   8.9219   8.9509   9.0249
     9.0781   9.1372   9.1773   9.2325   9.2709

[...]

          k = 0.0000-0.4942-0.5299 ( 32818 PWs)   bands (ev):

[...]

          k =-0.5000-0.0163-0.0026 ( 32822 PWs)   bands (ev):

[...]

          k =-0.5000-0.5106-0.5325 ( 32818 PWs)   bands (ev):

    -6.9913  -6.7586  -6.5698  -6.4745  -6.4682  -6.3418  -6.1949  -6.1494
    -6.0129  -5.8637  -5.8100  -5.7651  -5.7206  -5.7045  -5.6465  -5.5941
    -5.5139  -5.4901  -5.3224  -5.2663  -5.2263  -5.1473  -5.0933  -5.0046
    -4.9397  -4.8751  -4.7777  -4.7475  -4.6720  -4.5446  -4.4804  -4.3497
     1.1285   1.2169   1.3371   1.4899   1.5862   1.6506   1.6914   1.7040
     1.7593   1.7875   1.8786   1.9093   1.9130   1.9698   2.0767   2.0832
     2.1130   2.2088   2.2650   2.2770   2.3228   2.3879   2.3983   2.5331
     2.5766   2.6230   2.6716   2.7312   2.7406   2.8198   2.8331   2.8708
     2.9136   2.9683   3.0734   3.0895   3.1051   3.1488   3.1814   3.2740
     3.3128   3.3830   3.3985   3.4432   3.4829   3.5265   3.5636   3.6389
     3.6542   3.6877   3.7322   3.7462   3.7688   3.7799   3.8407   3.9103
     3.9485   3.9816   4.0261   4.0402   4.1372   4.1887   4.2423   4.3225
     4.3901   4.4648   4.5259   4.5728   4.7308   4.7779   4.8541   4.9335
     4.9516   4.9984   5.0605   5.0730   5.1407   5.1697   5.2456   5.2833
     5.3169   5.4141   5.4603   5.5165   5.5699   5.6110   5.6270   5.7211
     5.7501   5.7909   5.8103   5.9340   6.0702   6.1057   6.1587   6.1889
     6.2223   6.2994   6.3739   6.4269   6.4626   6.4959   6.5557   6.5768
     6.7147   6.7699   6.8002   6.9564   6.9681   7.0251   7.1370   7.1743
     7.2078   7.2520   7.3545   7.3783   7.5140   7.5816   7.6062   7.6912
     7.9162   8.0569   8.0996   8.2083   8.2975   8.3743   8.4815   8.5589
     8.6231   8.7061   8.7477   8.8492   8.8984   8.9984   9.0380   9.0847
     9.1656   9.2180   9.2711   9.2830   9.3542

     the Fermi energy is     7.2141 ev

!    total energy              =   -1126.01807276 Ry
     Harris-Foulkes estimate   =   -1126.01807316 Ry
     estimated scf accuracy    <       0.00000049 Ry

     The total energy is the sum of the following terms:

     one-electron contribution =      38.14129603 Ry
     hartree contribution      =     151.35873600 Ry
     xc contribution           =    -444.95145178 Ry
     ewald contribution        =    -870.56516637 Ry
     smearing contrib. (-TS)   =      -0.00148664 Ry

     convergence has been achieved in  16 iterations

     Forces acting on atoms (cartesian axes, Ry/au):

     atom    1 type  1   force =    -0.05509561   -0.01137989   -0.00512607
     atom    2 type  1   force =     0.00193673    0.04459581    0.01849466
     atom    3 type  1   force =     0.06377600   -0.00769191   -0.03725377
     atom    4 type  1   force =     0.00940574    0.05909293    0.01604969
     atom    5 type  1   force =    -0.00460303   -0.02243694   -0.05686636
     atom    6 type  1   force =    -0.00879132    0.04407805   -0.00667269
     atom    7 type  1   force =    -0.03939092    0.06280667   -0.06292533
     atom    8 type  1   force =     0.03017504    0.04038432   -0.05021042
     atom    9 type  1   force =    -0.00137155   -0.03191329    0.05600065
     atom   10 type  1   force =     0.00489611    0.01196459    0.01628006
     atom   11 type  1   force =     0.01730861   -0.02189246   -0.01105366
     atom   12 type  1   force =    -0.03861942    0.01420979    0.01099264
     atom   13 type  1   force =    -0.01635354    0.00134329   -0.05254108
     atom   14 type  1   force =    -0.03448840    0.02558386    0.02549651
     atom   15 type  1   force =    -0.06071618    0.00754852    0.01272889
     atom   16 type  1   force =     0.00817381   -0.00382646    0.00656126
     atom   17 type  2   force =    -0.03809517   -0.01823907    0.01489697
     atom   18 type  2   force =     0.00698381   -0.01508316    0.01166453
     atom   19 type  2   force =     0.02280569   -0.02399846   -0.02853105
     atom   20 type  2   force =    -0.00816499    0.00093550    0.01754965
     atom   21 type  2   force =    -0.03280083   -0.02494021   -0.02678183
     atom   22 type  2   force =     0.01231116   -0.04040748    0.00024422
     atom   23 type  2   force =     0.00189398   -0.00688912    0.02105899
     atom   24 type  2   force =     0.01019477    0.01331492   -0.02126000
     atom   25 type  2   force =    -0.00807043    0.00238781   -0.01954454
     atom   26 type  2   force =     0.04213820    0.00723821    0.03890488
     atom   27 type  2   force =    -0.04717051    0.03180905   -0.00005875
     atom   28 type  2   force =     0.02118759   -0.00335421   -0.05032310
     atom   29 type  2   force =     0.02804905   -0.00216267   -0.00092391
     atom   30 type  2   force =     0.00910255    0.01672936    0.01336912
     atom   31 type  2   force =     0.00489016   -0.00987489   -0.02726849
     atom   32 type  2   force =     0.03130372    0.00271276    0.01777998
     atom   33 type  2   force =    -0.02295410   -0.01579971   -0.05079750
     atom   34 type  2   force =     0.01302039   -0.02456983    0.00936824
     atom   35 type  2   force =     0.00992255    0.01377727   -0.01964544
     atom   36 type  2   force =     0.01473550   -0.00180792    0.00928156
     atom   37 type  2   force =     0.01743705    0.00659326   -0.00810620
     atom   38 type  2   force =    -0.00438407   -0.03453278   -0.01527070
     atom   39 type  2   force =     0.01551163    0.00224595   -0.00212224
     atom   40 type  2   force =    -0.02436443   -0.01457972    0.00560395
     atom   41 type  2   force =     0.00526654    0.01810012    0.01698561
     atom   42 type  2   force =     0.04934500   -0.04917034    0.10133401
     atom   43 type  2   force =     0.02184591   -0.00631534    0.02221453
     atom   44 type  2   force =    -0.01029829   -0.00333678    0.01017594
     atom   45 type  2   force =     0.00595634   -0.00694280    0.03959481
     atom   46 type  2   force =     0.01070904    0.00051176    0.02766987
     atom   47 type  2   force =    -0.00785473    0.00322946    0.00540002
     atom   48 type  2   force =    -0.02669517   -0.03004786    0.00758189

     Total force =     0.324318     Total SCF correction =     0.001418

     General routines

     Parallel routines

   This run was terminated on:  23:11:48  24Dec2021

   JOB DONE.