     Program PWSCF v.6.4 starts on 25Dec2021 at  0:11:35

     R & G space division:  proc/nbgrp/npool/nimage =      40
     Waiting for input...
     Reading input from standard input
Warning: card    &IONS ignored
Warning: card      ION_DYNAMICS = 'BFGS' ignored
Warning: card   / ignored
Warning: card    &CELL ignored
Warning: card      CELL_DYNAMICS = 'BFGS', ignored
Warning: card    / ignored

     Current dimensions of program PWSCF are:
     Max number of different atomic species (ntypx) = 10
     Max number of k-points (npk) =  40000
     Max angular momentum in pseudopotentials (lmaxx) =  3

     bravais-lattice index     =            0
     lattice parameter (alat)  =      12.1536  a.u.
     unit-cell volume          =    5394.2596 (a.u.)^3
     number of atoms/cell      =           36
     number of atomic types    =            2
     number of electrons       =       216.00
     number of Kohn-Sham states=          130
     kinetic-energy cutoff     =      45.0000  Ry
     charge density cutoff     =     360.0000  Ry
     convergence threshold     =      1.0E-06
     mixing beta               =       0.7000
     number of iterations used =            8  local-TF  mixing
     Exchange-correlation      = SLA PW GGX GGC ( 1  4  2  2 0 0)

     celldm(1)=  12.153560  celldm(2)=   0.000000  celldm(3)=   0.000000
     celldm(4)=   0.000000  celldm(5)=   0.000000  celldm(6)=   0.000000

     crystal axes: (cart. coord. in units of alat)
               a(1) = (   1.000000   0.000000   0.000000 )
               a(2) = (  -0.500000   0.866026   0.000000 )
               a(3) = (   0.000000   0.000000   3.469690 )

     reciprocal axes: (cart. coord. in units 2 pi/alat)
               b(1) = (  1.000000  0.577350  0.000000 )
               b(2) = (  0.000000  1.154700  0.000000 )
               b(3) = (  0.000000  0.000000  0.288210 )

     PseudoPot. # 1 for Mo read from file:
     ~/pseudo/Mo.pw91-n-van.UPF
     MD5 check sum: Not computed, couldn't open file
     Pseudo is Ultrasoft + core correction, Zval =  6.0
     Generated by new atomic code, or converted to UPF format
     Using radial grid of  965 points,  3 beta functions with:
                l(1) =   1
                l(2) =   2
                l(3) =   2
     Q(r) pseudized with  8 coefficients,  rinner =    1.000   1.000   1.000
                                                       1.200   1.200

     PseudoPot. # 2 for S  read from file:
     ~/pseudo/S.pw91-van_ak.UPF
     MD5 check sum: Not computed, couldn't open file
     Pseudo is Ultrasoft, Zval =  6.0
     Generated by new atomic code, or converted to UPF format
     Using radial grid of  811 points,  6 beta functions with:
                l(1) =   0
                l(2) =   0
                l(3) =   1
                l(4) =   1
                l(5) =   2
                l(6) =   2
     Q(r) pseudized with  8 coefficients,  rinner =    1.100   1.100   1.100
                                                       1.100   1.100

     atomic species   valence    mass     pseudopotential
        Mo             6.00    95.50000     Mo( 1.00)
        S              6.00    32.06500     S ( 1.00)

     No symmetry found

   Cartesian axes

     site n.     atom                  positions (alat units)
         1           Mo  tau(   1) = (   0.2791585   0.6921671   1.5988079  )
         2           Mo  tau(   2) = (   0.5692264  -0.0321293   2.9920558  )
         3           Mo  tau(   3) = (   0.3663412   0.6508774   0.3234524  )
         4           Mo  tau(   4) = (   0.5393053   0.2664661   1.6137168  )
         5           Mo  tau(   5) = (   0.8193245   0.4107592   2.9873659  )
         6           Mo  tau(   6) = (   0.6179337   0.2103676   0.3404712  )
         7           Mo  tau(   7) = (   1.0756350  -0.0414601   2.9781156  )
         8           Mo  tau(   8) = (   0.0339303   0.2769553   1.6059783  )
         9           Mo  tau(   9) = (  -0.2099517   0.6872179   1.6023528  )
        10           Mo  tau(  10) = (   0.3154804   0.4098081   2.9711441  )
        11           Mo  tau(  11) = (   0.1144628   0.2155936   0.3388260  )
        12           Mo  tau(  12) = (  -0.1206921   0.6493440   0.3439470  )
        13           S   tau(  13) = (   0.3166405   0.6798454   2.7416328  )
        14           S   tau(  14) = (   0.3230110   0.6827243   3.2339803  )
        15           S   tau(  15) = (   0.3843956   0.0771756   0.0803642  )
        16           S   tau(  16) = (   0.3812524   0.0806652   0.5711050  )
        17           S   tau(  17) = (   0.5465203   0.5644612   1.3589673  )
        18           S   tau(  18) = (   0.5313874   0.5486270   1.8542776  )
        19           S   tau(  19) = (   0.5746926   0.2641049   2.7269244  )
        20           S   tau(  20) = (   0.5685989   0.2572410   3.2127384  )
        21           S   tau(  21) = (   0.6142859   0.5003145   0.0908281  )
        22           S   tau(  22) = (   0.6299458   0.4993569   0.5875115  )
        23           S   tau(  23) = (   0.7919747   0.1168974   1.3449169  )
        24           S   tau(  24) = (   0.7942556   0.1176829   1.8570778  )
        25           S   tau(  25) = (   0.8792039   0.0746854   0.0982303  )
        26           S   tau(  26) = (   0.8738830   0.0739586   0.5654376  )
        27           S   tau(  27) = (   0.0692520   0.2535812   2.7461490  )
        28           S   tau(  28) = (   0.0718183   0.2630813   3.2350630  )
        29           S   tau(  29) = (  -0.1848205   0.6787364   2.7393459  )
        30           S   tau(  30) = (  -0.1805903   0.7014625   3.2290305  )
        31           S   tau(  31) = (   0.1209003   0.4955905   0.0800195  )
        32           S   tau(  32) = (   0.1204862   0.5122081   0.5684776  )
        33           S   tau(  33) = (   0.2889286   0.1222986   1.3681644  )
        34           S   tau(  34) = (   0.2975810   0.1218101   1.8556809  )
        35           S   tau(  35) = (   0.0407330   0.5612470   1.3664422  )
        36           S   tau(  36) = (   0.0296291   0.5540779   1.8550900  )

     number of k points=     5  Marzari-Vanderbilt smearing, width (Ry)=  0.0200
                       cart. coord. in units 2pi/alat
        k(    1) = (   0.0000000   0.0000000   0.0000000), wk =   0.2222222
        k(    2) = (   0.0000000   0.3849001   0.0000000), wk =   0.4444444
        k(    3) = (   0.3333333   0.5773502   0.0000000), wk =   0.4444444
        k(    4) = (  -0.3333333   0.1924501   0.0000000), wk =   0.4444444
        k(    5) = (   0.3333333   0.1924501   0.0000000), wk =   0.4444444

     Initial potential from superposition of free atoms

     starting charge  215.98107, renormalised to  216.00000
     Starting wfcs are  204 randomized atomic wfcs

     Self-consistent Calculation

     iteration #  1     ecut=    45.00 Ry     beta= 0.70
     Davidson diagonalization with overlap
     ethr =  1.00E-02,  avg # of iterations =  2.0

     total energy              =    -843.98172970 Ry
     Harris-Foulkes estimate   =    -846.46142058 Ry
     estimated scf accuracy    <       6.31114674 Ry

[...]

     iteration # 15     ecut=    45.00 Ry     beta= 0.70
     Davidson diagonalization with overlap
     c_bands:  1 eigenvalues not converged
     ethr =  7.81E-09,  avg # of iterations =  5.8

[...]

     End of self-consistent calculation

          k = 0.0000 0.0000 0.0000 ( 27457 PWs)   bands (ev):

    -9.5435  -8.5279  -8.4227  -7.9332  -7.7972  -7.4333  -7.2794  -7.2362
    -7.1727  -7.0104  -7.0049  -6.9553  -6.8895  -6.8484  -6.8158  -6.6971
    -6.6438  -6.6212  -6.5984  -6.5377  -6.5067  -6.3528  -6.3407  -6.2496
    -1.0134  -0.9643  -0.9349  -0.8987  -0.7143  -0.6397  -0.3614  -0.0927
    -0.0655  -0.0111   0.0284   0.1255   0.2033   0.3817   0.4414   0.4864
     0.5335   0.7325   0.7910   0.8386   0.9766   1.0701   1.2285   1.4619
     1.4961   1.5002   1.5886   1.6286   1.6846   1.8039   1.8584   1.9351
     2.0517   2.1425   2.2032   2.3037   2.3570   2.4247   2.5869   2.6400
     2.6581   2.7358   2.8322   2.8464   2.9293   3.0350   3.0628   3.3649
     3.4304   3.4650   3.4878   3.6477   3.6982   3.7081   3.7305   3.8325
     3.8545   3.8704   3.8930   4.0289   4.0867   4.1057   4.1577   4.2436
     4.2668   4.4182   4.4420   4.5331   4.6282   4.6469   4.7050   4.7667
     4.7702   4.7917   4.8361   4.8448   4.8856   4.9715   4.9781   5.0467
     5.1271   5.3698   5.5224   6.6586   7.1048   7.2261   7.2702   7.2912
     7.3521   7.3833   7.4402   7.4924   7.5230   7.6165   7.6941   7.7747
     7.8461   7.8711   7.9099   7.9260   7.9793   8.0263   8.0490   8.0634
     8.0785   8.1423

[...]

          k =-0.3333 0.1925 0.0000 ( 27482 PWs)   bands (ev):

[...]

     the Fermi energy is     6.6486 ev

!    total energy              =    -845.21174193 Ry
     Harris-Foulkes estimate   =    -845.21174220 Ry
     estimated scf accuracy    <       0.00000030 Ry

     The total energy is the sum of the following terms:

     one-electron contribution =    -858.32911467 Ry
     hartree contribution      =     545.27719676 Ry
     xc contribution           =    -334.88470631 Ry
     ewald contribution        =    -197.27159351 Ry
     smearing contrib. (-TS)   =      -0.00352420 Ry

     convergence has been achieved in  17 iterations

     Forces acting on atoms (cartesian axes, Ry/au):

     atom    1 type  1   force =     0.07016615    0.05718157    0.06565609
     atom    2 type  1   force =     0.01583444   -0.00767241   -0.08947178
     atom    3 type  1   force =     0.03503420   -0.03378169    0.06326788
     atom    4 type  1   force =     0.02755719   -0.01408273   -0.05282725
     atom    5 type  1   force =     0.01676782   -0.05464447   -0.01473396
     atom    6 type  1   force =     0.04834854    0.06964880   -0.06826400
     atom    7 type  1   force =    -0.04921318    0.04827845    0.03891215
     atom    8 type  1   force =     0.02052127   -0.08339316    0.01051129
     atom    9 type  1   force =    -0.02662282    0.08607513    0.06355877
     atom   10 type  1   force =     0.02938359   -0.08105267    0.07811216
     atom   11 type  1   force =     0.09178325    0.02377320   -0.04862811
     atom   12 type  1   force =    -0.06611910    0.01587085   -0.09176676
     atom   13 type  2   force =    -0.00330954    0.06550477   -0.04642087
     atom   14 type  2   force =     0.00508238    0.01591279   -0.06908322
     atom   15 type  2   force =    -0.03835634   -0.01337228    0.08504971
     atom   16 type  2   force =    -0.05428970   -0.03216517    0.07024929
     atom   17 type  2   force =    -0.03250490   -0.04487025   -0.00787167
     atom   18 type  2   force =     0.00384073    0.01807989   -0.01136254
     atom   19 type  2   force =    -0.00564223   -0.01790434    0.03178930
     atom   20 type  2   force =    -0.00623447    0.02145730   -0.00193631
     atom   21 type  2   force =     0.02944351    0.01265048    0.05334813
     atom   22 type  2   force =    -0.02546605    0.01944266   -0.02013963
     atom   23 type  2   force =    -0.01340828    0.01735839    0.05136744
     atom   24 type  2   force =    -0.01153061   -0.00076110   -0.03244824
     atom   25 type  2   force =    -0.04057894    0.00424790   -0.01303284
     atom   26 type  2   force =    -0.01469259   -0.03400500    0.08091955
     atom   27 type  2   force =    -0.01717324   -0.00083138   -0.03208183
     atom   28 type  2   force =     0.00049442   -0.02777738   -0.09274323
     atom   29 type  2   force =     0.03298440    0.03502099   -0.02741915
     atom   30 type  2   force =     0.00091449   -0.03604757   -0.02321351
     atom   31 type  2   force =    -0.01665915    0.03192433    0.07379247
     atom   32 type  2   force =     0.03228424   -0.02401822    0.06399224
     atom   33 type  2   force =    -0.00077933    0.00415233   -0.00193581
     atom   34 type  2   force =    -0.03357728   -0.01105797   -0.01994444
     atom   35 type  2   force =    -0.02245379   -0.03168333   -0.07166119
     atom   36 type  2   force =     0.01817095    0.00254133    0.00645985

     Total force =     0.448340     Total SCF correction =     0.001213

     General routines

     Parallel routines

   This run was terminated on:   0:13:29  25Dec2021

   JOB DONE.

     Program PWSCF v.6.4 starts on 25Dec2021 at  0:15: 1

     R & G space division:  proc/nbgrp/npool/nimage =      40
     Waiting for input...
     Reading input from standard input
Warning: card    &IONS ignored
Warning: card      ION_DYNAMICS = 'BFGS' ignored
Warning: card   / ignored
Warning: card    &CELL ignored
Warning: card      CELL_DYNAMICS = 'BFGS', ignored
Warning: card    / ignored

     Current dimensions of program PWSCF are:
     Max number of different atomic species (ntypx) = 10
     Max number of k-points (npk) =  40000
     Max angular momentum in pseudopotentials (lmaxx) =  3

     bravais-lattice index     =            0
     lattice parameter (alat)  =      12.1536  a.u.
     unit-cell volume          =    5394.2596 (a.u.)^3
     number of atoms/cell      =           36
     number of atomic types    =            2
     number of electrons       =       216.00
     number of Kohn-Sham states=          130
     kinetic-energy cutoff     =      45.0000  Ry
     charge density cutoff     =     360.0000  Ry
     convergence threshold     =      1.0E-06
     mixing beta               =       0.7000
     number of iterations used =            8  local-TF  mixing
     Exchange-correlation      = SLA PW GGX GGC ( 1  4  2  2 0 0)

     celldm(1)=  12.153560  celldm(2)=   0.000000  celldm(3)=   0.000000
     celldm(4)=   0.000000  celldm(5)=   0.000000  celldm(6)=   0.000000

     crystal axes: (cart. coord. in units of alat)
               a(1) = (   1.000000   0.000000   0.000000 )
               a(2) = (  -0.500000   0.866026   0.000000 )
               a(3) = (   0.000000   0.000000   3.469690 )

     reciprocal axes: (cart. coord. in units 2 pi/alat)
               b(1) = (  1.000000  0.577350  0.000000 )
               b(2) = (  0.000000  1.154700  0.000000 )
               b(3) = (  0.000000  0.000000  0.288210 )

     PseudoPot. # 1 for Mo read from file:
     ~/pseudo/Mo.pw91-n-van.UPF
     MD5 check sum: Not computed, couldn't open file
     Pseudo is Ultrasoft + core correction, Zval =  6.0
     Generated by new atomic code, or converted to UPF format
     Using radial grid of  965 points,  3 beta functions with:
                l(1) =   1
                l(2) =   2
                l(3) =   2
     Q(r) pseudized with  8 coefficients,  rinner =    1.000   1.000   1.000
                                                       1.200   1.200

     PseudoPot. # 2 for S  read from file:
     ~/pseudo/S.pw91-van_ak.UPF
     MD5 check sum: Not computed, couldn't open file
     Pseudo is Ultrasoft, Zval =  6.0
     Generated by new atomic code, or converted to UPF format
     Using radial grid of  811 points,  6 beta functions with:
                l(1) =   0
                l(2) =   0
                l(3) =   1
                l(4) =   1
                l(5) =   2
                l(6) =   2
     Q(r) pseudized with  8 coefficients,  rinner =    1.100   1.100   1.100
                                                       1.100   1.100

     atomic species   valence    mass     pseudopotential
        Mo             6.00    95.50000     Mo( 1.00)
        S              6.00    32.06500     S ( 1.00)

     No symmetry found

   Cartesian axes

     site n.     atom                  positions (alat units)
         1           Mo  tau(   1) = (   0.2791585   0.6921671   1.5988079  )
         2           Mo  tau(   2) = (   0.5692264  -0.0321293   2.9920558  )
         3           Mo  tau(   3) = (   0.3663412   0.6508774   0.3234524  )
         4           Mo  tau(   4) = (   0.5393053   0.2664661   1.6137168  )
         5           Mo  tau(   5) = (   0.8193245   0.4107592   2.9873659  )
         6           Mo  tau(   6) = (   0.6179337   0.2103676   0.3404712  )
         7           Mo  tau(   7) = (   1.0756350  -0.0414601   2.9781156  )
         8           Mo  tau(   8) = (   0.0339303   0.2769553   1.6059783  )
         9           Mo  tau(   9) = (  -0.2099517   0.6872179   1.6023528  )
        10           Mo  tau(  10) = (   0.3154804   0.4098081   2.9711441  )
        11           Mo  tau(  11) = (   0.1144628   0.2155936   0.3388260  )
        12           Mo  tau(  12) = (  -0.1206921   0.6493440   0.3439470  )
        13           S   tau(  13) = (   0.3166405   0.6798454   2.7416328  )
        14           S   tau(  14) = (   0.3230110   0.6827243   3.2339803  )
        15           S   tau(  15) = (   0.3843956   0.0771756   0.0803642  )
        16           S   tau(  16) = (   0.3812524   0.0806652   0.5711050  )
        17           S   tau(  17) = (   0.5465203   0.5644612   1.3589673  )
        18           S   tau(  18) = (   0.5313874   0.5486270   1.8542776  )
        19           S   tau(  19) = (   0.5746926   0.2641049   2.7269244  )
        20           S   tau(  20) = (   0.5685989   0.2572410   3.2127384  )
        21           S   tau(  21) = (   0.6142859   0.5003145   0.0908281  )
        22           S   tau(  22) = (   0.6299458   0.4993569   0.5875115  )
        23           S   tau(  23) = (   0.7919747   0.1168974   1.3449169  )
        24           S   tau(  24) = (   0.7942556   0.1176829   1.8570778  )
        25           S   tau(  25) = (   0.8792039   0.0746854   0.0982303  )
        26           S   tau(  26) = (   0.8738830   0.0739586   0.5654376  )
        27           S   tau(  27) = (   0.0692520   0.2535812   2.7461490  )
        28           S   tau(  28) = (   0.0718183   0.2630813   3.2350630  )
        29           S   tau(  29) = (  -0.1848205   0.6787364   2.7393459  )
        30           S   tau(  30) = (  -0.1805903   0.7014625   3.2290305  )
        31           S   tau(  31) = (   0.1209003   0.4955905   0.0800195  )
        32           S   tau(  32) = (   0.1204862   0.5122081   0.5684776  )
        33           S   tau(  33) = (   0.2889286   0.1222986   1.3681644  )
        34           S   tau(  34) = (   0.2975810   0.1218101   1.8556809  )
        35           S   tau(  35) = (   0.0407330   0.5612470   1.3664422  )
        36           S   tau(  36) = (   0.0296291   0.5540779   1.8550900  )

     number of k points=     5  Marzari-Vanderbilt smearing, width (Ry)=  0.0200
                       cart. coord. in units 2pi/alat
        k(    1) = (   0.0000000   0.0000000   0.0000000), wk =   0.2222222
        k(    2) = (   0.0000000   0.3849001   0.0000000), wk =   0.4444444
        k(    3) = (   0.3333333   0.5773502   0.0000000), wk =   0.4444444
        k(    4) = (  -0.3333333   0.1924501   0.0000000), wk =   0.4444444
        k(    5) = (   0.3333333   0.1924501   0.0000000), wk =   0.4444444

     Initial potential from superposition of free atoms

     starting charge  215.98107, renormalised to  216.00000
     Starting wfcs are  204 randomized atomic wfcs

     Self-consistent Calculation

[...]

     iteration # 15     ecut=    45.00 Ry     beta= 0.70
     Davidson diagonalization with overlap
     c_bands:  1 eigenvalues not converged
     ethr =  7.81E-09,  avg # of iterations =  5.8

[...]

     total energy              =    -845.21174203 Ry
     Harris-Foulkes estimate   =    -845.21174249 Ry
     estimated scf accuracy    <       0.00000203 Ry

     iteration # 17     ecut=    45.00 Ry     beta= 0.70
     Davidson diagonalization with overlap
     ethr =  9.42E-10,  avg # of iterations =  2.0

     End of self-consistent calculation

[...]

          k =-0.3333 0.1925 0.0000 ( 27482 PWs)   bands (ev):

[...]

          k = 0.3333 0.1925 0.0000 ( 27482 PWs)   bands (ev):

    -9.1736  -8.2422  -8.1525  -8.0670  -7.7875  -7.6800  -7.5571  -7.3557
    -7.2226  -7.1576  -7.0942  -7.0158  -6.9035  -6.8760  -6.8161  -6.7822
    -6.7013  -6.6752  -6.6417  -6.5658  -6.5351  -6.3857  -6.3814  -6.2874
    -0.6836  -0.5860  -0.5169  -0.4724  -0.2522   0.0064   0.0244   0.2079
     0.2982   0.3261   0.3519   0.4641   0.5267   0.5545   0.6009   0.7520
     0.7601   0.7704   0.7992   0.8741   1.0123   1.3278   1.4638   1.4899
     1.6010   1.6833   1.7121   1.7746   1.8300   1.8467   1.8904   1.9259
     1.9906   2.0597   2.1319   2.2357   2.2927   2.3205   2.3823   2.3942
     2.4779   2.4997   2.6216   2.7401   2.7833   2.8489   2.8704   2.9750
     3.0927   3.1592   3.1706   3.2308   3.2982   3.3018   3.3616   3.4881
     3.5218   3.6033   3.6606   3.7212   3.7732   3.8472   3.8917   3.9034
     3.9833   4.0353   4.1193   4.1856   4.2773   4.3173   4.3985   4.4160
     4.5519   4.5769   4.7575   4.8150   4.8944   4.9712   5.0476   5.1050
     5.1257   5.1426   5.2664   5.2919   7.0908   7.2000   7.2654   7.3689
     7.3894   7.4031   7.4355   7.5130   7.5401   7.5886   7.6194   7.6485
     7.7018   7.7253   7.8293   7.8359   7.8730   7.9205   7.9263   7.9940
     8.0668   8.0992

     the Fermi energy is     6.6486 ev

!    total energy              =    -845.21174193 Ry
     Harris-Foulkes estimate   =    -845.21174220 Ry
     estimated scf accuracy    <       0.00000030 Ry

     The total energy is the sum of the following terms:

     one-electron contribution =    -858.32911467 Ry
     hartree contribution      =     545.27719676 Ry
     xc contribution           =    -334.88470631 Ry
     ewald contribution        =    -197.27159351 Ry
     smearing contrib. (-TS)   =      -0.00352420 Ry

     convergence has been achieved in  17 iterations

     Forces acting on atoms (cartesian axes, Ry/au):

     atom    1 type  1   force =     0.07016615    0.05718157    0.06565609
     atom    2 type  1   force =     0.01583444   -0.00767241   -0.08947178
     atom    3 type  1   force =     0.03503420   -0.03378169    0.06326788
     atom    4 type  1   force =     0.02755719   -0.01408273   -0.05282725
     atom    5 type  1   force =     0.01676782   -0.05464447   -0.01473396
     atom    6 type  1   force =     0.04834854    0.06964880   -0.06826400
     atom    7 type  1   force =    -0.04921318    0.04827845    0.03891215
     atom    8 type  1   force =     0.02052127   -0.08339316    0.01051129
     atom    9 type  1   force =    -0.02662282    0.08607513    0.06355877
     atom   10 type  1   force =     0.02938359   -0.08105267    0.07811216
     atom   11 type  1   force =     0.09178325    0.02377320   -0.04862811
     atom   12 type  1   force =    -0.06611910    0.01587085   -0.09176676
     atom   13 type  2   force =    -0.00330954    0.06550477   -0.04642087
     atom   14 type  2   force =     0.00508238    0.01591279   -0.06908322
     atom   15 type  2   force =    -0.03835634   -0.01337228    0.08504971
     atom   16 type  2   force =    -0.05428970   -0.03216517    0.07024929
     atom   17 type  2   force =    -0.03250490   -0.04487025   -0.00787167
     atom   18 type  2   force =     0.00384073    0.01807989   -0.01136254
     atom   19 type  2   force =    -0.00564223   -0.01790434    0.03178930
     atom   20 type  2   force =    -0.00623447    0.02145730   -0.00193631
     atom   21 type  2   force =     0.02944351    0.01265048    0.05334813
     atom   22 type  2   force =    -0.02546605    0.01944266   -0.02013963
     atom   23 type  2   force =    -0.01340828    0.01735839    0.05136744
     atom   24 type  2   force =    -0.01153061   -0.00076110   -0.03244824
     atom   25 type  2   force =    -0.04057894    0.00424790   -0.01303284
     atom   26 type  2   force =    -0.01469259   -0.03400500    0.08091955
     atom   27 type  2   force =    -0.01717324   -0.00083138   -0.03208183
     atom   28 type  2   force =     0.00049442   -0.02777738   -0.09274323
     atom   29 type  2   force =     0.03298440    0.03502099   -0.02741915
     atom   30 type  2   force =     0.00091449   -0.03604757   -0.02321351
     atom   31 type  2   force =    -0.01665915    0.03192433    0.07379247
     atom   32 type  2   force =     0.03228424   -0.02401822    0.06399224
     atom   33 type  2   force =    -0.00077933    0.00415233   -0.00193581
     atom   34 type  2   force =    -0.03357728   -0.01105797   -0.01994444
     atom   35 type  2   force =    -0.02245379   -0.03168333   -0.07166119
     atom   36 type  2   force =     0.01817095    0.00254133    0.00645985

     Total force =     0.448340     Total SCF correction =     0.001213

     General routines

     Parallel routines

   This run was terminated on:   0:16:52  25Dec2021

   JOB DONE.