     Program PWSCF v.6.4 starts on 23Dec2021 at 22: 8: 8

     R & G space division:  proc/nbgrp/npool/nimage =      40
     Waiting for input...
     Reading input from standard input
Warning: card    &IONS ignored
Warning: card      ION_DYNAMICS = 'BFGS' ignored
Warning: card   / ignored
Warning: card    &CELL ignored
Warning: card      CELL_DYNAMICS = 'BFGS', ignored
Warning: card    / ignored

     Current dimensions of program PWSCF are:
     Max number of different atomic species (ntypx) = 10
     Max number of k-points (npk) =  40000
     Max angular momentum in pseudopotentials (lmaxx) =  3

     bravais-lattice index     =            0
     lattice parameter (alat)  =      17.6755  a.u.
     unit-cell volume          =    5042.2855 (a.u.)^3
     number of atoms/cell      =           33
     number of atomic types    =            2
     number of electrons       =       198.00
     number of Kohn-Sham states=          119
     kinetic-energy cutoff     =      45.0000  Ry
     charge density cutoff     =     360.0000  Ry
     convergence threshold     =      1.0E-06
     mixing beta               =       0.7000
     number of iterations used =            8  local-TF  mixing
     Exchange-correlation      = SLA PW GGX GGC ( 1  4  2  2 0 0)

     celldm(1)=  17.675494  celldm(2)=   0.000000  celldm(3)=   0.000000
     celldm(4)=   0.000000  celldm(5)=   0.000000  celldm(6)=   0.000000

     crystal axes: (cart. coord. in units of alat)
               a(1) = (   1.000000   0.000000   0.000000 )
               a(2) = (   0.401296   0.970837   0.000000 )
               a(3) = (   0.060028   0.504977   0.940517 )

     reciprocal axes: (cart. coord. in units 2 pi/alat)
               b(1) = (  1.000000 -0.413350  0.158109 )
               b(2) = (  0.000000  1.030039 -0.553042 )
               b(3) = (  0.000000  0.000000  1.063245 )

     PseudoPot. # 1 for Mo read from file:
     ~/pseudo/Mo.pw91-n-van.UPF
     MD5 check sum: Not computed, couldn't open file
     Pseudo is Ultrasoft + core correction, Zval =  6.0
     Generated by new atomic code, or converted to UPF format
     Using radial grid of  965 points,  3 beta functions with:
                l(1) =   1
                l(2) =   2
                l(3) =   2
     Q(r) pseudized with  8 coefficients,  rinner =    1.000   1.000   1.000
                                                       1.200   1.200

     PseudoPot. # 2 for S  read from file:
     ~/pseudo/S.pw91-van_ak.UPF
     MD5 check sum: Not computed, couldn't open file
     Pseudo is Ultrasoft, Zval =  6.0
     Generated by new atomic code, or converted to UPF format
     Using radial grid of  811 points,  6 beta functions with:
                l(1) =   0
                l(2) =   0
                l(3) =   1
                l(4) =   1
                l(5) =   2
                l(6) =   2
     Q(r) pseudized with  8 coefficients,  rinner =    1.100   1.100   1.100
                                                       1.100   1.100

     atomic species   valence    mass     pseudopotential
        Mo             6.00    95.50000     Mo( 1.00)
        S              6.00    32.06500     S ( 1.00)

     No symmetry found

   Cartesian axes

     site n.     atom                  positions (alat units)
         1           Mo  tau(   1) = (   1.0033220   0.7490691   0.5410342  )
         2           Mo  tau(   2) = (   1.1678437   1.2165829   0.8125388  )
         3           Mo  tau(   3) = (   0.3202726   0.7980989   0.9356358  )
         4           Mo  tau(   4) = (   0.3105965   0.7744101   0.4534249  )
         5           Mo  tau(   5) = (   0.9065529   0.5652472   0.8045049  )
         6           Mo  tau(   6) = (   0.4981191   0.3694779   0.1892128  )
         7           Mo  tau(   7) = (   1.0900802   0.8945345   0.2705312  )
         8           Mo  tau(   8) = (   1.1260997   1.0436392   0.5340253  )
         9           Mo  tau(   9) = (   0.8260722   1.0360256   0.1360929  )
        10           Mo  tau(  10) = (   0.8417122   0.4026284   0.5457223  )
        11           Mo  tau(  11) = (   0.5970956   0.7128753   0.8386535  )
        12           S   tau(  12) = (   0.6221875   0.3019396   0.4317977  )
        13           S   tau(  13) = (   0.8913781   0.9622362   0.4192488  )
        14           S   tau(  14) = (   1.1424668   0.5216284   0.0391677  )
        15           S   tau(  15) = (   0.9534003   1.1139985   0.7247465  )
        16           S   tau(  16) = (   0.8963548   0.7884938   0.1160304  )
        17           S   tau(  17) = (   0.5309490   0.7699676   0.5882965  )
        18           S   tau(  18) = (   0.2894097   0.2500641   0.2494176  )
        19           S   tau(  19) = (   0.4499256   0.6190259   0.2737738  )
        20           S   tau(  20) = (   0.8352445   0.8007298   0.7517522  )
        21           S   tau(  21) = (   0.6554566   0.1699964   0.1379717  )
        22           S   tau(  22) = (   0.6753454   0.4731263   0.7265284  )
        23           S   tau(  23) = (   0.7911836   0.6378249   0.4276026  )
        24           S   tau(  24) = (   0.5308897   0.9578680   0.8942573  )
        25           S   tau(  25) = (   1.0185375   0.1771180   0.0172658  )
        26           S   tau(  26) = (   0.3781674   0.5607667   0.8472458  )
        27           S   tau(  27) = (   1.1269836   0.6475856   0.3366606  )
        28           S   tau(  28) = (   1.3134833   0.9955301   0.3483576  )
        29           S   tau(  29) = (   1.2404604   0.8496674   0.0457872  )
        30           S   tau(  30) = (   1.2073774   0.8361694   0.6792781  )
        31           S   tau(  31) = (   1.3379427   1.1564334   0.6464367  )
        32           S   tau(  32) = (   1.0671481   0.5042079   0.6283987  )
        33           S   tau(  33) = (   0.9029229   0.3836074   0.2941799  )

     number of k points=     8  Marzari-Vanderbilt smearing, width (Ry)=  0.0200
                       cart. coord. in units 2pi/alat
        k(    1) = (   0.0000000   0.0000000   0.0000000), wk =   0.2500000
        k(    2) = (   0.0000000   0.0000000  -0.5316226), wk =   0.2500000
        k(    3) = (   0.0000000  -0.5150196   0.2765212), wk =   0.2500000
        k(    4) = (   0.0000000  -0.5150196  -0.2551014), wk =   0.2500000
        k(    5) = (  -0.5000000   0.2066752  -0.0790544), wk =   0.2500000
        k(    6) = (  -0.5000000   0.2066752  -0.6106770), wk =   0.2500000
        k(    7) = (  -0.5000000  -0.3083444   0.1974668), wk =   0.2500000
        k(    8) = (  -0.5000000  -0.3083444  -0.3341558), wk =   0.2500000

     Initial potential from superposition of free atoms

     starting charge  197.98265, renormalised to  198.00000
     Starting wfcs are  187 randomized atomic wfcs

     Self-consistent Calculation

     iteration #  1     ecut=    45.00 Ry     beta= 0.70
     Davidson diagonalization with overlap
     ethr =  1.00E-02,  avg # of iterations =  2.0

     total energy              =    -772.25704937 Ry
     Harris-Foulkes estimate   =    -775.39155422 Ry
     estimated scf accuracy    <       8.71708241 Ry

[...]

     total energy              =    -773.99099017 Ry
     Harris-Foulkes estimate   =    -773.99099054 Ry
     estimated scf accuracy    <       0.00000127 Ry

     iteration # 13     ecut=    45.00 Ry     beta= 0.70
     Davidson diagonalization with overlap
     ethr =  6.41E-10,  avg # of iterations =  3.6

     End of self-consistent calculation

          k = 0.0000 0.0000 0.0000 ( 25691 PWs)   bands (ev):

    -8.6250  -8.0396  -7.8792  -7.7277  -7.6744  -7.6326  -7.5043  -7.4142
    -7.2934  -7.2772  -7.1904  -7.1581  -7.0721  -6.8764  -6.7468  -6.4608
    -6.3944  -6.2719  -6.1456  -6.0412  -5.9548  -5.6617  -0.2228  -0.1853
    -0.0515   0.0452   0.1011   0.2364   0.3311   0.3567   0.4612   0.4791
     0.5564   0.7107   0.7507   0.7712   0.9141   0.9907   1.0346   1.0964
     1.2084   1.3063   1.3612   1.3699   1.4043   1.4293   1.4682   1.6345
     1.6911   1.7457   1.8451   1.8570   1.9466   1.9860   2.0549   2.0991
     2.2057   2.2505   2.2905   2.3282   2.3555   2.4592   2.5568   2.5772
     2.6384   2.7394   2.7914   2.8600   2.9432   3.0750   3.1966   3.2430
     3.3325   3.5044   3.6241   3.7384   3.7592   3.8736   3.9268   4.0754
     4.1056   4.2160   4.2229   4.3075   4.3441   4.5302   4.6325   4.6399
     4.6904   4.8301   4.9181   4.9598   5.0802   5.1856   5.2668   5.3097
     5.4535   5.5212   5.6490   5.6960   5.8044   5.9091   5.9517   6.2116
     6.2949   6.4206   6.5438   6.7644   6.7977   6.8638   6.9251   6.9699
     7.0772   7.2010   7.2989   7.4156   7.4711   7.5025   7.6621

[...]

          k = 0.0000-0.5150-0.2551 ( 25690 PWs)   bands (ev):

[...]

          k =-0.5000 0.2067-0.0791 ( 25698 PWs)   bands (ev):

[...]

          k =-0.5000-0.3083-0.3342 ( 25708 PWs)   bands (ev):

    -8.4166  -8.1786  -8.0682  -7.7788  -7.7265  -7.6259  -7.4611  -7.3782
    -7.3239  -7.2386  -7.1954  -7.1443  -7.0314  -6.9536  -6.6306  -6.4452
    -6.2822  -6.2695  -6.1856  -6.0261  -5.9359  -5.6914  -0.4822  -0.2829
    -0.1760  -0.1550   0.0377   0.1203   0.2466   0.4284   0.5188   0.5557
     0.6456   0.8112   0.8415   0.8793   0.9382   0.9733   1.0750   1.1555
     1.2192   1.2550   1.3392   1.3582   1.4493   1.4827   1.5788   1.5957
     1.6441   1.8374   1.9189   1.9446   1.9754   2.0466   2.0832   2.1061
     2.2041   2.2126   2.3023   2.3795   2.4427   2.5201   2.5662   2.6438
     2.7121   2.8280   2.8944   2.9379   3.0894   3.1267   3.1934   3.2577
     3.3300   3.4501   3.5290   3.6407   3.6934   3.7774   3.8160   3.9339
     3.9882   4.0187   4.1469   4.1837   4.2225   4.4643   4.5084   4.6454
     4.7011   4.7328   4.9548   5.1418   5.1757   5.2254   5.2875   5.3493
     5.5256   5.5632   5.5860   5.7606   5.8124   5.9372   6.0726   6.1784
     6.3343   6.3959   6.5513   6.7484   6.8257   6.8983   6.9376   7.0230
     7.1431   7.2263   7.2845   7.3205   7.4071   7.5237   7.5551

     the Fermi energy is     5.6942 ev

!    total energy              =    -773.99098991 Ry
     Harris-Foulkes estimate   =    -773.99099055 Ry
     estimated scf accuracy    <       0.00000072 Ry

     The total energy is the sum of the following terms:

     one-electron contribution =    -152.67508902 Ry
     hartree contribution      =     182.05402044 Ry
     xc contribution           =    -305.30281659 Ry
     ewald contribution        =    -498.06496155 Ry
     smearing contrib. (-TS)   =      -0.00214320 Ry

     convergence has been achieved in  13 iterations

     Forces acting on atoms (cartesian axes, Ry/au):

     atom    1 type  1   force =    -0.02146218    0.02190057   -0.04237642
     atom    2 type  1   force =    -0.06015456   -0.02070877    0.01496497
     atom    3 type  1   force =     0.00040973    0.00619933    0.01501701
     atom    4 type  1   force =     0.03694400   -0.02718285    0.00055554
     atom    5 type  1   force =     0.03576042    0.02424200    0.04352660
     atom    6 type  1   force =     0.00467087    0.01032173    0.02895578
     atom    7 type  1   force =    -0.01655848   -0.01690014   -0.01276232
     atom    8 type  1   force =    -0.02645709    0.00006729   -0.00664789
     atom    9 type  1   force =     0.02762689   -0.02405069    0.01026479
     atom   10 type  1   force =    -0.04515453   -0.00403826   -0.00128691
     atom   11 type  1   force =    -0.03465648   -0.01493039   -0.01851726
     atom   12 type  2   force =    -0.00129498    0.01671320    0.00461948
     atom   13 type  2   force =     0.03442246   -0.00385742    0.01499286
     atom   14 type  2   force =    -0.00285427    0.00279905   -0.01314356
     atom   15 type  2   force =     0.03080534    0.01203985   -0.00071347
     atom   16 type  2   force =     0.00264562    0.02017291   -0.00700143
     atom   17 type  2   force =     0.00762382   -0.01022556   -0.01132951
     atom   18 type  2   force =    -0.03103578    0.00967110    0.00465509
     atom   19 type  2   force =     0.00461111   -0.03114852    0.00932226
     atom   20 type  2   force =     0.00497082    0.00292272   -0.00732396
     atom   21 type  2   force =     0.00274519   -0.00780196   -0.02782769
     atom   22 type  2   force =    -0.00888922    0.00806720   -0.00617565
     atom   23 type  2   force =     0.00591601   -0.02383244    0.00363413
     atom   24 type  2   force =    -0.01211241   -0.01354351   -0.01611132
     atom   25 type  2   force =    -0.00546662   -0.00677338    0.00562981
     atom   26 type  2   force =     0.02633242    0.02948348    0.00211075
     atom   27 type  2   force =    -0.01103063    0.01056284   -0.00326791
     atom   28 type  2   force =     0.00038500    0.02349624   -0.00676125
     atom   29 type  2   force =     0.00025709   -0.00082570    0.01613528
     atom   30 type  2   force =    -0.00261345   -0.00351390    0.00717049
     atom   31 type  2   force =     0.04011741   -0.01812490   -0.00755981
     atom   32 type  2   force =     0.01913711    0.00176181   -0.00583499
     atom   33 type  2   force =    -0.00564063    0.02703703    0.01308649

     Total force =     0.187778     Total SCF correction =     0.001183

     General routines

     Parallel routines

   This run was terminated on:  22:10: 9  23Dec2021

   JOB DONE.