     Program PWSCF v.6.4 starts on 23Dec2021 at 22:31:34

     R & G space division:  proc/nbgrp/npool/nimage =      40
     Waiting for input...
     Reading input from standard input
Warning: card    &IONS ignored
Warning: card      ION_DYNAMICS = 'BFGS' ignored
Warning: card   / ignored
Warning: card    &CELL ignored
Warning: card      CELL_DYNAMICS = 'BFGS', ignored
Warning: card    / ignored

     Current dimensions of program PWSCF are:
     Max number of different atomic species (ntypx) = 10
     Max number of k-points (npk) =  40000
     Max angular momentum in pseudopotentials (lmaxx) =  3

     bravais-lattice index     =            0
     lattice parameter (alat)  =      13.0829  a.u.
     unit-cell volume          =    6101.4262 (a.u.)^3
     number of atoms/cell      =           36
     number of atomic types    =            2
     number of electrons       =       216.00
     number of Kohn-Sham states=          130
     kinetic-energy cutoff     =      45.0000  Ry
     charge density cutoff     =     360.0000  Ry
     convergence threshold     =      1.0E-06
     mixing beta               =       0.7000
     number of iterations used =            8  local-TF  mixing
     Exchange-correlation      = SLA PW GGX GGC ( 1  4  2  2 0 0)

     celldm(1)=  13.082914  celldm(2)=   0.000000  celldm(3)=   0.000000
     celldm(4)=   0.000000  celldm(5)=   0.000000  celldm(6)=   0.000000

     crystal axes: (cart. coord. in units of alat)
               a(1) = (   1.000000   0.000000   0.000000 )
               a(2) = (  -0.035366   1.294054   0.000000 )
               a(3) = (  -0.326252  -0.428338   2.105549 )

     reciprocal axes: (cart. coord. in units 2 pi/alat)
               b(1) = (  1.000000  0.027330  0.160509 )
               b(2) = (  0.000000  0.772765  0.157206 )
               b(3) = (  0.000000  0.000000  0.474935 )

     PseudoPot. # 1 for Mo read from file:
     ~/pseudo/Mo.pw91-n-van.UPF
     MD5 check sum: Not computed, couldn't open file
     Pseudo is Ultrasoft + core correction, Zval =  6.0
     Generated by new atomic code, or converted to UPF format
     Using radial grid of  965 points,  3 beta functions with:
                l(1) =   1
                l(2) =   2
                l(3) =   2
     Q(r) pseudized with  8 coefficients,  rinner =    1.000   1.000   1.000
                                                       1.200   1.200

     PseudoPot. # 2 for S  read from file:
     ~/pseudo/S.pw91-van_ak.UPF
     MD5 check sum: Not computed, couldn't open file
     Pseudo is Ultrasoft, Zval =  6.0
     Generated by new atomic code, or converted to UPF format
     Using radial grid of  811 points,  6 beta functions with:
                l(1) =   0
                l(2) =   0
                l(3) =   1
                l(4) =   1
                l(5) =   2
                l(6) =   2
     Q(r) pseudized with  8 coefficients,  rinner =    1.100   1.100   1.100
                                                       1.100   1.100

     atomic species   valence    mass     pseudopotential
        Mo             6.00    95.50000     Mo( 1.00)
        S              6.00    32.06500     S ( 1.00)

     No symmetry found

   Cartesian axes

     site n.     atom                  positions (alat units)
         1           Mo  tau(   1) = (   0.1250751   0.4031781   0.7092544  )
         2           Mo  tau(   2) = (   0.5549715   1.1292769   0.1818965  )
         3           Mo  tau(   3) = (   0.2998443   0.7741962   0.0209247  )
         4           Mo  tau(   4) = (   0.2269560  -0.1952012   1.3803460  )
         5           Mo  tau(   5) = (   0.1321913   0.0830947   0.9597153  )
         6           Mo  tau(   6) = (   0.7856503   0.1759549   0.7420582  )
         7           Mo  tau(   7) = (   0.5785867   0.2030712   2.0786968  )
         8           Mo  tau(   8) = (   0.3725019   0.8498286   1.1326066  )
         9           Mo  tau(   9) = (   0.5942884   0.2281942   0.3253265  )
        10           Mo  tau(  10) = (   0.0725727   0.6697073   0.3882668  )
        11           Mo  tau(  11) = (   0.3482430  -0.1780203   2.0357567  )
        12           Mo  tau(  12) = (  -0.0009215   0.9813887   0.9933835  )
        13           S   tau(  13) = (   0.0358116   0.8166453   1.2711904  )
        14           S   tau(  14) = (   0.4251405   0.5289221   1.2907944  )
        15           S   tau(  15) = (   0.1494497   0.4562810   0.1418298  )
        16           S   tau(  16) = (   0.2950013   0.9390690   0.3261959  )
        17           S   tau(  17) = (   0.0854714   0.7641294   0.7103499  )
        18           S   tau(  18) = (   0.8127556   0.8728090   0.2700002  )
        19           S   tau(  19) = (   0.1995205  -0.2707885   1.7183704  )
        20           S   tau(  20) = (   0.5967662  -0.0407068   1.8573986  )
        21           S   tau(  21) = (   0.8113162  -0.0420130   0.9844007  )
        22           S   tau(  22) = (  -0.0837321   0.3841175   0.9949004  )
        23           S   tau(  23) = (   0.2199578   0.5285897   1.9981497  )
        24           S   tau(  24) = (   0.3772069   0.4799866   0.4506915  )
        25           S   tau(  25) = (   0.5628011  -0.2414106   1.3815696  )
        26           S   tau(  26) = (   0.1653890   0.1202320   1.2871316  )
        27           S   tau(  27) = (   0.0848656   0.0655686   0.6039876  )
        28           S   tau(  28) = (   0.3376167  -0.1714177   0.9052740  )
        29           S   tau(  29) = (   0.4018596   0.0877628   0.0702111  )
        30           S   tau(  30) = (   0.5920615   0.5157516   0.0723139  )
        31           S   tau(  31) = (   0.4294512   0.3010509   0.8716420  )
        32           S   tau(  32) = (   0.6082958  -0.0354087   0.5289175  )
        33           S   tau(  33) = (   0.6704825   0.8066015   0.9366697  )
        34           S   tau(  34) = (   0.8194416   0.4719370   0.5141012  )
        35           S   tau(  35) = (  -0.2596754   0.4716232   1.9330285  )
        36           S   tau(  36) = (   0.8671667   0.0625629   0.1663426  )

     number of k points=     4  Marzari-Vanderbilt smearing, width (Ry)=  0.0200
                       cart. coord. in units 2pi/alat
        k(    1) = (   0.0000000   0.0000000   0.0000000), wk =   0.3333333
        k(    2) = (   0.0000000  -0.3863825  -0.0786029), wk =   0.3333333
        k(    3) = (   0.3333333   0.0091098   0.0535028), wk =   0.6666667
        k(    4) = (   0.3333333  -0.3772727  -0.0251000), wk =   0.6666667

     Initial potential from superposition of free atoms

     starting charge  215.98107, renormalised to  216.00000
     Starting wfcs are  204 randomized atomic wfcs

     Self-consistent Calculation

     iteration #  1     ecut=    45.00 Ry     beta= 0.70
     Davidson diagonalization with overlap
     ethr =  1.00E-02,  avg # of iterations =  2.0

     total energy              =    -842.18513848 Ry
     Harris-Foulkes estimate   =    -845.55751863 Ry
     estimated scf accuracy    <       9.11990240 Ry

[...]

     iteration #  7     ecut=    45.00 Ry     beta= 0.70
     Davidson diagonalization with overlap
     c_bands:  1 eigenvalues not converged
     ethr =  1.33E-05,  avg # of iterations = 13.5

[...]

     total energy              =    -843.96418653 Ry
     Harris-Foulkes estimate   =    -843.96418817 Ry
     estimated scf accuracy    <       0.00000777 Ry

     iteration # 14     ecut=    45.00 Ry     beta= 0.70
     Davidson diagonalization with overlap
     ethr =  3.60E-09,  avg # of iterations =  1.5

     End of self-consistent calculation

          k = 0.0000 0.0000 0.0000 ( 31049 PWs)   bands (ev):

    -9.8603  -9.2916  -8.9510  -8.8235  -8.7316  -8.6544  -8.5212  -8.4661
    -8.4168  -8.1312  -8.1290  -8.1042  -8.0456  -8.0313  -7.9681  -7.8336
    -7.7610  -7.7373  -7.6489  -7.5538  -7.4442  -7.2720  -6.9601  -6.3467
    -1.5936  -1.4884  -1.2901  -1.1381  -1.0708  -0.8501  -0.8035  -0.7475
    -0.7274  -0.6274  -0.4780  -0.3743  -0.3162  -0.2700  -0.1792  -0.1512
    -0.1062  -0.0127   0.0448   0.1075   0.1728   0.2017   0.2725   0.2955
     0.4016   0.4266   0.4664   0.6061   0.6391   0.6807   0.7635   0.7891
     0.8244   0.8834   0.9232   0.9656   1.0129   1.1035   1.2113   1.2195
     1.2537   1.3386   1.4074   1.4583   1.5100   1.6004   1.6445   1.7743
     1.8791   1.9109   1.9290   1.9498   2.1485   2.2044   2.2696   2.3779
     2.4575   2.5102   2.5619   2.6175   2.6797   2.7529   2.8160   2.8384
     2.9523   3.1066   3.2453   3.2613   3.3282   3.3815   3.4515   3.5397
     3.5967   3.7104   3.7681   3.8714   3.9234   4.0377   4.1770   4.2620
     4.3792   4.4498   4.5130   4.5860   4.6765   4.7366   4.8057   4.8225
     5.0130   5.0798   5.1133   5.2967   5.3285   5.3376   5.4891   5.5206
     5.6205   5.7118   5.8176   5.9055   5.9628   6.0492   6.1167   6.2304
     6.2638   6.3159

[...]

          k = 0.3333-0.3773-0.0251 ( 31125 PWs)   bands (ev):

    -9.6693  -9.1948  -9.0712  -8.9183  -8.7797  -8.6525  -8.5913  -8.4921
    -8.4105  -8.2463  -8.1425  -8.0838  -8.0165  -7.9765  -7.9217  -7.8611
    -7.8057  -7.7081  -7.6860  -7.5372  -7.4068  -7.2809  -6.9851  -6.3394
    -1.5719  -1.3636  -1.2174  -1.1509  -0.9870  -0.8727  -0.8357  -0.7371
    -0.6076  -0.4875  -0.4395  -0.3693  -0.3508  -0.2426  -0.1880  -0.1566
    -0.0732  -0.0459   0.0387   0.0948   0.1598   0.2465   0.3068   0.3453
     0.3944   0.4291   0.5008   0.5115   0.5947   0.6396   0.7249   0.8234
     0.8420   0.8735   0.9541   0.9846   1.0472   1.1285   1.1703   1.2408
     1.2870   1.3726   1.3883   1.4423   1.4847   1.5222   1.6746   1.7251
     1.7726   1.8071   1.8842   1.9330   2.0728   2.1255   2.1748   2.3005
     2.3292   2.4856   2.5334   2.6418   2.7020   2.7674   2.8231   2.9082
     3.0014   3.1357   3.1831   3.2358   3.3089   3.3656   3.4512   3.5429
     3.6404   3.7193   3.8217   3.9711   4.0767   4.1555   4.2050   4.2957
     4.3874   4.4666   4.4936   4.6127   4.6767   4.7548   4.8209   4.8731
     4.9416   5.0409   5.1262   5.1549   5.2216   5.3221   5.4536   5.4686
     5.6121   5.6552   5.7564   5.8107   5.8809   5.9183   6.0643   6.1712
     6.2536   6.3382

     the Fermi energy is     4.6298 ev

!    total energy              =    -843.96418678 Ry
     Harris-Foulkes estimate   =    -843.96418729 Ry
     estimated scf accuracy    <       0.00000075 Ry

     The total energy is the sum of the following terms:

     one-electron contribution =    -399.71345506 Ry
     hartree contribution      =     306.56253612 Ry
     xc contribution           =    -332.89048730 Ry
     ewald contribution        =    -417.92169444 Ry
     smearing contrib. (-TS)   =      -0.00108608 Ry

     convergence has been achieved in  14 iterations

     Forces acting on atoms (cartesian axes, Ry/au):

     atom    1 type  1   force =     0.03935063   -0.01124491    0.01842121
     atom    2 type  1   force =     0.02467896   -0.04388605    0.03368931
     atom    3 type  1   force =    -0.03247176   -0.02500024    0.10069242
     atom    4 type  1   force =     0.03284962    0.00618037    0.08104255
     atom    5 type  1   force =    -0.02401798    0.06023674   -0.03246019
     atom    6 type  1   force =    -0.00788160    0.08947890   -0.05116838
     atom    7 type  1   force =     0.04263503    0.04511094    0.06286410
     atom    8 type  1   force =     0.09143758   -0.05725782    0.08292562
     atom    9 type  1   force =     0.03072980    0.02609686    0.01919546
     atom   10 type  1   force =     0.00950882    0.04478289   -0.08130151
     atom   11 type  1   force =     0.06264639   -0.11634630   -0.08085398
     atom   12 type  1   force =    -0.07804448   -0.00705622   -0.08643703
     atom   13 type  2   force =     0.00796584   -0.02521036    0.03302820
     atom   14 type  2   force =    -0.02231201    0.08533953   -0.05709441
     atom   15 type  2   force =    -0.02344841    0.02447467   -0.07615438
     atom   16 type  2   force =    -0.00079154    0.01157736   -0.05103787
     atom   17 type  2   force =     0.01438819   -0.01235601    0.08188832
     atom   18 type  2   force =     0.00364320   -0.01065433   -0.02654207
     atom   19 type  2   force =    -0.00811347    0.01612077   -0.02888761
     atom   20 type  2   force =     0.01067221   -0.01675895   -0.04712908
     atom   21 type  2   force =     0.00292366   -0.06910821    0.05987196
     atom   22 type  2   force =     0.02040989    0.02360422   -0.00496027
     atom   23 type  2   force =     0.04569359    0.00422950   -0.04930819
     atom   24 type  2   force =    -0.00803262   -0.00952731    0.06864260
     atom   25 type  2   force =    -0.05568211   -0.02333991   -0.06036477
     atom   26 type  2   force =     0.02335075   -0.00715525    0.06676784
     atom   27 type  2   force =     0.00183943    0.00789055   -0.02615952
     atom   28 type  2   force =     0.04278334   -0.06156403   -0.01584120
     atom   29 type  2   force =    -0.06703023    0.01340867   -0.00504676
     atom   30 type  2   force =    -0.05527465    0.10782097    0.04988988
     atom   31 type  2   force =    -0.04259816   -0.00097207    0.00269778
     atom   32 type  2   force =    -0.02782234   -0.02496771    0.01844736
     atom   33 type  2   force =     0.01678774    0.01151611    0.02563141
     atom   34 type  2   force =    -0.04480043   -0.06049170    0.00501676
     atom   35 type  2   force =    -0.01025992   -0.02065767   -0.00044898
     atom   36 type  2   force =    -0.01571294    0.02568600   -0.02951659

     Total force =     0.471374     Total SCF correction =     0.001831

     General routines

     Parallel routines

   This run was terminated on:  22:33: 1  23Dec2021

   JOB DONE.