     Program PWSCF v.6.4 starts on  6Oct2021 at 13: 6:39

     R & G space division:  proc/nbgrp/npool/nimage =      40
     Waiting for input...
     Reading input from standard input
Warning: card    &IONS ignored
Warning: card      ION_DYNAMICS = 'BFGS' ignored
Warning: card   / ignored
Warning: card    &CELL ignored
Warning: card      CELL_DYNAMICS = 'BFGS', ignored
Warning: card    / ignored

     Current dimensions of program PWSCF are:
     Max number of different atomic species (ntypx) = 10
     Max number of k-points (npk) =  40000
     Max angular momentum in pseudopotentials (lmaxx) =  3

     bravais-lattice index     =            0
     lattice parameter (alat)  =      12.1449  a.u.
     unit-cell volume          =   10887.4732 (a.u.)^3
     number of atoms/cell      =           36
     number of atomic types    =            2
     number of electrons       =       216.00
     number of Kohn-Sham states=          130
     kinetic-energy cutoff     =      45.0000  Ry
     charge density cutoff     =     360.0000  Ry
     convergence threshold     =      1.0E-06
     mixing beta               =       0.7000
     number of iterations used =            8  local-TF  mixing
     Exchange-correlation      = SLA PW GGX GGC ( 1  4  2  2 0 0)

     celldm(1)=  12.144867  celldm(2)=   0.000000  celldm(3)=   0.000000
     celldm(4)=   0.000000  celldm(5)=   0.000000  celldm(6)=   0.000000

     crystal axes: (cart. coord. in units of alat)
               a(1) = (   1.000000   0.000000   0.000000 )
               a(2) = (   0.503081   0.867805   0.000000 )
               a(3) = (   0.120597   0.313982   7.003688 )

     reciprocal axes: (cart. coord. in units 2 pi/alat)
               b(1) = (  1.000000 -0.579717  0.008770 )
               b(2) = (  0.000000  1.152333 -0.051660 )
               b(3) = (  0.000000  0.000000  0.142782 )

     PseudoPot. # 1 for Mo read from file:
     ~/pseudo/Mo.pw91-n-van.UPF
     MD5 check sum: Not computed, couldn't open file
     Pseudo is Ultrasoft + core correction, Zval =  6.0
     Generated by new atomic code, or converted to UPF format
     Using radial grid of  965 points,  3 beta functions with:
                l(1) =   1
                l(2) =   2
                l(3) =   2
     Q(r) pseudized with  8 coefficients,  rinner =    1.000   1.000   1.000
                                                       1.200   1.200

     PseudoPot. # 2 for S  read from file:
     ~/pseudo/S.pw91-van_ak.UPF
     MD5 check sum: Not computed, couldn't open file
     Pseudo is Ultrasoft, Zval =  6.0
     Generated by new atomic code, or converted to UPF format
     Using radial grid of  811 points,  6 beta functions with:
                l(1) =   0
                l(2) =   0
                l(3) =   1
                l(4) =   1
                l(5) =   2
                l(6) =   2
     Q(r) pseudized with  8 coefficients,  rinner =    1.100   1.100   1.100
                                                       1.100   1.100

     atomic species   valence    mass     pseudopotential
        Mo             6.00    95.50000     Mo( 1.00)
        S              6.00    32.06500     S ( 1.00)

     No symmetry found

   Cartesian axes

     site n.     atom                  positions (alat units)
         1           Mo  tau(   1) = (   1.5666946   0.9856456   4.4244869  )
         2           Mo  tau(   2) = (   1.3097576   0.5558624   4.4256027  )
         3           Mo  tau(   3) = (   1.0635258   0.9890835   4.4247414  )
         4           Mo  tau(   4) = (   0.8135344   0.5521619   4.4250076  )
         5           Mo  tau(   5) = (   0.3722512   0.3768690   2.1215911  )
         6           Mo  tau(   6) = (   0.6300254   0.8064949   2.1182679  )
         7           Mo  tau(   7) = (   0.8773383   0.3710440   2.1201359  )
         8           Mo  tau(   8) = (   1.1309197   0.8067495   2.1202219  )
         9           Mo  tau(   9) = (   0.4338324   0.2514073   0.4611967  )
        10           Mo  tau(  10) = (   0.6882739   0.6868251   0.4632079  )
        11           Mo  tau(  11) = (   0.9326086   0.2571330   0.4618378  )
        12           Mo  tau(  12) = (   1.1832909   0.6907861   0.4628060  )
        13           S   tau(  13) = (   0.4336975   0.5437865   0.2203279  )
        14           S   tau(  14) = (   0.1811630   0.1074886   0.2176290  )
        15           S   tau(  15) = (   0.9359110   0.5455747   0.2153609  )
        16           S   tau(  16) = (   0.6831945   0.1120217   0.2132542  )
        17           S   tau(  17) = (   0.8183230   0.8395199   4.6702665  )
        18           S   tau(  18) = (   0.5616771   0.4107517   4.6698781  )
        19           S   tau(  19) = (   1.3156357   0.8453104   4.6703166  )
        20           S   tau(  20) = (   1.0645827   0.4050859   4.6715757  )
        21           S   tau(  21) = (   0.8147897   0.8408697   4.1775621  )
        22           S   tau(  22) = (   0.5580743   0.4130648   4.1810641  )
        23           S   tau(  23) = (   1.3123512   0.8461937   4.1795539  )
        24           S   tau(  24) = (   1.0609384   0.4073081   4.1795450  )
        25           S   tau(  25) = (   0.1255197   0.2229572   2.3660831  )
        26           S   tau(  26) = (   0.3833781   0.6655592   2.3665494  )
        27           S   tau(  27) = (   0.6229670   0.2289316   2.3655612  )
        28           S   tau(  28) = (   0.8812339   0.6596535   2.3633262  )
        29           S   tau(  29) = (   0.1253819   0.2283050   1.8726839  )
        30           S   tau(  30) = (   0.3802831   0.6661319   1.8714449  )
        31           S   tau(  31) = (   0.6221530   0.2318823   1.8801019  )
        32           S   tau(  32) = (   0.8798257   0.6618424   1.8744994  )
        33           S   tau(  33) = (   0.4360984   0.5409530   0.7042039  )
        34           S   tau(  34) = (   0.1834524   0.1090810   0.7064487  )
        35           S   tau(  35) = (   0.9382897   0.5441700   0.7126370  )
        36           S   tau(  36) = (   0.6848608   0.1111082   0.7080181  )

     number of k points=     5  Marzari-Vanderbilt smearing, width (Ry)=  0.0200
                       cart. coord. in units 2pi/alat
        k(    1) = (   0.0000000   0.0000000   0.0000000), wk =   0.2222222
        k(    2) = (   0.0000000   0.3841110  -0.0172201), wk =   0.4444444
        k(    3) = (   0.3333333  -0.1932388   0.0029234), wk =   0.4444444
        k(    4) = (   0.3333333   0.1908722  -0.0142967), wk =   0.4444444
        k(    5) = (   0.3333333  -0.5773499   0.0201435), wk =   0.4444444

     Initial potential from superposition of free atoms

     starting charge  215.98107, renormalised to  216.00000

     negative rho (up, down):  1.264E-03 0.000E+00
     Starting wfcs are  204 randomized atomic wfcs

     Self-consistent Calculation

     iteration #  1     ecut=    45.00 Ry     beta= 0.70
     Davidson diagonalization with overlap
     ethr =  1.00E-02,  avg # of iterations =  2.0

     negative rho (up, down):  9.676E-05 0.000E+00

     total energy              =    -844.22881246 Ry
     Harris-Foulkes estimate   =    -846.84361515 Ry
     estimated scf accuracy    <       6.68630452 Ry

[...]

     total energy              =    -845.53185224 Ry
     Harris-Foulkes estimate   =    -845.53185112 Ry
     estimated scf accuracy    <       0.00000249 Ry

     iteration # 20     ecut=    45.00 Ry     beta= 0.70
     Davidson diagonalization with overlap
     ethr =  1.15E-09,  avg # of iterations =  4.0

[...]

     End of self-consistent calculation

          k = 0.0000 0.0000 0.0000 ( 55343 PWs)   bands (ev):

   -14.3271 -14.3188 -14.3157 -13.1241 -13.1201 -13.1168 -12.6208 -12.6167
   -12.5916 -12.5830 -12.5819 -12.5763 -12.5725 -12.5679 -12.5606 -12.3412
   -12.3375 -12.3185 -12.3163 -12.3154 -12.3091 -12.2986 -12.2985 -12.2930
    -5.9679  -5.9586  -5.9579  -5.9481  -5.9474  -5.9450  -5.9392  -5.9357
    -5.9355  -5.8019  -5.7940  -5.7926  -5.0137  -5.0128  -5.0116  -5.0049
    -5.0044  -4.9964  -4.9939  -4.9930  -4.9885  -4.3621  -4.3394  -4.3257
    -4.3168  -4.3128  -4.3115  -4.3066  -4.2989  -4.2988  -3.4697  -3.4593
    -3.4560  -3.4301  -3.4130  -3.4120  -3.4099  -3.4085  -3.4071  -2.9471
    -2.9367  -2.9339  -2.9059  -2.8977  -2.8940  -2.2453  -2.2286  -2.1811
    -2.1779  -2.1737  -2.1736  -2.1373  -2.1097  -2.1089  -1.9987  -1.9912
    -1.9734  -1.8238  -1.8203  -1.8120  -1.7850  -1.7779  -1.7672  -1.3175
    -1.3137  -1.3050  -1.2998  -1.2957  -1.2576  -1.2458  -1.2210  -1.2115
    -0.9990  -0.9942  -0.9780  -0.9734  -0.9720  -0.9582  -0.9537  -0.9498
    -0.9490  -0.3535  -0.3468  -0.3466   1.6478   1.6512   1.6794   1.6859
     1.6869   1.6874   1.7006   1.7039   1.7179   2.1993   2.1997   2.2076
     2.2092   2.2095   2.2099   2.2124   2.2133   2.2206   2.3675   2.3726
     2.3726   2.3825

[...]

          k = 0.3333-0.5773 0.0201 ( 55618 PWs)   bands (ev):

   -13.3641 -13.3602 -13.3601 -13.3458 -13.3420 -13.3352 -13.3302 -13.3214
   -13.3198 -12.6831 -12.6684 -12.6568 -12.6566 -12.6536 -12.6487 -12.6443
   -12.6355 -12.6318 -12.3494 -12.3428 -12.3396 -12.1543 -12.1508 -12.1474
    -5.5774  -5.5686  -5.5666  -5.1400  -5.1369  -5.1367  -5.1237  -5.1215
    -5.1203  -5.1193  -5.1146  -5.1091  -4.7870  -4.7815  -4.7804  -4.3057
    -4.2938  -4.2914  -4.1401  -4.1308  -4.0993  -4.0974  -4.0941  -4.0888
    -4.0742  -4.0656  -4.0464  -3.8960  -3.8958  -3.8770  -3.8730  -3.8663
    -3.8595  -3.8590  -3.8554  -3.8545  -3.8525  -3.8504  -3.8450  -3.4707
    -3.4596  -3.4411  -3.4366  -3.4298  -3.4257  -3.4087  -3.4068  -3.3747
    -3.1638  -3.1523  -3.1461  -2.4634  -2.4612  -2.4580  -2.3094  -2.3057
    -2.2696  -2.2648  -2.2622  -2.2492  -2.2392  -2.2179  -2.1978  -1.4263
    -1.4183  -1.3925  -1.3884  -1.3825  -1.3797  -1.3640  -1.3371  -1.3304
    -1.1524  -1.1483  -1.1320  -1.1281  -1.1239  -1.1190  -1.1080  -1.1009
    -1.0998  -0.3773  -0.3743  -0.3705   1.2306   1.2343   1.2527   1.4696
     1.4737   1.5108   1.5182   1.5204   1.5300   1.5335   1.5458   1.5558
     1.9654   1.9722   1.9790   1.9818   1.9838   2.0026   2.0169   2.0454
     2.0473   2.2002

     the Fermi energy is    -0.2620 ev

!    total energy              =    -845.53185213 Ry
     Harris-Foulkes estimate   =    -845.53185275 Ry
     estimated scf accuracy    <       0.00000090 Ry

     The total energy is the sum of the following terms:

     one-electron contribution =   -4821.02759659 Ry
     hartree contribution      =    2481.05769584 Ry
     xc contribution           =    -334.13149473 Ry
     ewald contribution        =    1828.54584914 Ry
     smearing contrib. (-TS)   =       0.02369420 Ry

     convergence has been achieved in  20 iterations

     negative rho (up, down):  1.791E-03 0.000E+00

     Forces acting on atoms (cartesian axes, Ry/au):

     atom    1 type  1   force =    -0.00300064    0.00226118    0.00078243
     atom    2 type  1   force =     0.00587918   -0.00215388   -0.00091467
     atom    3 type  1   force =     0.00243483    0.00087231   -0.00145029
     atom    4 type  1   force =    -0.00190405    0.00083619    0.00023881
     atom    5 type  1   force =     0.01146325   -0.00733090   -0.00270912
     atom    6 type  1   force =     0.00523479    0.00019708   -0.00047723
     atom    7 type  1   force =    -0.00526916    0.00388895    0.00260864
     atom    8 type  1   force =    -0.00590716    0.00563257   -0.00002731
     atom    9 type  1   force =    -0.00250230    0.00960148   -0.00034457
     atom   10 type  1   force =    -0.01064599    0.00214915    0.00123007
     atom   11 type  1   force =     0.00735114   -0.00740332    0.00161653
     atom   12 type  1   force =     0.01294786   -0.00573456   -0.00106485
     atom   13 type  2   force =     0.00275047   -0.00061012   -0.00739985
     atom   14 type  2   force =     0.00261986    0.00264014   -0.00280716
     atom   15 type  2   force =    -0.00036418   -0.00169121    0.00151111
     atom   16 type  2   force =     0.00141273   -0.00375648    0.00674228
     atom   17 type  2   force =    -0.00635932    0.00423079    0.00164486
     atom   18 type  2   force =    -0.00213746   -0.00089514    0.00238323
     atom   19 type  2   force =    -0.00454408   -0.00128666    0.00104167
     atom   20 type  2   force =    -0.00522934    0.00491850   -0.00166485
     atom   21 type  2   force =     0.00202116    0.00065187    0.00321698
     atom   22 type  2   force =     0.00552672   -0.00570420   -0.00454023
     atom   23 type  2   force =     0.00259679   -0.00449068   -0.00128923
     atom   24 type  2   force =     0.00409208    0.00096593   -0.00159553
     atom   25 type  2   force =     0.00018338    0.01116933    0.00094464
     atom   26 type  2   force =    -0.01029651   -0.00311735    0.00061618
     atom   27 type  2   force =     0.00349565    0.00062876    0.00052018
     atom   28 type  2   force =    -0.00197915    0.00314831    0.00497304
     atom   29 type  2   force =     0.00205357    0.00161591    0.00232424
     atom   30 type  2   force =    -0.00537282   -0.00702746    0.00493892
     atom   31 type  2   force =     0.00324361   -0.00554982   -0.01338324
     atom   32 type  2   force =     0.00393971   -0.00315642   -0.00165763
     atom   33 type  2   force =    -0.00339709    0.00399630    0.00848597
     atom   34 type  2   force =    -0.00206387    0.00043284    0.00328776
     atom   35 type  2   force =    -0.00506788    0.00005772   -0.00889084
     atom   36 type  2   force =    -0.00320579    0.00001292    0.00110904

     Total force =     0.047663     Total SCF correction =     0.002225

     General routines

     Parallel routines

   This run was terminated on:  13:10:30   6Oct2021

   JOB DONE.