     Program PWSCF v.6.4 starts on 25Dec2021 at  0: 9:18

     R & G space division:  proc/nbgrp/npool/nimage =      40
     Waiting for input...
     Reading input from standard input
Warning: card    &IONS ignored
Warning: card      ION_DYNAMICS = 'BFGS' ignored
Warning: card   / ignored
Warning: card    &CELL ignored
Warning: card      CELL_DYNAMICS = 'BFGS', ignored
Warning: card    / ignored

     Current dimensions of program PWSCF are:
     Max number of different atomic species (ntypx) = 10
     Max number of k-points (npk) =  40000
     Max angular momentum in pseudopotentials (lmaxx) =  3

     Found symmetry operation: I + (  0.0000 -0.5000  0.0000)
     This is a supercell, fractional translations are disabled

     bravais-lattice index     =            0
     lattice parameter (alat)  =      12.1536  a.u.
     unit-cell volume          =    5418.4329 (a.u.)^3
     number of atoms/cell      =           36
     number of atomic types    =            2
     number of electrons       =       216.00
     number of Kohn-Sham states=          130
     kinetic-energy cutoff     =      45.0000  Ry
     charge density cutoff     =     360.0000  Ry
     convergence threshold     =      1.0E-06
     mixing beta               =       0.7000
     number of iterations used =            8  local-TF  mixing
     Exchange-correlation      = SLA PW GGX GGC ( 1  4  2  2 0 0)

     celldm(1)=  12.153560  celldm(2)=   0.000000  celldm(3)=   0.000000
     celldm(4)=   0.000000  celldm(5)=   0.000000  celldm(6)=   0.000000

     crystal axes: (cart. coord. in units of alat)
               a(1) = (   1.000000   0.000000   0.000000 )
               a(2) = (  -0.500000   0.866026   0.000000 )
               a(3) = (   0.000000   0.000000   3.485238 )

     reciprocal axes: (cart. coord. in units 2 pi/alat)
               b(1) = (  1.000000  0.577350  0.000000 )
               b(2) = (  0.000000  1.154700  0.000000 )
               b(3) = (  0.000000  0.000000  0.286924 )

     PseudoPot. # 1 for Mo read from file:
     ~/pseudo/Mo.pw91-n-van.UPF
     MD5 check sum: Not computed, couldn't open file
     Pseudo is Ultrasoft + core correction, Zval =  6.0
     Generated by new atomic code, or converted to UPF format
     Using radial grid of  965 points,  3 beta functions with:
                l(1) =   1
                l(2) =   2
                l(3) =   2
     Q(r) pseudized with  8 coefficients,  rinner =    1.000   1.000   1.000
                                                       1.200   1.200

     PseudoPot. # 2 for S  read from file:
     ~/pseudo/S.pw91-van_ak.UPF
     MD5 check sum: Not computed, couldn't open file
     Pseudo is Ultrasoft, Zval =  6.0
     Generated by new atomic code, or converted to UPF format
     Using radial grid of  811 points,  6 beta functions with:
                l(1) =   0
                l(2) =   0
                l(3) =   1
                l(4) =   1
                l(5) =   2
                l(6) =   2
     Q(r) pseudized with  8 coefficients,  rinner =    1.100   1.100   1.100
                                                       1.100   1.100

     atomic species   valence    mass     pseudopotential
        Mo             6.00    95.50000     Mo( 1.00)
        S              6.00    32.06500     S ( 1.00)

     No symmetry found

   Cartesian axes

     site n.     atom                  positions (alat units)
         1           Mo  tau(   1) = (   0.2377459   0.7303851   1.6012862  )
         2           Mo  tau(   2) = (   0.4877454   0.0086975   2.7111818  )
         3           Mo  tau(   3) = (   0.3750000   0.6495192   0.3322790  )
         4           Mo  tau(   4) = (   0.4877459   0.2973723   1.6012862  )
         5           Mo  tau(   5) = (   0.7377453   0.4417102   2.7111818  )
         6           Mo  tau(   6) = (   0.6250000   0.2165063   0.3322790  )
         7           Mo  tau(   7) = (   0.9877453   0.0086975   2.7111818  )
         8           Mo  tau(   8) = (  -0.0122541   0.2973723   1.6012862  )
         9           Mo  tau(   9) = (  -0.2622541   0.7303851   1.6012862  )
        10           Mo  tau(  10) = (   0.2377454   0.4417102   2.7111818  )
        11           Mo  tau(  11) = (   0.1250000   0.2165063   0.3322790  )
        12           Mo  tau(  12) = (  -0.1250000   0.6495192   0.3322790  )
        13           S   tau(  13) = (   0.2377459   0.7303851   2.4656882  )
        14           S   tau(  14) = (   0.2377459   0.7303851   2.9566236  )
        15           S   tau(  15) = (   0.3749997   0.0721689   0.0867969  )
        16           S   tau(  16) = (   0.3749997   0.0721689   0.5776964  )
        17           S   tau(  17) = (   0.4877456   0.5860477   1.3557261  )
        18           S   tau(  18) = (   0.4877456   0.5860477   1.8468248  )
        19           S   tau(  19) = (   0.4877459   0.2973723   2.4656881  )
        20           S   tau(  20) = (   0.4877459   0.2973723   2.9566229  )
        21           S   tau(  21) = (   0.6249998   0.5051816   0.0867969  )
        22           S   tau(  22) = (   0.6249997   0.5051817   0.5776964  )
        23           S   tau(  23) = (   0.7377456   0.1530349   1.3557261  )
        24           S   tau(  24) = (   0.7377456   0.1530349   1.8468248  )
        25           S   tau(  25) = (   0.8749998   0.0721689   0.0867969  )
        26           S   tau(  26) = (   0.8749998   0.0721689   0.5776964  )
        27           S   tau(  27) = (  -0.0122541   0.2973723   2.4656882  )
        28           S   tau(  28) = (  -0.0122541   0.2973723   2.9566236  )
        29           S   tau(  29) = (  -0.2622541   0.7303851   2.4656882  )
        30           S   tau(  30) = (  -0.2622541   0.7303851   2.9566236  )
        31           S   tau(  31) = (   0.1249998   0.5051817   0.0867969  )
        32           S   tau(  32) = (   0.1249998   0.5051817   0.5776964  )
        33           S   tau(  33) = (   0.2377457   0.1530349   1.3557260  )
        34           S   tau(  34) = (   0.2377457   0.1530349   1.8468247  )
        35           S   tau(  35) = (  -0.0122543   0.5860477   1.3557261  )
        36           S   tau(  36) = (  -0.0122543   0.5860477   1.8468248  )

     number of k points=     5  Marzari-Vanderbilt smearing, width (Ry)=  0.0200
                       cart. coord. in units 2pi/alat
        k(    1) = (   0.0000000   0.0000000   0.0000000), wk =   0.2222222
        k(    2) = (   0.0000000   0.3849001   0.0000000), wk =   0.4444444
        k(    3) = (   0.3333333   0.5773502   0.0000000), wk =   0.4444444
        k(    4) = (  -0.3333333   0.1924501   0.0000000), wk =   0.4444444
        k(    5) = (   0.3333333   0.1924501   0.0000000), wk =   0.4444444

     Initial potential from superposition of free atoms

     starting charge  215.98107, renormalised to  216.00000
     Starting wfcs are  204 randomized atomic wfcs

     Self-consistent Calculation

     iteration #  1     ecut=    45.00 Ry     beta= 0.70
     Davidson diagonalization with overlap
     ethr =  1.00E-02,  avg # of iterations =  2.0

     total energy              =    -844.24891077 Ry
     Harris-Foulkes estimate   =    -846.85776501 Ry
     estimated scf accuracy    <       6.66664348 Ry

[...]

     End of self-consistent calculation

          k = 0.0000 0.0000 0.0000 ( 27553 PWs)   bands (ev):

    -8.6351  -8.6056  -8.5998  -7.4463  -7.4118  -7.3936  -6.8932  -6.8907
    -6.8906  -6.8702  -6.8701  -6.8682  -6.8655  -6.8655  -6.8654  -6.6271
    -6.6245  -6.6245  -6.6035  -6.6035  -6.6016  -6.5996  -6.5996  -6.5985
    -0.2649  -0.2595  -0.2595  -0.2378  -0.2377  -0.2339  -0.2317  -0.2317
    -0.2294  -0.2004  -0.0750  -0.0099   0.6710   0.6814   0.6815   0.7053
     0.7055   0.7062   0.7125   0.7126   0.7228   1.3348   1.3620   1.3620
     1.3905   1.3907   1.3959   1.4078   1.4080   1.4281   2.2649   2.2651
     2.2652   2.2855   2.2856   2.2859   2.2905   2.2906   2.2906   2.7833
     2.7833   2.8019   2.8020   2.8073   2.8073   3.4257   3.4378   3.4867
     3.4873   3.5330   3.5388   3.5400   3.5702   3.5708   3.6249   3.6263
     3.8978   3.8979   3.9183   3.9184   3.9229   3.9229   4.0309   4.4236
     4.4254   4.4254   4.4471   4.4473   4.4491   4.4527   4.4528   4.4531
     4.6879   4.7092   4.7094   4.7337   4.7340   4.7438   4.7512   4.7515
     4.7697   5.1712   5.4427   5.5384   7.3892   7.3895   7.3896   7.4079
     7.4082   7.4083   7.4103   7.4105   7.4107   7.8933   7.9041   7.9042
     7.9262   7.9263   7.9308   7.9353   7.9354   7.9422   8.0711   8.0731
     8.0948   8.0952

[...]

          k =-0.3333 0.1925 0.0000 ( 27574 PWs)   bands (ev):

[...]

     the Fermi energy is     5.4928 ev

!    total energy              =    -845.54462462 Ry
     Harris-Foulkes estimate   =    -845.54462498 Ry
     estimated scf accuracy    <       0.00000043 Ry

     The total energy is the sum of the following terms:

     one-electron contribution =    -302.61796509 Ry
     hartree contribution      =     267.15399826 Ry
     xc contribution           =    -334.15332190 Ry
     ewald contribution        =    -475.94744257 Ry
     smearing contrib. (-TS)   =       0.02010668 Ry

     convergence has been achieved in  12 iterations

     Forces acting on atoms (cartesian axes, Ry/au):

     atom    1 type  1   force =     0.00045800    0.00029459    0.00091771
     atom    2 type  1   force =     0.00019730   -0.00048219   -0.00089946
     atom    3 type  1   force =     0.00038951    0.00072044   -0.00113804
     atom    4 type  1   force =    -0.00030263   -0.00020324    0.00086644
     atom    5 type  1   force =     0.00032468    0.00020335   -0.00075026
     atom    6 type  1   force =     0.00044591   -0.00025842   -0.00104087
     atom    7 type  1   force =    -0.00020873   -0.00014888   -0.00069672
     atom    8 type  1   force =     0.00029983   -0.00072621    0.00102674
     atom    9 type  1   force =    -0.00045861    0.00064001    0.00098874
     atom   10 type  1   force =    -0.00030530    0.00041888   -0.00084712
     atom   11 type  1   force =    -0.00043372   -0.00069947   -0.00114051
     atom   12 type  1   force =    -0.00037787    0.00021808   -0.00105569
     atom   13 type  2   force =     0.00019502    0.00007472   -0.00014851
     atom   14 type  2   force =     0.00004478    0.00003116    0.00022681
     atom   15 type  2   force =    -0.00014219   -0.00030849    0.00009294
     atom   16 type  2   force =    -0.00008374   -0.00024350    0.00104057
     atom   17 type  2   force =    -0.00006423    0.00025054   -0.00041110
     atom   18 type  2   force =    -0.00012205    0.00024589   -0.00023088
     atom   19 type  2   force =     0.00006058    0.00009257   -0.00024087
     atom   20 type  2   force =    -0.00001947   -0.00003574    0.00027034
     atom   21 type  2   force =     0.00020507    0.00028109    0.00008524
     atom   22 type  2   force =     0.00017531    0.00019295    0.00104724
     atom   23 type  2   force =     0.00014953   -0.00018391   -0.00034369
     atom   24 type  2   force =     0.00011926   -0.00024109   -0.00014167
     atom   25 type  2   force =     0.00012004   -0.00005842   -0.00011236
     atom   26 type  2   force =     0.00002198   -0.00000570    0.00090673
     atom   27 type  2   force =    -0.00000981   -0.00016038    0.00011015
     atom   28 type  2   force =     0.00004057   -0.00022033    0.00050491
     atom   29 type  2   force =    -0.00021612    0.00000851    0.00004826
     atom   30 type  2   force =    -0.00021267    0.00021010    0.00038361
     atom   31 type  2   force =    -0.00020005    0.00011332   -0.00004811
     atom   32 type  2   force =    -0.00002242    0.00000767    0.00087443
     atom   33 type  2   force =    -0.00011301   -0.00005053   -0.00018250
     atom   34 type  2   force =    -0.00010770   -0.00010677    0.00007987
     atom   35 type  2   force =     0.00003789    0.00004794   -0.00006637
     atom   36 type  2   force =     0.00011507    0.00008147    0.00002397

     Total force =     0.004592     Total SCF correction =     0.001986
     SCF correction compared to forces is large: reduce conv_thr to get better values

     General routines

     Parallel routines

   This run was terminated on:   0:10:45  25Dec2021

   JOB DONE.

     Program PWSCF v.6.4 starts on 25Dec2021 at  0:12:16

     R & G space division:  proc/nbgrp/npool/nimage =      40
     Waiting for input...
     Reading input from standard input
Warning: card    &IONS ignored
Warning: card      ION_DYNAMICS = 'BFGS' ignored
Warning: card   / ignored
Warning: card    &CELL ignored
Warning: card      CELL_DYNAMICS = 'BFGS', ignored
Warning: card    / ignored

     Current dimensions of program PWSCF are:
     Max number of different atomic species (ntypx) = 10
     Max number of k-points (npk) =  40000
     Max angular momentum in pseudopotentials (lmaxx) =  3

     Found symmetry operation: I + (  0.0000 -0.5000  0.0000)
     This is a supercell, fractional translations are disabled

     bravais-lattice index     =            0
     lattice parameter (alat)  =      12.1536  a.u.
     unit-cell volume          =    5418.4329 (a.u.)^3
     number of atoms/cell      =           36
     number of atomic types    =            2
     number of electrons       =       216.00
     number of Kohn-Sham states=          130
     kinetic-energy cutoff     =      45.0000  Ry
     charge density cutoff     =     360.0000  Ry
     convergence threshold     =      1.0E-06
     mixing beta               =       0.7000
     number of iterations used =            8  local-TF  mixing
     Exchange-correlation      = SLA PW GGX GGC ( 1  4  2  2 0 0)

     celldm(1)=  12.153560  celldm(2)=   0.000000  celldm(3)=   0.000000
     celldm(4)=   0.000000  celldm(5)=   0.000000  celldm(6)=   0.000000

     crystal axes: (cart. coord. in units of alat)
               a(1) = (   1.000000   0.000000   0.000000 )
               a(2) = (  -0.500000   0.866026   0.000000 )
               a(3) = (   0.000000   0.000000   3.485238 )

     reciprocal axes: (cart. coord. in units 2 pi/alat)
               b(1) = (  1.000000  0.577350  0.000000 )
               b(2) = (  0.000000  1.154700  0.000000 )
               b(3) = (  0.000000  0.000000  0.286924 )

     PseudoPot. # 1 for Mo read from file:
     ~/pseudo/Mo.pw91-n-van.UPF
     MD5 check sum: Not computed, couldn't open file
     Pseudo is Ultrasoft + core correction, Zval =  6.0
     Generated by new atomic code, or converted to UPF format
     Using radial grid of  965 points,  3 beta functions with:
                l(1) =   1
                l(2) =   2
                l(3) =   2
     Q(r) pseudized with  8 coefficients,  rinner =    1.000   1.000   1.000
                                                       1.200   1.200

     PseudoPot. # 2 for S  read from file:
     ~/pseudo/S.pw91-van_ak.UPF
     MD5 check sum: Not computed, couldn't open file
     Pseudo is Ultrasoft, Zval =  6.0
     Generated by new atomic code, or converted to UPF format
     Using radial grid of  811 points,  6 beta functions with:
                l(1) =   0
                l(2) =   0
                l(3) =   1
                l(4) =   1
                l(5) =   2
                l(6) =   2
     Q(r) pseudized with  8 coefficients,  rinner =    1.100   1.100   1.100
                                                       1.100   1.100

     atomic species   valence    mass     pseudopotential
        Mo             6.00    95.50000     Mo( 1.00)
        S              6.00    32.06500     S ( 1.00)

     No symmetry found

   Cartesian axes

     site n.     atom                  positions (alat units)
         1           Mo  tau(   1) = (   0.2377459   0.7303851   1.6012862  )
         2           Mo  tau(   2) = (   0.4877454   0.0086975   2.7111818  )
         3           Mo  tau(   3) = (   0.3750000   0.6495192   0.3322790  )
         4           Mo  tau(   4) = (   0.4877459   0.2973723   1.6012862  )
         5           Mo  tau(   5) = (   0.7377453   0.4417102   2.7111818  )
         6           Mo  tau(   6) = (   0.6250000   0.2165063   0.3322790  )
         7           Mo  tau(   7) = (   0.9877453   0.0086975   2.7111818  )
         8           Mo  tau(   8) = (  -0.0122541   0.2973723   1.6012862  )
         9           Mo  tau(   9) = (  -0.2622541   0.7303851   1.6012862  )
        10           Mo  tau(  10) = (   0.2377454   0.4417102   2.7111818  )
        11           Mo  tau(  11) = (   0.1250000   0.2165063   0.3322790  )
        12           Mo  tau(  12) = (  -0.1250000   0.6495192   0.3322790  )
        13           S   tau(  13) = (   0.2377459   0.7303851   2.4656882  )
        14           S   tau(  14) = (   0.2377459   0.7303851   2.9566236  )
        15           S   tau(  15) = (   0.3749997   0.0721689   0.0867969  )
        16           S   tau(  16) = (   0.3749997   0.0721689   0.5776964  )
        17           S   tau(  17) = (   0.4877456   0.5860477   1.3557261  )
        18           S   tau(  18) = (   0.4877456   0.5860477   1.8468248  )
        19           S   tau(  19) = (   0.4877459   0.2973723   2.4656881  )
        20           S   tau(  20) = (   0.4877459   0.2973723   2.9566229  )
        21           S   tau(  21) = (   0.6249998   0.5051816   0.0867969  )
        22           S   tau(  22) = (   0.6249997   0.5051817   0.5776964  )
        23           S   tau(  23) = (   0.7377456   0.1530349   1.3557261  )
        24           S   tau(  24) = (   0.7377456   0.1530349   1.8468248  )
        25           S   tau(  25) = (   0.8749998   0.0721689   0.0867969  )
        26           S   tau(  26) = (   0.8749998   0.0721689   0.5776964  )
        27           S   tau(  27) = (  -0.0122541   0.2973723   2.4656882  )
        28           S   tau(  28) = (  -0.0122541   0.2973723   2.9566236  )
        29           S   tau(  29) = (  -0.2622541   0.7303851   2.4656882  )
        30           S   tau(  30) = (  -0.2622541   0.7303851   2.9566236  )
        31           S   tau(  31) = (   0.1249998   0.5051817   0.0867969  )
        32           S   tau(  32) = (   0.1249998   0.5051817   0.5776964  )
        33           S   tau(  33) = (   0.2377457   0.1530349   1.3557260  )
        34           S   tau(  34) = (   0.2377457   0.1530349   1.8468247  )
        35           S   tau(  35) = (  -0.0122543   0.5860477   1.3557261  )
        36           S   tau(  36) = (  -0.0122543   0.5860477   1.8468248  )

     number of k points=     5  Marzari-Vanderbilt smearing, width (Ry)=  0.0200
                       cart. coord. in units 2pi/alat
        k(    1) = (   0.0000000   0.0000000   0.0000000), wk =   0.2222222
        k(    2) = (   0.0000000   0.3849001   0.0000000), wk =   0.4444444
        k(    3) = (   0.3333333   0.5773502   0.0000000), wk =   0.4444444
        k(    4) = (  -0.3333333   0.1924501   0.0000000), wk =   0.4444444
        k(    5) = (   0.3333333   0.1924501   0.0000000), wk =   0.4444444

     Initial potential from superposition of free atoms

     starting charge  215.98107, renormalised to  216.00000
     Starting wfcs are  204 randomized atomic wfcs

     Self-consistent Calculation

[...]

     total energy              =    -845.54462405 Ry
     Harris-Foulkes estimate   =    -845.54462579 Ry
     estimated scf accuracy    <       0.00000421 Ry

     iteration # 12     ecut=    45.00 Ry     beta= 0.70
     Davidson diagonalization with overlap
     ethr =  1.95E-09,  avg # of iterations =  3.0

     End of self-consistent calculation

[...]

          k =-0.3333 0.1925 0.0000 ( 27574 PWs)   bands (ev):

[...]

          k = 0.3333 0.1925 0.0000 ( 27574 PWs)   bands (ev):

    -8.2700  -8.2411  -8.2356  -7.4167  -7.3909  -7.3865  -7.2692  -7.2370
    -7.2218  -6.9150  -6.9139  -6.8913  -6.8904  -6.8873  -6.8872  -6.8634
    -6.8373  -6.8294  -6.6140  -6.6127  -6.5899  -6.5891  -6.5857  -6.5851
     0.1837   0.1861   0.2039   0.2159   0.2169   0.2212   0.2229   0.2486
     0.2936   0.3061   0.3241   0.3865   0.6122   0.6139   0.6353   0.6373
     0.6402   0.6410   1.2802   1.3146   1.3510   1.4957   1.5466   1.5538
     1.5626   1.5810   1.6131   1.6183   1.6305   1.6484   2.0611   2.0804
     2.0854   2.1996   2.2027   2.2416   2.2433   2.2687   2.2723   2.4891
     2.5755   2.5811   2.6015   2.6064   2.6760   3.0493   3.0573   3.0843
     3.0858   3.0909   3.0957   3.1864   3.2051   3.2105   3.3655   3.3858
     3.3906   3.6128   3.6382   3.6707   3.6728   3.6976   3.7064   3.7234
     3.7699   3.8695   4.0246   4.0447   4.0497   4.1993   4.2891   4.3912
     4.4307   4.4363   4.4857   4.8670   4.8706   4.8895   4.8937   4.8948
     4.8954   4.9802   5.1056   5.1362   7.3882   7.3897   7.4247   7.4454
     7.4484   7.4598   7.4600   7.4622   7.4711   7.4760   7.4787   7.6113
     7.6231   7.6602   7.6840   7.8466   7.8578   7.8805   7.8829   7.8906
     7.9001   7.9034

     the Fermi energy is     5.4928 ev

!    total energy              =    -845.54462462 Ry
     Harris-Foulkes estimate   =    -845.54462498 Ry
     estimated scf accuracy    <       0.00000043 Ry

     The total energy is the sum of the following terms:

     one-electron contribution =    -302.61796509 Ry
     hartree contribution      =     267.15399826 Ry
     xc contribution           =    -334.15332190 Ry
     ewald contribution        =    -475.94744257 Ry
     smearing contrib. (-TS)   =       0.02010668 Ry

     convergence has been achieved in  12 iterations

     Forces acting on atoms (cartesian axes, Ry/au):

     atom    1 type  1   force =     0.00045800    0.00029459    0.00091771
     atom    2 type  1   force =     0.00019730   -0.00048219   -0.00089946
     atom    3 type  1   force =     0.00038951    0.00072044   -0.00113804
     atom    4 type  1   force =    -0.00030263   -0.00020324    0.00086644
     atom    5 type  1   force =     0.00032468    0.00020335   -0.00075026
     atom    6 type  1   force =     0.00044591   -0.00025842   -0.00104087
     atom    7 type  1   force =    -0.00020873   -0.00014888   -0.00069672
     atom    8 type  1   force =     0.00029983   -0.00072621    0.00102674
     atom    9 type  1   force =    -0.00045861    0.00064001    0.00098874
     atom   10 type  1   force =    -0.00030530    0.00041888   -0.00084712
     atom   11 type  1   force =    -0.00043372   -0.00069947   -0.00114051
     atom   12 type  1   force =    -0.00037787    0.00021808   -0.00105569
     atom   13 type  2   force =     0.00019502    0.00007472   -0.00014851
     atom   14 type  2   force =     0.00004478    0.00003116    0.00022681
     atom   15 type  2   force =    -0.00014219   -0.00030849    0.00009294
     atom   16 type  2   force =    -0.00008374   -0.00024350    0.00104057
     atom   17 type  2   force =    -0.00006423    0.00025054   -0.00041110
     atom   18 type  2   force =    -0.00012205    0.00024589   -0.00023088
     atom   19 type  2   force =     0.00006058    0.00009257   -0.00024087
     atom   20 type  2   force =    -0.00001947   -0.00003574    0.00027034
     atom   21 type  2   force =     0.00020507    0.00028109    0.00008524
     atom   22 type  2   force =     0.00017531    0.00019295    0.00104724
     atom   23 type  2   force =     0.00014953   -0.00018391   -0.00034369
     atom   24 type  2   force =     0.00011926   -0.00024109   -0.00014167
     atom   25 type  2   force =     0.00012004   -0.00005842   -0.00011236
     atom   26 type  2   force =     0.00002198   -0.00000570    0.00090673
     atom   27 type  2   force =    -0.00000981   -0.00016038    0.00011015
     atom   28 type  2   force =     0.00004057   -0.00022033    0.00050491
     atom   29 type  2   force =    -0.00021612    0.00000851    0.00004826
     atom   30 type  2   force =    -0.00021267    0.00021010    0.00038361
     atom   31 type  2   force =    -0.00020005    0.00011332   -0.00004811
     atom   32 type  2   force =    -0.00002242    0.00000767    0.00087443
     atom   33 type  2   force =    -0.00011301   -0.00005053   -0.00018250
     atom   34 type  2   force =    -0.00010770   -0.00010677    0.00007987
     atom   35 type  2   force =     0.00003789    0.00004794   -0.00006637
     atom   36 type  2   force =     0.00011507    0.00008147    0.00002397

     Total force =     0.004592     Total SCF correction =     0.001986
     SCF correction compared to forces is large: reduce conv_thr to get better values

     General routines

     Parallel routines

   This run was terminated on:   0:13:42  25Dec2021

   JOB DONE.