     Program PWSCF v.6.4 starts on  8Sep2021 at 11:22: 5

     R & G space division:  proc/nbgrp/npool/nimage =      40
     Waiting for input...
     Reading input from standard input
Warning: card    &IONS ignored
Warning: card      ION_DYNAMICS = 'BFGS' ignored
Warning: card   / ignored
Warning: card    &CELL ignored
Warning: card      CELL_DYNAMICS = 'BFGS', ignored
Warning: card    / ignored

     Current dimensions of program PWSCF are:
     Max number of different atomic species (ntypx) = 10
     Max number of k-points (npk) =  40000
     Max angular momentum in pseudopotentials (lmaxx) =  3

     bravais-lattice index     =            0
     lattice parameter (alat)  =      13.3534  a.u.
     unit-cell volume          =    6743.7145 (a.u.)^3
     number of atoms/cell      =           24
     number of atomic types    =            2
     number of electrons       =       144.00
     number of Kohn-Sham states=           86
     kinetic-energy cutoff     =      45.0000  Ry
     charge density cutoff     =     360.0000  Ry
     convergence threshold     =      1.0E-06
     mixing beta               =       0.7000
     number of iterations used =            8  local-TF  mixing
     Exchange-correlation      = SLA PW GGX GGC ( 1  4  2  2 0 0)

     celldm(1)=  13.353355  celldm(2)=   0.000000  celldm(3)=   0.000000
     celldm(4)=   0.000000  celldm(5)=   0.000000  celldm(6)=   0.000000

     crystal axes: (cart. coord. in units of alat)
               a(1) = (   0.999599   0.010114   0.026467 )
               a(2) = (  -0.466364   0.763889   0.027646 )
               a(3) = (   0.091245  -0.240610   3.676205 )

     reciprocal axes: (cart. coord. in units 2 pi/alat)
               b(1) = (  0.993870  0.606226  0.015010 )
               b(2) = ( -0.015376  1.296617  0.085246 )
               b(3) = ( -0.007040 -0.014115  0.271271 )

     PseudoPot. # 1 for Mo read from file:
     ~/pseudo/Mo.pw91-n-van.UPF
     MD5 check sum: Not computed, couldn't open file
     Pseudo is Ultrasoft + core correction, Zval =  6.0
     Generated by new atomic code, or converted to UPF format
     Using radial grid of  965 points,  3 beta functions with:
                l(1) =   1
                l(2) =   2
                l(3) =   2
     Q(r) pseudized with  8 coefficients,  rinner =    1.000   1.000   1.000
                                                       1.200   1.200

     PseudoPot. # 2 for S  read from file:
     ~/pseudo/S.pw91-van_ak.UPF
     MD5 check sum: Not computed, couldn't open file
     Pseudo is Ultrasoft, Zval =  6.0
     Generated by new atomic code, or converted to UPF format
     Using radial grid of  811 points,  6 beta functions with:
                l(1) =   0
                l(2) =   0
                l(3) =   1
                l(4) =   1
                l(5) =   2
                l(6) =   2
     Q(r) pseudized with  8 coefficients,  rinner =    1.100   1.100   1.100
                                                       1.100   1.100

     atomic species   valence    mass     pseudopotential
        Mo             6.00    95.50000     Mo( 1.00)
        S              6.00    32.06500     S ( 1.00)

     No symmetry found

   Cartesian axes

     site n.     atom                  positions (alat units)
         1           Mo  tau(   1) = (   0.3754362   0.1438593   0.6451094  )
         2           Mo  tau(   2) = (   0.1086140   0.5134485   0.5537189  )
         3           Mo  tau(   3) = (   0.7966814   0.1177430   0.5832802  )
         4           Mo  tau(   4) = (   0.5955410   0.4745174   0.6823015  )
         5           Mo  tau(   5) = (   0.0176807   0.0508556   3.1360564  )
         6           Mo  tau(   6) = (  -0.2201288   0.4379885   3.1518676  )
         7           Mo  tau(   7) = (   0.5555895   0.0699015   3.0603685  )
         8           Mo  tau(   8) = (   0.3169602   0.4448407   3.0907033  )
         9           S   tau(   9) = (   0.0486437   0.0216330   0.7799449  )
        10           S   tau(  10) = (  -0.0932326   0.5880292   0.8252355  )
        11           S   tau(  11) = (   0.6321034   0.1746356   0.8700301  )
        12           S   tau(  12) = (   0.2918089   0.4052540   0.8440328  )
        13           S   tau(  13) = (   0.2043401  -0.0905485   3.3746923  )
        14           S   tau(  14) = (  -0.0078176   0.2923711   3.3780044  )
        15           S   tau(  15) = (   0.7511591  -0.0772640   3.3002821  )
        16           S   tau(  16) = (   0.5110279   0.2842309   3.3175900  )
        17           S   tau(  17) = (   0.0626511   0.2428647   0.3758407  )
        18           S   tau(  18) = (  -0.1513194   0.6670769   0.4082910  )
        19           S   tau(  19) = (   0.5488251   0.2938418   0.3966781  )
        20           S   tau(  20) = (   0.3269207   0.6760853   0.3615156  )
        21           S   tau(  21) = (   0.2695650  -0.0565741   2.9190905  )
        22           S   tau(  22) = (   0.0351571   0.3203805   2.9357394  )
        23           S   tau(  23) = (   0.8124105  -0.0411893   2.8624063  )
        24           S   tau(  24) = (   0.5845835   0.3603681   2.8845755  )

     number of k points=     5  Marzari-Vanderbilt smearing, width (Ry)=  0.0200
                       cart. coord. in units 2pi/alat
        k(    1) = (   0.0000000   0.0000000   0.0000000), wk =   0.2222222
        k(    2) = (  -0.0051255   0.4322058   0.0284154), wk =   0.4444444
        k(    3) = (   0.3312901   0.2020755   0.0050032), wk =   0.4444444
        k(    4) = (   0.3261646   0.6342813   0.0334186), wk =   0.4444444
        k(    5) = (   0.3364156  -0.2301303  -0.0234121), wk =   0.4444444

     Initial potential from superposition of free atoms

     starting charge  143.98738, renormalised to  144.00000

     negative rho (up, down):  7.913E-04 0.000E+00
     Starting wfcs are  136 randomized atomic wfcs

     Self-consistent Calculation

     iteration #  1     ecut=    45.00 Ry     beta= 0.70
     Davidson diagonalization with overlap
     ethr =  1.00E-02,  avg # of iterations =  2.0

     negative rho (up, down):  6.383E-05 0.000E+00

     total energy              =    -561.98742735 Ry
     Harris-Foulkes estimate   =    -563.99429677 Ry
     estimated scf accuracy    <       5.27980116 Ry

[...]

     iteration #  9     ecut=    45.00 Ry     beta= 0.70
     Davidson diagonalization with overlap
     c_bands:  1 eigenvalues not converged
     ethr =  1.96E-06,  avg # of iterations =  4.8

[...]

     iteration # 11     ecut=    45.00 Ry     beta= 0.70
     Davidson diagonalization with overlap
     c_bands:  1 eigenvalues not converged
     ethr =  2.52E-07,  avg # of iterations = 10.2

[...]

     total energy              =    -563.03992592 Ry
     Harris-Foulkes estimate   =    -563.03992408 Ry
     estimated scf accuracy    <       0.00000175 Ry

     iteration # 16     ecut=    45.00 Ry     beta= 0.70
     Davidson diagonalization with overlap
     ethr =  1.22E-09,  avg # of iterations =  2.2

[...]

     End of self-consistent calculation

          k = 0.0000 0.0000 0.0000 ( 34407 PWs)   bands (ev):

   -13.6961 -13.5183 -12.7698 -12.5074 -12.3519 -12.1784 -12.1658 -12.0940
   -12.0763 -11.9901 -11.8705 -11.7510 -11.6646 -11.5975 -11.3768 -11.1506
    -5.6417  -5.2592  -5.2204  -5.0982  -4.9446  -4.8180  -4.7733  -4.6783
    -4.4624  -4.3442  -4.3332  -4.0988  -4.0849  -3.9943  -3.8851  -3.8539
    -3.7147  -3.6913  -3.5363  -3.5293  -3.1410  -2.9159  -2.9071  -2.8839
    -2.8833  -2.7224  -2.5438  -2.4651  -2.4463  -2.3473  -2.2750  -1.9613
    -1.7878  -1.7600  -1.7049  -1.6816  -1.6601  -1.5604  -1.5391  -1.4942
    -1.3653  -1.1588  -1.0813  -0.8094  -0.6707  -0.6484  -0.4648  -0.4576
    -0.3369  -0.3060   0.0127   0.0326   0.1554   0.3153   0.3838   0.6317
     0.7835   1.1020   1.1106   1.2592   1.4130   1.7362   1.7455   1.8672
     2.0498   2.2602   2.3030   2.3775   2.4796   2.5126

          k =-0.0051 0.4322 0.0284 ( 34380 PWs)   bands (ev):

[...]

          k = 0.3364-0.2301-0.0234 ( 34395 PWs)   bands (ev):

   -13.3861 -13.2097 -12.6980 -12.5737 -12.5360 -12.4050 -12.3576 -12.1521
   -12.0955 -12.0531 -12.0079 -11.7845 -11.7297 -11.5240 -11.3098 -11.2932
    -5.1346  -4.8687  -4.7809  -4.7329  -4.7061  -4.5607  -4.5427  -4.4744
    -4.4041  -4.3889  -4.1745  -4.1667  -4.1388  -3.8338  -3.7221  -3.7049
    -3.6672  -3.6304  -3.4849  -3.2537  -3.1769  -3.0867  -3.0578  -2.9467
    -2.8294  -2.7238  -2.7017  -2.6113  -2.5184  -2.3985  -2.3157  -2.2905
    -2.2485  -2.0828  -2.0610  -1.9674  -1.9468  -1.7117  -1.6566  -1.4966
    -1.4481  -1.2902  -1.2281  -1.2020  -0.9379  -0.7508  -0.7099  -0.6478
    -0.4530  -0.2478  -0.1431  -0.0481   0.1781   0.2000   0.2102   0.6533
     0.8676   1.1052   1.2113   1.3136   1.6521   1.7821   1.9332   1.9425
     1.9740   2.0363   2.3347   2.3843   2.4199   2.4908

     the Fermi energy is     0.6288 ev

!    total energy              =    -563.03992847 Ry
     Harris-Foulkes estimate   =    -563.03992608 Ry
     estimated scf accuracy    <       0.00000078 Ry

     The total energy is the sum of the following terms:

     one-electron contribution =   -2961.11083123 Ry
     hartree contribution      =    1530.46472858 Ry
     xc contribution           =    -222.03065550 Ry
     ewald contribution        =    1089.62372982 Ry
     smearing contrib. (-TS)   =       0.01309987 Ry

     convergence has been achieved in  16 iterations

     negative rho (up, down):  1.125E-03 0.000E+00

     Forces acting on atoms (cartesian axes, Ry/au):

     atom    1 type  1   force =    -0.03010243   -0.03240748   -0.00414266
     atom    2 type  1   force =     0.00178488   -0.00343004    0.01784135
     atom    3 type  1   force =     0.02243555    0.01584204   -0.00602411
     atom    4 type  1   force =     0.02474391    0.01250800   -0.00838742
     atom    5 type  1   force =     0.00645164    0.01627614   -0.03510479
     atom    6 type  1   force =     0.01313938   -0.00808659   -0.01471063
     atom    7 type  1   force =    -0.02432254   -0.02448035    0.02667265
     atom    8 type  1   force =    -0.02692328   -0.00105991    0.01428358
     atom    9 type  2   force =     0.00200446    0.01421904   -0.01119364
     atom   10 type  2   force =    -0.01739042   -0.01023850   -0.00465718
     atom   11 type  2   force =    -0.00712804    0.02821042   -0.00568037
     atom   12 type  2   force =     0.00107534    0.02702207   -0.01585365
     atom   13 type  2   force =     0.03256762   -0.01405906   -0.02237315
     atom   14 type  2   force =     0.01950162    0.01073138   -0.02354214
     atom   15 type  2   force =    -0.02927849   -0.02697690    0.01827066
     atom   16 type  2   force =     0.00945740    0.01122462    0.01336978
     atom   17 type  2   force =     0.00610755   -0.00031787    0.00464272
     atom   18 type  2   force =    -0.03232066   -0.01489505    0.02263866
     atom   19 type  2   force =     0.02800502   -0.00312630    0.00839589
     atom   20 type  2   force =     0.00198186   -0.03365426    0.00031634
     atom   21 type  2   force =     0.01216754    0.01615519   -0.00760279
     atom   22 type  2   force =     0.00145843    0.03088631   -0.02070298
     atom   23 type  2   force =    -0.00264073    0.00629748    0.02972108
     atom   24 type  2   force =    -0.01277563   -0.01664038    0.02382279

     Total force =     0.155351     Total SCF correction =     0.002156

     General routines

     Parallel routines

   This run was terminated on:  11:23:31   8Sep2021

   JOB DONE.