     Program PWSCF v.6.4 starts on 12Aug2021 at 13: 5:35

     R & G space division:  proc/nbgrp/npool/nimage =      40
     Waiting for input...
     Reading input from standard input
Warning: card    &IONS ignored
Warning: card      ION_DYNAMICS = 'BFGS' ignored
Warning: card   / ignored
Warning: card    &CELL ignored
Warning: card      CELL_DYNAMICS = 'BFGS', ignored
Warning: card    / ignored

     Current dimensions of program PWSCF are:
     Max number of different atomic species (ntypx) = 10
     Max number of k-points (npk) =  40000
     Max angular momentum in pseudopotentials (lmaxx) =  3

     bravais-lattice index     =            0
     lattice parameter (alat)  =      12.3076  a.u.
     unit-cell volume          =    4877.6894 (a.u.)^3
     number of atoms/cell      =           36
     number of atomic types    =            2
     number of electrons       =       216.00
     number of Kohn-Sham states=          130
     kinetic-energy cutoff     =      45.0000  Ry
     charge density cutoff     =     360.0000  Ry
     convergence threshold     =      1.0E-06
     mixing beta               =       0.7000
     number of iterations used =            8  local-TF  mixing
     Exchange-correlation      = SLA PW GGX GGC ( 1  4  2  2 0 0)

     celldm(1)=  12.307606  celldm(2)=   0.000000  celldm(3)=   0.000000
     celldm(4)=   0.000000  celldm(5)=   0.000000  celldm(6)=   0.000000

     crystal axes: (cart. coord. in units of alat)
               a(1) = (   0.999618  -0.022786   0.015615 )
               a(2) = (  -0.503925   0.873409   0.000082 )
               a(3) = (  -0.183252  -0.174513   3.032114 )

     reciprocal axes: (cart. coord. in units 2 pi/alat)
               b(1) = (  1.012213  0.584002  0.094787 )
               b(2) = (  0.025365  1.159568  0.068272 )
               b(3) = ( -0.005213 -0.003039  0.329313 )

     PseudoPot. # 1 for Mo read from file:
     ~/pseudo/Mo.pw91-n-van.UPF
     MD5 check sum: Not computed, couldn't open file
     Pseudo is Ultrasoft + core correction, Zval =  6.0
     Generated by new atomic code, or converted to UPF format
     Using radial grid of  965 points,  3 beta functions with:
                l(1) =   1
                l(2) =   2
                l(3) =   2
     Q(r) pseudized with  8 coefficients,  rinner =    1.000   1.000   1.000
                                                       1.200   1.200

     PseudoPot. # 2 for S  read from file:
     ~/pseudo/S.pw91-van_ak.UPF
     MD5 check sum: Not computed, couldn't open file
     Pseudo is Ultrasoft, Zval =  6.0
     Generated by new atomic code, or converted to UPF format
     Using radial grid of  811 points,  6 beta functions with:
                l(1) =   0
                l(2) =   0
                l(3) =   1
                l(4) =   1
                l(5) =   2
                l(6) =   2
     Q(r) pseudized with  8 coefficients,  rinner =    1.100   1.100   1.100
                                                       1.100   1.100

     atomic species   valence    mass     pseudopotential
        Mo             6.00    95.50000     Mo( 1.00)
        S              6.00    32.06500     S ( 1.00)

     No symmetry found

   Cartesian axes

     site n.     atom                  positions (alat units)
         1           Mo  tau(   1) = (   0.2203243   0.1356673   1.0012689  )
         2           Mo  tau(   2) = (  -0.0287143   0.5565845   1.0176919  )
         3           Mo  tau(   3) = (   0.7077772   0.1321809   1.0118125  )
         4           Mo  tau(   4) = (   0.4644356   0.5752793   1.0348080  )
         5           Mo  tau(   5) = (  -0.1148879   0.1404572   2.0321930  )
         6           Mo  tau(   6) = (  -0.3534169   0.5276358   1.9851977  )
         7           Mo  tau(   7) = (   0.3703963   0.0877617   2.0417272  )
         8           Mo  tau(   8) = (   0.1194279   0.5155302   1.9887752  )
         9           Mo  tau(   9) = (  -0.2250476  -0.2089783   3.0405603  )
        10           Mo  tau(  10) = (  -0.4802843   0.2388005   3.0645192  )
        11           Mo  tau(  11) = (   0.2676835  -0.2140010   3.0575826  )
        12           Mo  tau(  12) = (   0.0255228   0.2176952   3.0416820  )
        13           S   tau(  13) = (  -0.0219961   0.2553191   0.2443657  )
        14           S   tau(  14) = (  -0.3263646   0.7174460   0.2759865  )
        15           S   tau(  15) = (   0.4349891   0.2606226   0.2859164  )
        16           S   tau(  16) = (   0.2209446   0.6779479   0.2542503  )
        17           S   tau(  17) = (  -0.0338356   0.0428349   0.7361582  )
        18           S   tau(  18) = (  -0.3135396   0.4556121   0.7790172  )
        19           S   tau(  19) = (   0.4788275  -0.0198732   0.7527103  )
        20           S   tau(  20) = (   0.2513905   0.4489460   0.7772113  )
        21           S   tau(  21) = (  -0.0255195   0.0132597   1.2474627  )
        22           S   tau(  22) = (  -0.2670927   0.4181921   1.2621377  )
        23           S   tau(  23) = (   0.4688318  -0.0157449   1.2417861  )
        24           S   tau(  24) = (   0.1998976   0.3981767   1.2670332  )
        25           S   tau(  25) = (   0.1015975  -0.0520897   1.7599159  )
        26           S   tau(  26) = (  -0.1213279   0.3776325   1.7337612  )
        27           S   tau(  27) = (   0.6394217  -0.0596203   1.7853749  )
        28           S   tau(  28) = (   0.3954618   0.3308086   1.7689131  )
        29           S   tau(  29) = (   0.1442425   0.0438546   2.3151791  )
        30           S   tau(  30) = (  -0.1107934   0.4805753   2.2619389  )
        31           S   tau(  31) = (   0.6348335   0.1469883   2.3192633  )
        32           S   tau(  32) = (   0.3618429   0.5654984   2.2637309  )
        33           S   tau(  33) = (  -0.1981830   0.0734954   2.7751641  )
        34           S   tau(  34) = (  -0.4659857   0.5028716   2.8211489  )
        35           S   tau(  35) = (   0.2898826   0.0719586   2.8248868  )
        36           S   tau(  36) = (   0.0145624   0.5160534   2.7994022  )

     number of k points=     5  Marzari-Vanderbilt smearing, width (Ry)=  0.0200
                       cart. coord. in units 2pi/alat
        k(    1) = (   0.0000000   0.0000000   0.0000000), wk =   0.2222222
        k(    2) = (   0.0084551   0.3865227   0.0227573), wk =   0.4444444
        k(    3) = (   0.3374043   0.1946672   0.0315958), wk =   0.4444444
        k(    4) = (   0.3458594   0.5811899   0.0543531), wk =   0.4444444
        k(    5) = (   0.3289493  -0.1918554   0.0088384), wk =   0.4444444

     Initial potential from superposition of free atoms

     starting charge  215.98107, renormalised to  216.00000
     Starting wfcs are  204 randomized atomic wfcs

     Self-consistent Calculation

     iteration #  1     ecut=    45.00 Ry     beta= 0.70
     Davidson diagonalization with overlap
     ethr =  1.00E-02,  avg # of iterations =  2.0

     total energy              =    -843.28350257 Ry
     Harris-Foulkes estimate   =    -846.24749762 Ry
     estimated scf accuracy    <       7.89038052 Ry

[...]

     iteration #  7     ecut=    45.00 Ry     beta= 0.70
     Davidson diagonalization with overlap
     c_bands:  2 eigenvalues not converged
     ethr =  1.63E-06,  avg # of iterations = 12.8

[...]

     total energy              =    -844.83357368 Ry
     Harris-Foulkes estimate   =    -844.83357431 Ry
     estimated scf accuracy    <       0.00000268 Ry

     iteration # 17     ecut=    45.00 Ry     beta= 0.70
     Davidson diagonalization with overlap
     ethr =  1.24E-09,  avg # of iterations =  3.4

     End of self-consistent calculation

          k = 0.0000 0.0000 0.0000 ( 24839 PWs)   bands (ev):

    -7.2636  -7.1544  -7.1093  -6.3943  -6.2101  -6.0758  -5.6544  -5.6321
    -5.5782  -5.5665  -5.5183  -5.4831  -5.4241  -5.3696  -5.3076  -5.2584
    -5.2076  -5.2072  -5.1907  -5.1652  -5.0457  -5.0000  -4.9294  -4.8638
     0.9757   1.0516   1.0990   1.1568   1.2047   1.2298   1.2549   1.2897
     1.3425   1.4586   1.4977   1.6685   1.8851   1.9344   2.0049   2.0331
     2.0908   2.1304   2.1477   2.2647   2.4041   2.6489   2.6795   2.7552
     2.7973   2.8986   2.9568   3.0970   3.1278   3.3045   3.4079   3.4877
     3.5362   3.6080   3.6204   3.7461   3.7670   3.8599   3.8962   3.9434
     3.9906   4.0668   4.1826   4.2750   4.3525   4.4589   4.4947   4.5335
     4.6744   4.6933   4.7455   4.8392   4.9059   4.9559   4.9867   5.0525
     5.0785   5.1765   5.2490   5.3313   5.3530   5.4789   5.6252   5.6556
     5.7274   5.7667   5.7925   5.8161   5.8779   5.8794   6.0012   6.0459
     6.1147   6.1987   6.2406   6.3091   6.3328   6.3446   6.3730   6.5346
     6.7359   6.8566   7.0541   7.2837   7.7948   7.9849   8.0283   8.2610
     8.4367   8.4615   8.5207   8.5668   8.5850   8.6063   8.6390   8.6767
     8.7341   8.8337   8.9695   9.0161   9.0423   9.0812   9.1078   9.1369
     9.1592   9.1962

[...]

          k = 0.3289-0.1919 0.0088 ( 24842 PWs)   bands (ev):

    -6.9604  -6.8553  -6.8209  -6.2883  -6.2374  -6.1306  -5.9150  -5.8792
    -5.7490  -5.6649  -5.6473  -5.6041  -5.5565  -5.4692  -5.4038  -5.3381
    -5.2791  -5.2237  -5.1751  -5.1213  -5.0538  -5.0061  -4.9528  -4.8867
     1.3675   1.4554   1.4878   1.5382   1.5747   1.6102   1.6896   1.7641
     1.8019   1.8462   1.8887   1.9343   2.0053   2.0851   2.1250   2.1714
     2.2085   2.3197   2.4798   2.5282   2.6257   2.7423   2.8343   2.8950
     2.9150   2.9674   3.0366   3.1116   3.1602   3.2005   3.2675   3.3459
     3.4298   3.4929   3.5670   3.5763   3.6666   3.7232   3.7616   3.8211
     3.8821   3.9150   4.0124   4.0883   4.1291   4.2521   4.3064   4.3465
     4.3838   4.4576   4.5340   4.5911   4.6823   4.7121   4.7556   4.8328
     4.9261   4.9338   4.9893   5.0492   5.0965   5.1379   5.1905   5.2285
     5.2479   5.3424   5.4420   5.5149   5.6270   5.6666   5.7567   5.9249
     5.9651   6.0996   6.1898   6.2533   6.3059   6.3539   6.3947   6.4930
     6.5674   6.7462   6.8320   7.2327   7.3285   7.6599   7.8155   8.0835
     8.2794   8.3654   8.4638   8.5014   8.5393   8.5909   8.6140   8.6634
     8.7033   8.7394   8.7783   8.8074   8.8735   8.9350   8.9643   9.0367
     9.0853   9.1213

     the Fermi energy is     7.2911 ev

!    total energy              =    -844.83357332 Ry
     Harris-Foulkes estimate   =    -844.83357406 Ry
     estimated scf accuracy    <       0.00000081 Ry

     The total energy is the sum of the following terms:

     one-electron contribution =       7.95107428 Ry
     hartree contribution      =     122.59251846 Ry
     xc contribution           =    -333.13538444 Ry
     ewald contribution        =    -642.24197465 Ry
     smearing contrib. (-TS)   =       0.00019303 Ry

     convergence has been achieved in  17 iterations

     Forces acting on atoms (cartesian axes, Ry/au):

     atom    1 type  1   force =     0.02499446    0.02359551   -0.02855041
     atom    2 type  1   force =    -0.00800443    0.06252286   -0.05205592
     atom    3 type  1   force =     0.05260058   -0.01126392   -0.00920705
     atom    4 type  1   force =    -0.00092253    0.00495761    0.03748692
     atom    5 type  1   force =     0.01336456   -0.01627584   -0.01133251
     atom    6 type  1   force =    -0.01893835    0.00249157    0.00089736
     atom    7 type  1   force =     0.01877616   -0.02175630   -0.03016060
     atom    8 type  1   force =     0.02533670    0.00559937   -0.01174403
     atom    9 type  1   force =     0.02476286    0.04641598   -0.07241249
     atom   10 type  1   force =     0.03260261   -0.04566922    0.00476835
     atom   11 type  1   force =     0.03265978    0.00415923    0.04923689
     atom   12 type  1   force =     0.03162273    0.03672056   -0.02733445
     atom   13 type  2   force =    -0.07046997   -0.00117595    0.02155409
     atom   14 type  2   force =     0.05946192   -0.04691350   -0.02753084
     atom   15 type  2   force =     0.03162990   -0.02810109   -0.04896817
     atom   16 type  2   force =    -0.07803713   -0.00368162    0.01703503
     atom   17 type  2   force =     0.00175681   -0.04461338    0.07123664
     atom   18 type  2   force =     0.07744756   -0.01904000   -0.02282803
     atom   19 type  2   force =    -0.02005508   -0.00738674    0.05215626
     atom   20 type  2   force =    -0.06951311   -0.04292486    0.00106388
     atom   21 type  2   force =    -0.03581224   -0.01025156   -0.01617350
     atom   22 type  2   force =    -0.05707121    0.02789803   -0.02566121
     atom   23 type  2   force =    -0.01996374   -0.02001225    0.01299791
     atom   24 type  2   force =     0.04636614    0.03754742   -0.02705456
     atom   25 type  2   force =     0.03793050   -0.00317319    0.07118118
     atom   26 type  2   force =     0.01589753   -0.00188107    0.03158815
     atom   27 type  2   force =    -0.00739858    0.01914699    0.03747715
     atom   28 type  2   force =    -0.01815314    0.03898801    0.03698152
     atom   29 type  2   force =    -0.01737130    0.00837207   -0.02482813
     atom   30 type  2   force =     0.00080114   -0.03105276   -0.00556374
     atom   31 type  2   force =    -0.05674745   -0.02430308   -0.04539814
     atom   32 type  2   force =     0.00726692    0.02319881   -0.04298100
     atom   33 type  2   force =    -0.03796100    0.00651877    0.07183977
     atom   34 type  2   force =    -0.02335554    0.03487905   -0.02821609
     atom   35 type  2   force =    -0.00374613    0.00387825   -0.00261909
     atom   36 type  2   force =     0.00824205   -0.00741376    0.04311882

     Total force =     0.355810     Total SCF correction =     0.002443

     General routines

     Parallel routines

   This run was terminated on:  13: 7:18  12Aug2021

   JOB DONE.