     Program PWSCF v.6.4 starts on 14Oct2021 at 10: 6:42

     R & G space division:  proc/nbgrp/npool/nimage =      40
     Waiting for input...
     Reading input from standard input
Warning: card    &IONS ignored
Warning: card      ION_DYNAMICS = 'BFGS' ignored
Warning: card   / ignored
Warning: card    &CELL ignored
Warning: card      CELL_DYNAMICS = 'BFGS', ignored
Warning: card    / ignored

     Current dimensions of program PWSCF are:
     Max number of different atomic species (ntypx) = 10
     Max number of k-points (npk) =  40000
     Max angular momentum in pseudopotentials (lmaxx) =  3

     bravais-lattice index     =            0
     lattice parameter (alat)  =      12.1282  a.u.
     unit-cell volume          =    8839.6429 (a.u.)^3
     number of atoms/cell      =           36
     number of atomic types    =            2
     number of electrons       =       216.00
     number of Kohn-Sham states=          130
     kinetic-energy cutoff     =      45.0000  Ry
     charge density cutoff     =     360.0000  Ry
     convergence threshold     =      1.0E-06
     mixing beta               =       0.7000
     number of iterations used =            8  local-TF  mixing
     Exchange-correlation      = SLA PW GGX GGC ( 1  4  2  2 0 0)

     celldm(1)=  12.128177  celldm(2)=   0.000000  celldm(3)=   0.000000
     celldm(4)=   0.000000  celldm(5)=   0.000000  celldm(6)=   0.000000

     crystal axes: (cart. coord. in units of alat)
               a(1) = (   1.000000   0.000000   0.000000 )
               a(2) = (   0.531020   0.846649   0.000000 )
               a(3) = (   0.197719   0.699842   5.852544 )

     reciprocal axes: (cart. coord. in units 2 pi/alat)
               b(1) = (  1.000000 -0.627202  0.041217 )
               b(2) = (  0.000000  1.181127 -0.141238 )
               b(3) = (  0.000000  0.000000  0.170866 )

     PseudoPot. # 1 for Mo read from file:
     ~/pseudo/Mo.pw91-n-van.UPF
     MD5 check sum: Not computed, couldn't open file
     Pseudo is Ultrasoft + core correction, Zval =  6.0
     Generated by new atomic code, or converted to UPF format
     Using radial grid of  965 points,  3 beta functions with:
                l(1) =   1
                l(2) =   2
                l(3) =   2
     Q(r) pseudized with  8 coefficients,  rinner =    1.000   1.000   1.000
                                                       1.200   1.200

     PseudoPot. # 2 for S  read from file:
     ~/pseudo/S.pw91-van_ak.UPF
     MD5 check sum: Not computed, couldn't open file
     Pseudo is Ultrasoft, Zval =  6.0
     Generated by new atomic code, or converted to UPF format
     Using radial grid of  811 points,  6 beta functions with:
                l(1) =   0
                l(2) =   0
                l(3) =   1
                l(4) =   1
                l(5) =   2
                l(6) =   2
     Q(r) pseudized with  8 coefficients,  rinner =    1.100   1.100   1.100
                                                       1.100   1.100

     atomic species   valence    mass     pseudopotential
        Mo             6.00    95.50000     Mo( 1.00)
        S              6.00    32.06500     S ( 1.00)

     No symmetry found

   Cartesian axes

     site n.     atom                  positions (alat units)
         1           Mo  tau(   1) = (   0.5242794   0.7922577   5.7768649  )
         2           Mo  tau(   2) = (   0.4604083   0.4091903   0.1161788  )
         3           Mo  tau(   3) = (   1.2882312   1.2148552   5.7804869  )
         4           Mo  tau(   4) = (   1.2242821   0.8315826   0.1201700  )
         5           Mo  tau(   5) = (   1.1703605   1.2288569   4.4795069  )
         6           Mo  tau(   6) = (   0.9048891   0.8054859   4.4790852  )
         7           Mo  tau(   7) = (   0.4048596   0.8055382   4.4795305  )
         8           Mo  tau(   8) = (   0.6704088   1.2288227   4.4791554  )
         9           Mo  tau(   9) = (   1.1197660   0.4639735   1.3567272  )
        10           Mo  tau(  10) = (   1.3852170   0.8872482   1.3556407  )
        11           Mo  tau(  11) = (   0.8853075   0.8873124   1.3567818  )
        12           Mo  tau(  12) = (   0.6197541   0.4638649   1.3556170  )
        13           S   tau(  13) = (   0.1470336   0.2627191   0.1998444  )
        14           S   tau(  14) = (   1.4243062   0.6730759   0.4377645  )
        15           S   tau(  15) = (   0.9090171   0.6877956   0.2007845  )
        16           S   tau(  16) = (   0.6773382   0.2669656   0.4253868  )
        17           S   tau(  17) = (   1.1572807   0.9451195   4.7282531  )
        18           S   tau(  18) = (   1.4233568   1.3686424   4.7277891  )
        19           S   tau(  19) = (   0.9228765   1.3684859   4.7282608  )
        20           S   tau(  20) = (   0.6579288   0.9452461   4.7278334  )
        21           S   tau(  21) = (   0.1065728   0.1801251   1.6052127  )
        22           S   tau(  22) = (   0.3728313   0.6037713   1.6047388  )
        23           S   tau(  23) = (   0.8720972   0.6034220   1.6052063  )
        24           S   tau(  24) = (   1.1383381   1.0271208   1.6047887  )
        25           S   tau(  25) = (   0.3261000   0.9511861   5.4575716  )
        26           S   tau(  26) = (   1.6016230   1.3614579   5.6968738  )
        27           S   tau(  27) = (   1.0711627   1.3568082   5.4697520  )
        28           S   tau(  28) = (   0.8395207   0.9359260   5.6960257  )
        29           S   tau(  29) = (   1.1572233   0.9450214   4.2305232  )
        30           S   tau(  30) = (   0.8914480   0.5214652   4.2303302  )
        31           S   tau(  31) = (   0.3916891   0.5217111   4.2305706  )
        32           S   tau(  32) = (   0.6569350   0.9448350   4.2303428  )
        33           S   tau(  33) = (   0.1070782   0.1803996   1.1079790  )
        34           S   tau(  34) = (   0.3714488   0.6030033   1.1067045  )
        35           S   tau(  35) = (   0.8725874   0.6037909   1.1079302  )
        36           S   tau(  36) = (   0.6058904   0.1796363   1.1066615  )

     number of k points=     5  Marzari-Vanderbilt smearing, width (Ry)=  0.0200
                       cart. coord. in units 2pi/alat
        k(    1) = (   0.0000000   0.0000000   0.0000000), wk =   0.2222222
        k(    2) = (   0.0000000   0.3937089  -0.0470794), wk =   0.4444444
        k(    3) = (   0.3333333  -0.2090674   0.0137389), wk =   0.4444444
        k(    4) = (   0.3333333   0.1846415  -0.0333404), wk =   0.4444444
        k(    5) = (   0.3333333  -0.6027763   0.0608183), wk =   0.4444444

     Initial potential from superposition of free atoms

     starting charge  215.98107, renormalised to  216.00000

     negative rho (up, down):  9.735E-04 0.000E+00
     Starting wfcs are  204 randomized atomic wfcs

     Self-consistent Calculation

     iteration #  1     ecut=    45.00 Ry     beta= 0.70
     Davidson diagonalization with overlap
     ethr =  1.00E-02,  avg # of iterations =  2.2

     negative rho (up, down):  8.622E-05 0.000E+00

     total energy              =    -843.56764350 Ry
     Harris-Foulkes estimate   =    -846.21727029 Ry
     estimated scf accuracy    <       7.24164430 Ry

[...]

     iteration # 13     ecut=    45.00 Ry     beta= 0.70
     Davidson diagonalization with overlap
     c_bands:  1 eigenvalues not converged
     ethr =  1.68E-06,  avg # of iterations =  8.4

[...]

     End of self-consistent calculation

          k = 0.0000 0.0000 0.0000 ( 44995 PWs)   bands (ev):

   -13.0996 -13.0295 -13.0276 -12.5824 -11.9268 -11.8882 -11.8664 -11.8635
   -11.2564 -11.2545 -11.1087 -11.1038 -11.1009 -11.1000 -11.0891 -11.0867
   -11.0624 -10.8950 -10.8910 -10.8878 -10.8874 -10.8842 -10.0599 -10.0438
    -5.0509  -5.0254  -4.7161  -4.7140  -4.6540  -4.6515  -4.6514  -4.6497
    -4.5073  -4.5034  -4.4639  -4.2097  -3.8516  -3.8217  -3.7855  -3.7826
    -3.7820  -3.7806  -3.7094  -3.6988  -3.6960  -3.3331  -2.9992  -2.9967
    -2.9698  -2.9672  -2.9666  -2.9656  -2.7221  -2.6208  -2.6120  -2.3433
    -2.1647  -2.1487  -2.1468  -2.1395  -2.1381  -2.0902  -1.6642  -1.6623
    -1.6403  -1.6392  -1.4840  -1.3776  -1.3543  -1.2760  -1.1882  -1.1872
    -1.1844  -1.0180  -1.0159  -1.0123  -1.0011  -0.9530  -0.8293  -0.8266
    -0.8237  -0.8230  -0.7783  -0.7683  -0.5781  -0.4449  -0.4437  -0.1014
    -0.0993   0.1144   0.1167   0.1228   0.1244   0.2143   0.2204   0.2431
     0.4454   0.4589   0.4659   0.4663   0.4697   0.5376   0.5401   0.5420
     0.5514   0.8820   0.8837   1.2687   1.3250   1.4847   1.7604   2.5303
     2.7529   2.8129   2.9782   3.1750   3.1773   3.1785   3.1808   3.2072
     3.2223   3.2245   3.5705   3.6446   3.6533   3.6715   3.6737   3.7685
     3.7720   3.8031

[...]

     the Fermi energy is     1.0325 ev

!    total energy              =    -844.95225091 Ry
     Harris-Foulkes estimate   =    -844.95225215 Ry
     estimated scf accuracy    <       0.00000048 Ry

     The total energy is the sum of the following terms:

     one-electron contribution =   -6395.63074900 Ry
     hartree contribution      =    3278.64356458 Ry
     xc contribution           =    -334.02250654 Ry
     ewald contribution        =    2606.02799189 Ry
     smearing contrib. (-TS)   =       0.02944815 Ry

     convergence has been achieved in  19 iterations

[...]

     Forces acting on atoms (cartesian axes, Ry/au):

     atom    1 type  1   force =    -0.12177935   -0.09326582   -0.10028744
     atom    2 type  1   force =     0.11977595    0.09620020    0.09828893
     atom    3 type  1   force =    -0.12044821   -0.09686502   -0.09886372
     atom    4 type  1   force =     0.12121213    0.09310305    0.09869280
     atom    5 type  1   force =    -0.00397848   -0.00216303   -0.00007187
     atom    6 type  1   force =    -0.00447028   -0.00242478   -0.00014840
     atom    7 type  1   force =    -0.00379099   -0.00217539   -0.00015678
     atom    8 type  1   force =    -0.00426886   -0.00263394   -0.00023020
     atom    9 type  1   force =    -0.00334508   -0.00192536   -0.00149206
     atom   10 type  1   force =    -0.00463851   -0.00285694   -0.00025897
     atom   11 type  1   force =    -0.00348551   -0.00203105   -0.00172725
     atom   12 type  1   force =    -0.00479081   -0.00258278   -0.00030813
     atom   13 type  2   force =    -0.06397649   -0.01859962    0.01315728
     atom   14 type  2   force =    -0.02851755   -0.00386249   -0.07870201
     atom   15 type  2   force =    -0.06100305   -0.02045276    0.01215294
     atom   16 type  2   force =    -0.03432159   -0.01178425   -0.06879125
     atom   17 type  2   force =     0.00199300    0.00078713   -0.00157374
     atom   18 type  2   force =     0.00097754    0.00072095   -0.00023116
     atom   19 type  2   force =     0.00196567    0.00106685   -0.00155448
     atom   20 type  2   force =     0.00084807    0.00061321   -0.00040126
     atom   21 type  2   force =     0.00180535    0.00077209   -0.00145756
     atom   22 type  2   force =     0.00158436    0.00100500   -0.00186582
     atom   23 type  2   force =     0.00157575    0.00107091   -0.00153604
     atom   24 type  2   force =     0.00132283    0.00075996   -0.00173937
     atom   25 type  2   force =     0.02792786    0.00395460    0.07985908
     atom   26 type  2   force =     0.06417021    0.01892967   -0.01322115
     atom   27 type  2   force =     0.03508542    0.01239573    0.07029055
     atom   28 type  2   force =     0.06116486    0.02037843   -0.01242462
     atom   29 type  2   force =     0.00291558    0.00123386    0.00188973
     atom   30 type  2   force =     0.00307808    0.00164135    0.00183559
     atom   31 type  2   force =     0.00240160    0.00171585    0.00177408
     atom   32 type  2   force =     0.00266870    0.00163540    0.00180732
     atom   33 type  2   force =     0.00140127    0.00091553    0.00014850
     atom   34 type  2   force =     0.00369427    0.00189856    0.00345078
     atom   35 type  2   force =     0.00142171    0.00048863    0.00039493
     atom   36 type  2   force =     0.00382455    0.00233627    0.00330077

     Total force =     0.422364     Total SCF correction =     0.001525

     General routines

     Parallel routines

   This run was terminated on:  10: 9:32  14Oct2021

   JOB DONE.

     Program PWSCF v.6.4 starts on 14Oct2021 at 10:50:45

     R & G space division:  proc/nbgrp/npool/nimage =      40
     Waiting for input...
     Reading input from standard input
Warning: card    &IONS ignored
Warning: card      ION_DYNAMICS = 'BFGS' ignored
Warning: card   / ignored
Warning: card    &CELL ignored
Warning: card      CELL_DYNAMICS = 'BFGS', ignored
Warning: card    / ignored

     Current dimensions of program PWSCF are:
     Max number of different atomic species (ntypx) = 10
     Max number of k-points (npk) =  40000
     Max angular momentum in pseudopotentials (lmaxx) =  3

     bravais-lattice index     =            0
     lattice parameter (alat)  =      12.1282  a.u.
     unit-cell volume          =    8839.6429 (a.u.)^3
     number of atoms/cell      =           36
     number of atomic types    =            2
     number of electrons       =       216.00
     number of Kohn-Sham states=          130
     kinetic-energy cutoff     =      45.0000  Ry
     charge density cutoff     =     360.0000  Ry
     convergence threshold     =      1.0E-06
     mixing beta               =       0.7000
     number of iterations used =            8  local-TF  mixing
     Exchange-correlation      = SLA PW GGX GGC ( 1  4  2  2 0 0)

     celldm(1)=  12.128177  celldm(2)=   0.000000  celldm(3)=   0.000000
     celldm(4)=   0.000000  celldm(5)=   0.000000  celldm(6)=   0.000000

     crystal axes: (cart. coord. in units of alat)
               a(1) = (   1.000000   0.000000   0.000000 )
               a(2) = (   0.531020   0.846649   0.000000 )
               a(3) = (   0.197719   0.699842   5.852544 )

     reciprocal axes: (cart. coord. in units 2 pi/alat)
               b(1) = (  1.000000 -0.627202  0.041217 )
               b(2) = (  0.000000  1.181127 -0.141238 )
               b(3) = (  0.000000  0.000000  0.170866 )

     PseudoPot. # 1 for Mo read from file:
     ~/pseudo/Mo.pw91-n-van.UPF
     MD5 check sum: Not computed, couldn't open file
     Pseudo is Ultrasoft + core correction, Zval =  6.0
     Generated by new atomic code, or converted to UPF format
     Using radial grid of  965 points,  3 beta functions with:
                l(1) =   1
                l(2) =   2
                l(3) =   2
     Q(r) pseudized with  8 coefficients,  rinner =    1.000   1.000   1.000
                                                       1.200   1.200

     PseudoPot. # 2 for S  read from file:
     ~/pseudo/S.pw91-van_ak.UPF
     MD5 check sum: Not computed, couldn't open file
     Pseudo is Ultrasoft, Zval =  6.0
     Generated by new atomic code, or converted to UPF format
     Using radial grid of  811 points,  6 beta functions with:
                l(1) =   0
                l(2) =   0
                l(3) =   1
                l(4) =   1
                l(5) =   2
                l(6) =   2
     Q(r) pseudized with  8 coefficients,  rinner =    1.100   1.100   1.100
                                                       1.100   1.100

     atomic species   valence    mass     pseudopotential
        Mo             6.00    95.50000     Mo( 1.00)
        S              6.00    32.06500     S ( 1.00)

     No symmetry found

   Cartesian axes

     site n.     atom                  positions (alat units)
         1           Mo  tau(   1) = (   0.5242794   0.7922577   5.7768649  )
         2           Mo  tau(   2) = (   0.4604083   0.4091903   0.1161788  )
         3           Mo  tau(   3) = (   1.2882312   1.2148552   5.7804869  )
         4           Mo  tau(   4) = (   1.2242821   0.8315826   0.1201700  )
         5           Mo  tau(   5) = (   1.1703605   1.2288569   4.4795069  )
         6           Mo  tau(   6) = (   0.9048891   0.8054859   4.4790852  )
         7           Mo  tau(   7) = (   0.4048596   0.8055382   4.4795305  )
         8           Mo  tau(   8) = (   0.6704088   1.2288227   4.4791554  )
         9           Mo  tau(   9) = (   1.1197660   0.4639735   1.3567272  )
        10           Mo  tau(  10) = (   1.3852170   0.8872482   1.3556407  )
        11           Mo  tau(  11) = (   0.8853075   0.8873124   1.3567818  )
        12           Mo  tau(  12) = (   0.6197541   0.4638649   1.3556170  )
        13           S   tau(  13) = (   0.1470336   0.2627191   0.1998444  )
        14           S   tau(  14) = (   1.4243062   0.6730759   0.4377645  )
        15           S   tau(  15) = (   0.9090171   0.6877956   0.2007845  )
        16           S   tau(  16) = (   0.6773382   0.2669656   0.4253868  )
        17           S   tau(  17) = (   1.1572807   0.9451195   4.7282531  )
        18           S   tau(  18) = (   1.4233568   1.3686424   4.7277891  )
        19           S   tau(  19) = (   0.9228765   1.3684859   4.7282608  )
        20           S   tau(  20) = (   0.6579288   0.9452461   4.7278334  )
        21           S   tau(  21) = (   0.1065728   0.1801251   1.6052127  )
        22           S   tau(  22) = (   0.3728313   0.6037713   1.6047388  )
        23           S   tau(  23) = (   0.8720972   0.6034220   1.6052063  )
        24           S   tau(  24) = (   1.1383381   1.0271208   1.6047887  )
        25           S   tau(  25) = (   0.3261000   0.9511861   5.4575716  )
        26           S   tau(  26) = (   1.6016230   1.3614579   5.6968738  )
        27           S   tau(  27) = (   1.0711627   1.3568082   5.4697520  )
        28           S   tau(  28) = (   0.8395207   0.9359260   5.6960257  )
        29           S   tau(  29) = (   1.1572233   0.9450214   4.2305232  )
        30           S   tau(  30) = (   0.8914480   0.5214652   4.2303302  )
        31           S   tau(  31) = (   0.3916891   0.5217111   4.2305706  )
        32           S   tau(  32) = (   0.6569350   0.9448350   4.2303428  )
        33           S   tau(  33) = (   0.1070782   0.1803996   1.1079790  )
        34           S   tau(  34) = (   0.3714488   0.6030033   1.1067045  )
        35           S   tau(  35) = (   0.8725874   0.6037909   1.1079302  )
        36           S   tau(  36) = (   0.6058904   0.1796363   1.1066615  )

     number of k points=     5  Marzari-Vanderbilt smearing, width (Ry)=  0.0200
                       cart. coord. in units 2pi/alat
        k(    1) = (   0.0000000   0.0000000   0.0000000), wk =   0.2222222
        k(    2) = (   0.0000000   0.3937089  -0.0470794), wk =   0.4444444
        k(    3) = (   0.3333333  -0.2090674   0.0137389), wk =   0.4444444
        k(    4) = (   0.3333333   0.1846415  -0.0333404), wk =   0.4444444
        k(    5) = (   0.3333333  -0.6027763   0.0608183), wk =   0.4444444

     Initial potential from superposition of free atoms

     starting charge  215.98107, renormalised to  216.00000

     negative rho (up, down):  9.735E-04 0.000E+00
     Starting wfcs are  204 randomized atomic wfcs

     Self-consistent Calculation

[...]

     iteration # 14     ecut=    45.00 Ry     beta= 0.70
     Davidson diagonalization with overlap
     c_bands:  2 eigenvalues not converged
     ethr =  1.68E-07,  avg # of iterations =  6.8

[...]

     total energy              =    -844.95225189 Ry
     Harris-Foulkes estimate   =    -844.95225242 Ry
     estimated scf accuracy    <       0.00000568 Ry

     iteration # 19     ecut=    45.00 Ry     beta= 0.70
     Davidson diagonalization with overlap
     ethr =  2.63E-09,  avg # of iterations =  1.0

[...]

     End of self-consistent calculation

[...]

          k = 0.3333-0.6028 0.0608 ( 45065 PWs)   bands (ev):

   -12.5992 -12.5033 -12.3017 -12.1238 -12.0133 -12.0077 -12.0048 -12.0034
   -11.9333 -11.9313 -11.3729 -11.3693 -11.3685 -11.3673 -11.2890 -11.2864
   -10.8927 -10.8909 -10.8655 -10.8266 -10.7755 -10.7733 -10.3495 -10.3260
    -4.6354  -4.3981  -4.2974  -4.2721  -4.2703  -4.1559  -4.1446  -3.7808
    -3.7788  -3.7653  -3.7605  -3.7585  -3.7577  -3.5061  -3.4862  -3.4838
    -3.3230  -3.2041  -2.9624  -2.9602  -2.9061  -2.7469  -2.7039  -2.7037
    -2.7006  -2.6989  -2.6959  -2.6949  -2.5989  -2.5660  -2.5639  -2.5004
    -2.4975  -2.4959  -2.4948  -2.4615  -2.4587  -2.3327  -2.1468  -2.1259
    -2.1199  -2.0516  -2.0387  -2.0329  -2.0293  -2.0278  -1.8655  -1.8626
    -1.7111  -1.6299  -1.2802  -1.1825  -1.1692  -1.1593  -1.1512  -0.8376
    -0.8226  -0.8201  -0.8189  -0.8179  -0.7272  -0.7255  -0.6017  -0.5867
    -0.3294  -0.1941  -0.0558  -0.0317  -0.0301  -0.0286   0.0056   0.0107
     0.0294   0.1615   0.1892   0.1913   0.2332   0.2913   0.2930   0.2946
     0.2960   0.6209   1.0493   1.0515   1.1440   1.4563   1.6459   2.0727
     2.3520   2.6167   2.6439   2.6877   2.8269   2.8295   2.8306   2.8320
     2.8767   2.8779   2.8802   2.8843   3.2184   3.4026   3.4060   3.4085
     3.4109   3.4436

     the Fermi energy is     1.0325 ev

!    total energy              =    -844.95225091 Ry
     Harris-Foulkes estimate   =    -844.95225218 Ry
     estimated scf accuracy    <       0.00000050 Ry

     The total energy is the sum of the following terms:

     one-electron contribution =   -6395.63081846 Ry
     hartree contribution      =    3278.64361478 Ry
     xc contribution           =    -334.02248701 Ry
     ewald contribution        =    2606.02799189 Ry
     smearing contrib. (-TS)   =       0.02944789 Ry

     convergence has been achieved in  19 iterations

     negative rho (up, down):  1.358E-03 0.000E+00

     Forces acting on atoms (cartesian axes, Ry/au):

     atom    1 type  1   force =    -0.12177984   -0.09326606   -0.10028756
     atom    2 type  1   force =     0.11977625    0.09620051    0.09828959
     atom    3 type  1   force =    -0.12044873   -0.09686530   -0.09886376
     atom    4 type  1   force =     0.12121237    0.09310321    0.09869350
     atom    5 type  1   force =    -0.00397503   -0.00216308   -0.00007309
     atom    6 type  1   force =    -0.00446921   -0.00242615   -0.00015042
     atom    7 type  1   force =    -0.00378802   -0.00217423   -0.00015885
     atom    8 type  1   force =    -0.00426823   -0.00263499   -0.00023173
     atom    9 type  1   force =    -0.00334517   -0.00192536   -0.00149171
     atom   10 type  1   force =    -0.00463858   -0.00285693   -0.00025863
     atom   11 type  1   force =    -0.00348568   -0.00203110   -0.00172695
     atom   12 type  1   force =    -0.00479091   -0.00258278   -0.00030779
     atom   13 type  2   force =    -0.06397690   -0.01859964    0.01315796
     atom   14 type  2   force =    -0.02851766   -0.00386243   -0.07870167
     atom   15 type  2   force =    -0.06100341   -0.02045295    0.01215365
     atom   16 type  2   force =    -0.03432157   -0.01178427   -0.06879094
     atom   17 type  2   force =     0.00199249    0.00078751   -0.00157313
     atom   18 type  2   force =     0.00097667    0.00072120   -0.00023128
     atom   19 type  2   force =     0.00196523    0.00106724   -0.00155386
     atom   20 type  2   force =     0.00084713    0.00061345   -0.00040147
     atom   21 type  2   force =     0.00180523    0.00077208   -0.00145719
     atom   22 type  2   force =     0.00158423    0.00100495   -0.00186554
     atom   23 type  2   force =     0.00157564    0.00107093   -0.00153573
     atom   24 type  2   force =     0.00132264    0.00075992   -0.00173917
     atom   25 type  2   force =     0.02792762    0.00395452    0.07985926
     atom   26 type  2   force =     0.06417017    0.01892970   -0.01322131
     atom   27 type  2   force =     0.03508511    0.01239568    0.07029078
     atom   28 type  2   force =     0.06116504    0.02037854   -0.01242483
     atom   29 type  2   force =     0.00291527    0.00123406    0.00188987
     atom   30 type  2   force =     0.00307733    0.00164138    0.00183629
     atom   31 type  2   force =     0.00240132    0.00171603    0.00177424
     atom   32 type  2   force =     0.00266804    0.00163543    0.00180791
     atom   33 type  2   force =     0.00140116    0.00091555    0.00014816
     atom   34 type  2   force =     0.00369403    0.00189852    0.00345041
     atom   35 type  2   force =     0.00142162    0.00048864    0.00039458
     atom   36 type  2   force =     0.00382436    0.00233621    0.00330042

     Total force =     0.422366     Total SCF correction =     0.001561

     General routines

     Parallel routines

   This run was terminated on:  10:54:18  14Oct2021

   JOB DONE.